-1 1:-0.906886 2:-0.473550 3:0.228844 4:0.350126 5:-0.326876 6:-0.627623 7:-0.952550 8:-1.823573 9:0.939094 10:0.587263 11:0.347315 12:2.382439 13:-1.130902 14:0.677658 15:-0.160233 16:0.581076 17:0.523443 18:1.187358 19:0.913258 20:0.619530 21:-1.209623 22:-0.222621 23:-0.099727 24:0.039538 25:0.621114 26:1.371108 27:0.878458 28:-0.660946 29:-0.767965 30:-0.054187 31:-0.614251 32:0.065583 33:1.848086 34:2.173579 35:-0.859420 36:-0.479478 37:-0.213160 38:0.059246 39:-0.889198 40:0.202441 41:-0.891238 42:-1.509090 43:-0.729280 44:0.455756 45:-0.233207 46:0.112435 47:-0.400349 48:0.546180 49:-0.221600 50:0.012493 51:-0.364619 52:0.057497 53:2.338894 54:0.295498 55:1.397203 56:0.045791 57:0.324452 58:1.204546 59:1.458526 60:1.207220
-1 1:-0.159979 2:-1.243447 3:0.836608 4:-0.281694 5:-0.177530 6:-0.624936 7:-0.424866 8:-0.291164 9:-0.385686 10:-1.115133 11:-1.923256 12:1.160697 13:-0.097503 14:-1.764242 15:-1.916994 16:0.300223 17:1.023571 18:-0.866189 19:-0.844352 20:1.487114 21:0.073078 22:0.669122 23:1.357355 24:-0.272774 25:1.539365 26:-0.014600 27:0.574842 28:-1.507935 29:-0.553151 30:0.584428 31:1.569468 32:-1.059987 33:-1.150286 34:0.417194 35:-1.006436 36:1.221755 37:1.514519 38:-0.516597 39:-1.107023 40:-0.407650 41:-1.861632 42:1.302866 43:-0.403786 44:-0.150198 45:-1.804595 46:-0.658801 47:0.393788 48:-0.113626 49:-0.324910 50:0.645281 51:-0.036428 52:-0.806308 53:0.198973 54:-1.416124 55:0.580318 56:0.553350 57:-0.113738 58:-0.142858 59:0.515053 60:-0.465925
-1 1:-0.281773 2:1.283609 3:1.411403 4:0.691959 5:0.059368 6:-0.581121 7:0.702302 8:0.335151 9:0.311005 10:-3.528419 11:0.882582 12:-0.485406 13:0.341841 14:-0.144804 15:1.064476 16:-0.217158 17:0.983547 18:0.480270 19:0.306030 20:-0.690282 21:-1.529095 22:-1.058410 23:-0.459275 24:1.483935 25:0.614323 26:0.848969 27:0.058470 28:0.402628 29:0.669899 30:-1.717136 31:1.295676 32:-0.173848 33:1.348628 34:-2.561521 35:-0.681845 36:0.759802 37:0.386498 38:0.046949 39:1.164654 40:-1.058353 41:-0.984602 42:0.044476 43:1.319502 44:-0.606917 45:-0.032977 46:-1.621845 47:-1.084718 48:-0.003011 49:-1.142175 50:-1.167818 51:-1.436514 52:0.410346 53:0.245770 54:1.858526 55:-1.349632 56:0.312595 57:2.001346 58:0.263528 59:-0.194186 60:1.399222
-1 1:0.672351 2:0.400291 3:-0.411445 4:-0.039697 5:-0.501402 6:1.651208 7:0.117737 8:0.533327 9:-0.275345 10:-1.778067 11:1.143763 12:-0.085464 13:-0.596465 14:-1.561871 15:1.010190 16:1.778497 17:0.121919 18:-0.568330 19:-0.974622 20:-1.272137 21:-1.113488 22:-0.022752 23:-0.478427 24:-0.616179 25:0.345867 26:-0.929902 27:0.864895 28:-0.094547 29:-1.567968 30:1.018389 31:0.451647 32:0.018249 33:-0.528298 34:-1.336186 35:0.365362 36:-1.864478 37:0.655236 38:0.567588 39:-0.981229 40:0.979324 41:0.992262 42:0.117214 43:0.968397 44:-0.330267 45:-1.332248 46:-0.165941 47:0.604524 48:-1.604591 49:1.238236 50:-0.703204 51:0.072908 52:0.055101 53:-0.333957 54:1.517093 55:-1.801727 56:2.063431 57:-1.142382 58:-0.410067 59:0.906107 60:-2.364877
-1 1:0.055463 2:0.590042 3:-0.275700 4:0.907121 5:0.626061 6:0.975454 7:-0.519302 8:0.753533 9:-0.314559 10:-0.378586 11:-0.116200 12:1.081206 13:-0.986317 14:-1.422353 15:0.004412 16:-1.005778 17:0.814050 18:0.141408 19:-0.223378 20:-1.155130 21:-0.316334 22:-1.269627 23:-2.043828 24:0.485582 25:0.526224 26:-0.317358 27:-0.462040 28:0.375626 29:0.584178 30:-0.226963 31:0.880373 32:-0.705871 33:1.455875 34:-0.060572 35:0.893176 36:-1.535954 37:0.013127 38:1.617117 39:1.698089 40:-0.303533 41:-1.250979 42:-0.528430 43:1.334185 44:-0.076783 45:-1.270287 46:-0.134677 47:-0.186648 48:-0.639361 49:-1.264740 50:-0.141011 51:-1.129808 52:-1.260884 53:-0.779408 54:-0.176916 55:1.727165 56:-0.262775 57:0.394847 58:-0.352901 59:1.511524 60:-1.115679
-1 1:-0.467920 2:-0.107947 3:-1.178953 4:0.625936 5:-0.175419 6:-0.685471 7:1.027517 8:-1.001624 9:-0.278147 10:0.763870 11:-0.750218 12:-0.409614 13:-2.142873 14:0.069674 15:0.948066 16:-0.430350 17:-0.266510 18:2.374745 19:0.160542 20:-0.989723 21:0.649831 22:-0.189550 23:-0.345103 24:-1.574453 25:-0.383673 26:-1.098239 27:-0.410174 28:1.338488 29:-0.116382 30:0.175800 31:-1.933916 32:0.168451 33:-1.108973 34:1.041824 35:0.019998 36:0.879308 37:0.552497 38:0.675888 39:1.063818 40:-0.449088 41:-0.184939 42:1.222136 43:0.494944 44:-1.154831 45:-3.154587 46:0.948454 47:-0.968463 48:-0.382047 49:0.117963 50:-0.621689 51:-1.467854 52:0.688305 53:0.387350 54:-0.174535 55:0.848016 56:0.624544 57:0.135483 58:-0.732354 59:-1.089414 60:0.586662
-1 1:-1.429982 2:-2.285974 3:-1.693002 4:0.247300 5:-1.380587 6:-0.171301 7:-0.494233 8:0.741099 9:0.312105 10:-0.738547 11:0.473824 12:-0.012886 13:-2.155632 14:-0.288102 15:0.612868 16:0.852051 17:-1.693662 18:-0.513509 19:-0.455864 20:-0.921863 21:0.020573 22:-0.226148 23:0.147984 24:-0.410964 25:-1.385886 26:0.451569 27:-0.211370 28:-0.477740 29:-1.336712 30:0.077578 31:-0.246653 32:1.544284 33:0.929153 34:-0.356450 35:0.345924 36:0.920221 37:-0.804817 38:0.466264 39:0.071179 40:0.545420 41:-0.261326 42:0.471981 43:1.762993 44:-0.189611 45:1.592187 46:0.772371 47:-1.205389 48:-0.605616 49:-0.820237 50:-0.392893 51:-0.035116 52:-2.181169 53:-1.948552 54:1.317761 55:-1.467696 56:0.738898 57:0.453569 58:-0.154212 59:1.166750 60:-0.030963
-1 1:1.565973 2:-0.304040 3:0.068629 4:0.808390 5:-0.661404 6:-1.070217 7:-0.432270 8:0.465916 9:0.356915 10:0.939936 11:0.388307 12:0.600757 13:0.260537 14:-1.741316 15:-2.127485 16:2.284057 17:1.286763 18:-0.982661 19:2.464501 20:-1.406293 21:0.826432 22:0.820076 23:-1.428879 24:0.454734 25:0.686142 26:2.564013 27:-1.101271 28:1.152930 29:-1.830407 30:-0.682475 31:1.950438 32:-1.263784 33:-0.523042 34:0.983234 35:1.386693 36:1.691240 37:0.701794 38:0.291056 39:1.159317 40:1.294448 41:2.018576 42:-0.530363 43:0.407252 44:1.079462 45:2.104403 46:0.258794 47:-0.105846 48:-0.580869 49:0.286513 50:1.044085 51:-2.476112 52:1.066567 53:-0.167762 54:-1.999766 55:-1.123764 56:-0.375384 57:-0.723589 58:-0.756598 59:-0.674739 60:1.362623
-1 1:-0.268272 2:-0.901805 3:-0.749449 4:-0.645292 5:1.254250 6:0.142125 7:1.449804 8:-0.887340 9:1.030819 10:-0.349028 11:-0.001289 12:1.824249 13:1.139843 14:-1.130632 15:-1.384761 16:1.752976 17:-0.505211 18:-0.318648 19:-2.110736 20:-1.351319 21:0.929489 22:-2.053950 23:0.764905 24:0.131124 25:2.337905 26:-0.355556 27:-0.096123 28:-0.551463 29:-0.733911 30:-0.132219 31:0.976824 32:0.797448 33:-0.665432 34:-1.088091 35:-0.163689 36:-0.564250 37:-2.106879 38:-0.687194 39:-1.637485 40:-0.661328 41:0.472940 42:-0.732023 43:0.035625 44:-0.982063 45:-1.475082 46:-0.064384 47:0.108297 48:0.305436 49:0.408727 50:1.326988 51:-0.636224 52:0.265145 53:0.515164 54:-0.211806 55:-0.758352 56:1.345595 57:-2.241350 58:0.011601 59:-0.223401 60:-0.348889
-1 1:-1.110300 2:-0.968822 3:-0.332348 4:-0.984626 5:0.323846 6:0.413635 7:1.087040 8:-2.486042 9:0.051904 10:0.995356 11:0.374701 12:-0.212761 13:-0.853052 14:-0.968859 15:0.813161 16:-0.390836 17:-0.754732 18:0.311597 19:-0.317880 20:0.441058 21:0.332814 22:0.952812 23:-1.378480 24:-1.823258 25:2.465703 26:1.185898 27:-0.442918 28:-0.121788 29:-0.531136 30:0.674065 31:2.201707 32:0.370468 33:-0.361114 34:1.221918 35:-0.783662 36:-0.337539 37:-0.353211 38:1.131029 39:0.041844 40:0.416663 41:0.301956 42:-0.711201 43:0.172611 44:-1.030684 45:0.971050 46:2.007257 47:-0.910116 48:-0.017227 49:0.338103 50:0.008845 51:-0.928815 52:1.155009 53:-0.907416 54:-0.500329 55:0.428686 56:1.054534 57:0.893905 58:-0.760986 59:0.703778 60:0.030005
-1 1:-0.139715 2:-2.142609 3:-0.891729 4:-2.116948 5:0.651811 6:0.265523 7:-0.065215 8:-1.029989 9:-1.819868 10:0.626100 11:0.814968 12:0.219615 13:0.171043 14:1.835887 15:-0.021617 16:-0.343516 17:-1.184006 18:0.376997 19:-0.377520 20:-0.332261 21:0.935424 22:1.027895 23:0.122709 24:-0.612496 25:0.163455 26:-0.423716 27:0.618686 28:0.462999 29:-1.335307 30:-1.305992 31:-0.638804 32:0.454324 33:1.884873 34:0.776929 35:0.488618 36:-0.749370 37:-1.347735 38:0.485002 39:-1.261314 40:-0.815270 41:-0.231409 42:0.586787 43:0.179963 44:2.215777 45:-1.083065 46:-1.684031 47:-0.166205 48:2.111952 49:1.248933 50:0.925121 51:-0.552230 52:0.012428 53:0.822370 54:-0.348302 55:0.793412 56:-0.641095 57:0.063539 58:-0.793824 59:-0.907472 60:0.838162
-1 1:0.331468 2:-2.137933 3:-1.446618 4:-1.529368 5:0.700639 6:1.278105 7:-0.209046 8:0.870378 9:-0.972795 10:1.163473 11:1.258719 12:-0.381231 13:0.044621 14:-1.449695 15:0.173348 16:-0.600912 17:-0.044524 18:-0.130895 19:1.298860 20:-1.715787 21:-1.144145 22:-0.645785 23:-0.007928 24:-0.416263 25:0.729944 26:0.639922 27:-0.087718 28:1.616482 29:0.654438 30:-0.588397 31:0.512318 32:-0.018861 33:-0.013200 34:0.104712 35:-1.503232 36:-0.162712 37:-1.081960 38:0.490697 39:-0.245295 40:0.354094 41:0.654971 42:0.602036 43:1.786233 44:0.974742 45:1.799681 46:-0.513149 47:-0.387726 48:2.171225 49:-1.319598 50:-0.801501 51:0.263373 52:-1.085155 53:-0.398628 54:-0.300729 55:-0.240871 56:-1.137043 57:-0.778595 58:-1.612210 59:0.991382 60:-1.271358
-1 1:-1.032999 2:0.940691 3:0.901004 4:-0.694554 5:-0.446210 6:-0.556385 7:-0.580697 8:0.271550 9:0.857306 10:-0.999884 11:-0.902381 12:-2.488922 13:1.117042 14:1.108685 15:-0.708447 16:-0.077894 17:-0.597210 18:1.009415 19:-0.709147 20:0.599362 21:0.525321 22:1.609154 23:0.305831 24:-1.213903 25:0.917369 26:1.772542 27:0.819577 28:-0.987987 29:-1.523364 30:1.961535 31:-1.436069 32:-0.929968 33:-0.106918 34:-0.061468 35:-0.673409 36:-0.466775 37:-0.865254 38:-0.051241 39:-0.281987 40:0.714469 41:0.222927 42:-0.257319 43:-0.362547 44:0.263904 45:0.140333 46:0.354413 47:0.962931 48:-1.628518 49:-1.350742 50:-0.912976 51:-1.266438 52:0.143615 53:-0.113651 54:-0.697384 55:0.065880 56:-0.382987 57:-1.267171 58:0.395966 59:1.086590 60:-2.225317
-1 1:-0.869768 2:0.257470 3:-0.239717 4:0.027084 5:-1.353581 6:-1.822039 7:-0.156434 8:0.833012 9:-1.048424 10:-0.830407 11:-0.978519 12:0.956479 13:-0.927417 14:-0.496278 15:0.594372 16:0.196204 17:0.226647 18:-0.829003 19:-0.796641 20:0.118995 21:-0.875489 22:0.351912 23:0.155265 24:-1.731963 25:-1.461720 26:1.293555 27:-0.168698 28:-0.860998 29:-1.101897 30:1.685683 31:-1.713437 32:2.045075 33:-1.745558 34:-0.984174 35:-0.391526 36:0.577769 37:0.261952 38:0.545682 39:1.780374 40:0.445629 41:0.183157 42:-1.268110 43:0.500910 44:-0.098377 45:0.546596 46:0.565132 47:-0.027797 48:-0.275514 49:0.538007 50:0.197022 51:-1.184143 52:-1.635580 53:0.511454 54:-0.344919 55:1.541041 56:-1.577930 57:-0.152303 58:0.812614 59:0.039452 60:1.216619
-1 1:0.646236 2:-1.840494 3:1.098113 4:-1.138445 5:1.690137 6:-0.427481 7:0.360830 8:0.113602 9:-0.301773 10:0.874656 11:-0.245218 12:-0.206364 13:-0.296947 14:-2.386601 15:0.336648 16:0.464977 17:1.840981 18:0.949878 19:0.172080 20:-1.785157 21:0.879818 22:-0.314733 23:-1.842215 24:-1.423940 25:0.077855 26:0.640915 27:1.613644 28:1.917377 29:-0.128881 30:-0.481414 31:-0.225501 32:-0.007402 33:1.079662 34:-0.710514 35:-1.491008 36:-1.120765 37:0.914135 38:-0.859424 39:-0.778833 40:-0.277397 41:1.153437 42:0.811212 43:-2.310418 44:-1.323586 45:-0.393698 46:-0.106345 47:-0.457124 48:-1.199453 49:1.189366 50:-1.369959 51:1.469792 52:0.176716 53:1.550865 54:-0.605310 55:-1.480012 56:0.635854 57:-0.258322 58:1.897310 59:-0.381923 60:0.419537
-1 1:0.644984 2:0.676176 3:0.620726 4:-0.236104 5:-0.496462 6:-1.174423 7:-0.472954 8:-0.334583 9:0.850612 10:-0.060185 11:-2.206588 12:1.630611 13:-0.547912 14:0.424323 15:0.409216 16:0.662192 17:-1.732218 18:0.408057 19:0.758317 20:-1.490039 21:-1.899244 22:-0.352134 23:0.980060 24:0.294651 25:0.002750 26:-0.027886 27:0.717407 28:-1.968308 29:-1.316168 30:1.188808 31:-1.608190 32:-0.242141 33:-0.426166 34:-2.219480 35:-0.197462 36:2.036157 37:-0.597790 38:0.313733 39:-1.461632 40:-1.035534 41:1.228982 42:-1.323377 43:0.557388 44:0.706817 45:0.383947 46:-0.787153 47:0.375319 48:-0.630039 49:1.704097 50:-0.877481 51:0.990817 52:-1.210988 53:-1.092781 54:-0.956336 55:-0.667836 56:-0.573289 57:-1.552513 58:-0.863807 59:-0.150941 60:0.990287
-1 1:-0.908812 2:-0.884296 3:0.505680 4:1.281179 5:-0.622639 6:-0.415673 7:0.607301 8:-0.567783 9:-0.051833 10:-1.028557 11:0.536980 12:-0.730418 13:-1.734142 14:0.245183 15:0.142359 16:2.111149 17:0.380572 18:0.197796 19:-1.434562 20:-0.684588 21:-0.144379 22:-0.287939 23:-0.526259 24:0.120261 25:1.626944 26:-1.599237 27:-0.912064 28:-0.737969 29:-0.602349 30:-1.494936 31:1.016401 32:0.278542 33:-0.725645 34:-1.705489 35:1.045929 36:-0.264970 37:-0.828801 38:0.324392 39:-0.079236 40:1.614858 41:0.618604 42:0.204108 43:-0.774476 44:0.255317 45:-1.190079 46:-0.766243 47:0.327280 48:-1.722914 49:0.554310 50:-0.345394 51:0.447356 52:-0.184592 53:-1.020397 54:-1.019015 55:-0.078829 56:-0.486741 57:-0.432053 58:1.710439 59:-1.235293 60:0.391465
-1 1:0.936296 2:1.203856 3:-0.553744 4:-0.640195 5:-0.731820 6:-1.330633 7:0.363849 8:-0.279516 9:-2.154247 10:-0.275027 11:0.782731 12:-0.425758 13:-0.714586 14:-1.185113 15:-1.010700 16:0.850686 17:-1.318033 18:-0.505020 19:-0.404940 20:-1.050701 21:0.299320 22:-1.571475 23:0.042905 24:-0.704648 25:1.165078 26:0.195914 27:-0.152411 28:-0.765479 29:1.453228 30:2.498163 31:0.465018 32:-0.092681 33:-0.286172 34:1.575982 35:-0.581951 36:1.773383 37:0.299762 38:-2.660517 39:0.451398 40:0.521205 41:-0.879715 42:-1.360076 43:1.281638 44:0.331187 45:0.452077 46:0.880633 47:-1.020806 48:-2.013167 49:-1.451453 50:0.460030 51:-1.588213 52:-1.810442 53:-0.783588 54:1.491299 55:1.956810 56:0.501718 57:-0.338974 58:0.458872 59:-0.623754 60:1.848105
-1 1:2.244013 2:-0.356763 3:-0.800821 4:0.444390 5:-0.294701 6:-0.485996 7:-0.167510 8:-1.843886 9:0.539118 10:1.230767 11:2.017467 12:0.010027 13:0.909031 14:0.626810 15:0.607394 16:-0.373049 17:-0.590161 18:-0.684838 19:0.509978 20:0.014233 21:0.113744 22:0.308576 23:0.285898 24:1.592009 25:-1.486260 26:-0.927149 27:0.821054 28:-0.178577 29:1.914104 30:0.845404 31:1.378586 32:-0.522460 33:0.278315 34:0.951284 35:-0.025574 36:-0.203758 37:0.430834 38:0.866879 39:1.268758 40:-0.515270 41:-0.704130 42:0.222339 43:0.335754 44:0.188396 45:-0.072183 46:1.840146 47:-0.144942 48:-0.110594 49:-0.049105 50:1.407831 51:1.042495 52:0.918044 53:0.871466 54:-0.947224 55:-0.788358 56:-1.168755 57:-0.944131 58:1.278360 59:-1.604230 60:0.468530
-1 1:-0.251677 2:-0.356973 3:-0.610517 4:-1.281490 5:0.757965 6:0.063398 7:-1.510218 8:-0.363338 9:-0.938808 10:0.180803 11:-1.049953 12:-1.123695 13:0.119980 14:-0.098436 15:1.240194 16:-0.718908 17:-1.019041 18:0.763528 19:-0.463607 20:-1.917807 21:0.263604 22:-1.154352 23:-0.254602 24:-0.644598 25:0.690193 26:2.141008 27:-1.094532 28:1.531820 29:-1.231911 30:1.487270 31:-0.942722 32:-1.353471 33:1.024547 34:-1.168434 35:0.500861 36:0.825398 37:-1.521959 38:1.112851 39:-1.899969 40:-0.540044 41:-0.437360 42:0.472048 43:0.775544 44:-0.322656 45:0.423590 46:-1.366018 47:-2.314458 48:1.635902 49:0.346224 50:-0.617318 51:1.064656 52:0.652757 53:-0.264877 54:0.447667 55:-0.480244 56:-1.513163 57:-0.920585 58:-1.408480 59:0.309526 60:-0.733323
-1 1:-0.267245 2:0.296096 3:0.251333 4:-0.016055 5:0.154772 6:-0.367974 7:1.251603 8:0.427811 9:-0.939213 10:0.222776 11:1.778633 12:1.996059 13:-0.016594 14:0.012217 15:-0.404825 16:1.157109 17:-0.627746 18:-0.498580 19:-0.993341 20:0.188969 21:-0.763650 22:0.322902 23:0.492735 24:0.758370 25:0.309091 26:0.692012 27:0.344625 28:-1.427195 29:0.022770 30:0.528604 31:-0.221273 32:1.041698 33:-0.431090 34:-0.184836 35:0.310033 36:-1.151267 37:0.095239 38:0.601961 39:-1.674554 40:1.518881 41:1.197595 42:0.807611 43:-0.145118 44:-0.018259 45:0.107389 46:0.823254 47:-1.095685 48:-2.120958 49:-0.171113 50:1.630765 51:-0.595399 52:1.704732 53:-0.416123 54:-0.738483 55:0.363296 56:2.778817 57:1.325719 58:-0.644798 59:-1.042083 60:1.913175
-1 1:0.181059 2:-1.314672 3:-0.371703 4:0.899220 5:0.931933 6:-0.979384 7:0.144224 8:0.068989 9:-0.002416 10:-0.130308 11:0.737451 12:1.669566 13:-0.611546 14:1.360027 15:2.520929 16:-0.964627 17:-0.835274 18:-1.380159 19:-1.660603 20:0.026254 21:-0.156939 22:-0.920913 23:-1.053529 24:0.817827 25:0.047970 26:-0.846536 27:0.117807 28:-0.130435 29:-0.445052 30:-0.778905 31:0.190851 32:0.085185 33:-0.432889 34:1.522288 35:0.191461 36:0.250674 37:1.563198 38:0.666804 39:0.136740 40:-1.230540 41:0.543779 42:0.693846 43:-3.655486 44:0.490700 45:0.227774 46:-0.538401 47:1.435392 48:-0.186431 49:-0.290510 50:-0.842737 51:-0.970325 52:-0.320457 53:-1.397121 54:-1.684532 55:-0.229793 56:-0.237843 57:-0.495736 58:-0.754635 59:1.288301 60:-0.539862
-1 1:-1.117357 2:0.451262 3:-1.067073 4:-1.368455 5:-2.121652 6:0.642094 7:-0.313804 8:-1.506009 9:1.219404 10:-0.188470 11:0.687018 12:0.153016 13:0.363629 14:0.346867 15:-1.366443 16:-1.430305 17:0.875675 18:-0.088856 19:1.420830 20:-1.512474 21:-0.219915 22:-1.617429 23:-0.380280 24:-0.205825 25:-1.283425 26:-2.654933 27:-1.157781 28:0.812036 29:-1.024491 30:-0.917210 31:0.675708 32:0.137083 33:0.023120 34:0.545519 35:-1.386949 36:1.573195 37:-0.237656 38:-1.797287 39:-0.175586 40:-0.787137 41:1.707561 42:0.947949 43:0.079323 44:0.964715 45:-1.336039 46:-0.981986 47:0.259954 48:0.223815 49:-0.866484 50:0.856894 51:-0.441658 52:1.646367 53:0.845437 54:-0.632756 55:0.165818 56:0.887568 57:0.321976 58:-1.809681 59:0.670019 60:0.371836
-1 1:0.009259 2:-0.797094 3:1.526891 4:-2.016901 5:0.435055 6:0.272973 7:-0.779446 8:0.520895 9:-0.202873 10:0.289857 11:-0.605848 12:-1.636664 13:0.560175 14:0.266401 15:-0.087841 16:-0.185003 17:0.120957 18:-1.435130 19:2.343470 20:-1.595031 21:1.661363 22:-0.323680 23:0.305586 24:-0.741553 25:1.357893 26:-1.689626 27:0.067326 28:0.194437 29:0.440252 30:0.725648 31:-0.366225 32:1.438372 33:-1.461268 34:-1.307183 35:0.500976 36:-1.726721 37:0.774291 38:-0.670676 39:-0.132433 40:-0.367233 41:-0.907145 42:0.465066 43:2.042644 44:-0.526394 45:1.487731 46:0.472285 47:0.788884 48:0.350345 49:0.251261 50:-0.216199 51:-1.320833 52:0.827123 53:-0.350591 54:1.136539 55:1.061490 56:0.200435 57:-0.546940 58:-0.447709 59:1.431835 60:-0.703928
-1 1:-0.627887 2:-0.863715 3:1.819218 4:-1.242398 5:0.841538 6:-0.969125 7:0.801429 8:0.228913 9:0.654589 10:0.749031 11:-0.418246 12:0.031373 13:1.085671 14:1.238074 15:-0.253956 16:-0.918733 17:-0.541560 18:1.384343 19:-0.232130 20:0.903784 21:0.990525 22:0.122225 23:-1.284465 24:-0.368415 25:-0.458993 26:0.603418 27:0.855228 28:-2.395201 29:1.103989 30:0.996325 31:0.446392 32:-0.346094 33:0.604272 34:0.949101 35:-0.639434 36:-0.699122 37:-0.152919 38:0.642949 39:-0.059572 40:0.014863 41:2.283418 42:0.574315 43:-0.299068 44:0.657540 45:-0.142481 46:0.517835 47:-1.804115 48:-0.892935 49:-1.357372 50:-1.430798 51:-0.927630 52:1.170335 53:-0.539309 54:0.173480 55:0.279712 56:0.532937 57:-0.063568 58:-0.118157 59:0.303023 60:-0.781608
-1 1:1.084145 2:0.026853 3:-0.228343 4:0.246390 5:-0.424969 6:0.905216 7:0.916988 8:-0.094431 9:-1.400862 10:1.038982 11:0.099473 12:-1.414893 13:0.665747 14:0.150379 15:-0.879608 16:1.533568 17:0.263238 18:-1.319906 19:-0.574631 20:-1.767940 21:1.111202 22:0.904870 23:-1.233193 24:0.195348 25:1.014733 26:0.278219 27:0.434297 28:-0.315772 29:-0.299058 30:-0.308530 31:-1.786394 32:0.719602 33:0.770382 34:-2.084401 35:-0.053677 36:0.801766 37:-0.422896 38:-1.882713 39:0.798801 40:-0.147633 41:-1.484793 42:0.255759 43:-0.931199 44:0.399617 45:-0.058988 46:-0.970671 47:-1.336379 48:0.756250 49:0.318507 50:-0.653920 51:1.975123 52:0.376901 53:-1.351557 54:-1.047395 55:0.774367 56:0.169470 57:-0.098904 58:-0.675406 59:0.125661 60:-1.247934
-1 1:-0.696653 2:-0.298610 3:-0.752674 4:0.218267 5:-0.477536 6:0.025530 7:-1.083276 8:-1.196076 9:1.212715 10:-0.912985 11:2.078128 12:0.402985 13:-1.355975 14:0.807984 15:-1.003423 16:-0.047050 17:2.285277 18:-0.240589 19:1.233964 20:-0.159541 21:-0.895345 22:-0.384249 23:0.093546 24:-0.931907 25:-0.571319 26:-2.309267 27:0.921868 28:-0.187258 29:-1.099080 30:-0.894252 31:-2.171495 32:-0.382290 33:0.934357 34:-0.565295 35:0.275766 36:-1.669940 37:0.997751 38:-0.000931 39:0.635253 40:0.039579 41:1.099491 42:-0.373904 43:2.329380 44:-1.059647 45:1.296977 46:-0.927524 47:-1.590004 48:-1.219868 49:0.341977 50:0.097995 51:-0.713492 52:-1.248308 53:0.219704 54:0.152998 55:0.123709 56:-0.740312 57:0.059482 58:-0.343560 59:-0.894460 60:0.029093
-1 1:0.313054 2:-1.454708 3:-0.281659 4:-0.512341 5:-0.336715 6:-1.290199 7:-0.511703 8:-0.871026 9:1.039225 10:-0.147646 11:0.965033 12:0.241976 13:0.925310 14:-1.150083 15:0.401369 16:1.137657 17:0.235816 18:0.156303 19:0.806764 20:-0.556560 21:1.277541 22:-0.181669 23:-0.967592 24:-1.300184 25:-0.959270 26:-1.958965 27:1.776500 28:0.906983 29:0.005778 30:-0.794742 31:-1.041963 32:-0.808494 33:-1.414815 34:0.200736 35:0.667622 36:1.416794 37:-0.655418 38:0.746058 39:-0.545311 40:-1.648708 41:0.037254 42:-1.258119 43:-0.911040 44:0.662631 45:0.280047 46:0.557996 47:-0.246948 48:-0.358835 49:2.074475 50:-0.563382 51:1.362438 52:0.554825 53:-0.862926 54:-0.159753 55:-1.171614 56:0.490971 57:0.189552 58:-2.366383 59:-1.160806 60:0.535541
-1 1:0.460527 2:0.116521 3:0.307692 4:-0.110730 5:-0.934753 6:-0.952444 7:-0.385547 8:-0.972383 9:1.448252 10:1.624249 11:-0.639130 12:0.614183 13:-1.216164 14:-0.746656 15:-1.574780 16:-1.353934 17:-0.089869 18:1.002719 19:-0.300839 20:-0.591184 21:0.138148 22:0.993700 23:1.739775 24:-2.766497 25:0.425134 26:-0.672913 27:0.405832 28:1.072558 29:-0.368101 30:-1.241137 31:0.807093 32:0.606279 33:1.465258 34:0.518525 35:0.962873 36:-0.514690 37:-1.026241 38:0.384173 39:0.912565 40:-0.815104 41:-0.633652 42:-0.443350 43:0.346538 44:1.609406 45:-0.951190 46:-0.862839 47:-0.601877 48:0.625012 49:-0.916233 50:0.620282 51:1.211105 52:-2.139438 53:-0.709409 54:0.351399 55:-1.412633 56:-0.927499 57:-0.614144 58:2.247722 59:0.219068 60:-0.166721
-1 1:-1.105939 2:-0.831559 3:-0.379959 4:-1.424359 5:-2.499976 6:-0.681606 7:1.272126 8:-0.272213 9:1.732206 10:0.613281 11:0.792547 12:1.166918 13:-0.282112 14:1.147296 15:0.685933 16:-0.899021 17:-0.629194 18:1.258812 19:-0.935819 20:-0.239639 21:0.207240 22:1.290935 23:0.768876 24:0.609554 25:-0.624841 26:0.472455 27:0.327826 28:0.785239 29:-0.595229 30:1.614272 31:0.757712 32:-0.344042 33:0.515804 34:-0.246298 35:0.892493 36:-1.072142 37:-0.303053 38:0.124880 39:-0.310012 40:0.799224 41:2.338426 42:0.466415 43:-1.428752 44:-1.652270 45:0.237999 46:0.575126 47:0.118986 48:-0.530631 49:0.125374 50:-0.656802 51:0.850113 52:-1.663811 53:0.764121 54:0.282843 55:0.842768 56:0.348868 57:-1.997073 58:-0.987500 59:1.182686 60:-0.933979
-1 1:0.669867 2:0.798852 3:-0.362891 4:1.343367 5:1.264431 6:-0.723421 7:0.257820 8:-1.542817 9:-0.596937 10:0.781069 11:-1.214496 12:-1.313657 13:1.227651 14:0.256505 15:-1.621490 16:0.007875 17:-0.300404 18:0.988184 19:0.740170 20:0.668309 21:0.153792 22:-0.359406 23:0.792397 24:-1.514134 25:1.629085 26:0.503248 27:0.593416 28:-1.053246 29:0.160658 30:2.134829 31:0.207638 32:-2.979540 33:-0.491859 34:0.347503 35:1.616482 36:0.136013 37:1.894936 38:0.342135 39:0.037358 40:-1.449718 41:-0.809521 42:0.258789 43:-1.068895 44:0.123220 45:0.542953 46:-0.292959 47:0.248799 48:-1.456938 49:0.647665 50:-1.440269 51:-0.011024 52:-1.114188 53:-1.253266 54:1.423364 55:0.297246 56:-1.636650 57:-1.187659 58:0.530830 59:1.443401 60:1.865748
-1 1:0.614219 2:0.061056 3:0.324068 4:-0.105052 5:-0.944224 6:1.734525 7:-0.371524 8:0.257248 9:0.127179 10:0.106906 11:1.043794 12:-0.324746 13:0.058670 14:-0.364951 15:1.184863 16:0.248863 17:1.727316 18:-1.965356 19:0.862436 20:2.205247 21:0.494295 22:0.609090 23:0.004743 24:0.980914 25:-2.122475 26:0.030861 27:-0.238403 28:0.042927 29:0.076638 30:1.337488 31:1.599840 32:-0.642247 33:-0.674815 34:0.596770 35:-0.119822 36:0.527161 37:-0.052682 38:-0.874080 39:-1.265616 40:0.308411 41:1.020809 42:0.071210 43:1.103299 44:0.920501 45:-1.939950 46:0.854271 47:-0.797997 48:0.532855 49:-0.291399 50:0.301906 51:-0.484930 52:0.189343 53:0.110715 54:-2.831429 55:-0.432305 56:-1.048181 57:-0.444538 58:2.080587 59:1.405714 60:1.279454
-1 1:0.831899 2:2.142644 3:-0.434960 4:-0.381463 5:-0.620514 6:-1.327398 7:2.046461 8:1.350650 9:2.758286 10:1.266426 11:-0.302657 12:-0.692867 13:-1.718707 14:1.277987 15:-1.260295 16:1.105534 17:-1.465848 18:-1.223004 19:1.590102 20:1.078948 21:1.466702 22:1.668791 23:-1.342967 24:-0.604954 25:0.239272 26:-0.983257 27:0.249390 28:-0.708451 29:-0.256179 30:1.467070 31:-0.263780 32:0.908094 33:-0.316667 34:1.468117 35:0.393787 36:-0.002398 37:-0.205153 38:-0.708783 39:-0.617460 40:-0.790845 41:2.311922 42:-0.658169 43:0.871688 44:-0.700016 45:0.954418 46:-1.236650 47:-1.868357 48:-0.144337 49:-1.171547 50:-0.407824 51:0.719345 52:-1.634228 53:0.488025 54:1.043918 55:-0.861768 56:0.134547 57:0.541234 58:-0.710367 59:0.756323 60:1.414232
-1 1:-0.721199 2:-0.022157 3:-0.483593 4:0.110379 5:-0.228754 6:1.498972 7:-0.172139 8:0.812621 9:0.811833 10:1.570784 11:1.079838 12:0.118017 13:-0.580847 14:0.055826 15:-0.755440 16:-1.844095 17:1.622496 18:-1.846172 19:-1.619509 20:1.633179 21:-0.226998 22:-1.190401 23:-0.094216 24:-0.101368 25:-0.334655 26:-1.669050 27:-0.315695 28:-1.128913 29:0.085003 30:-0.487463 31:-1.414259 32:0.363638 33:-0.225739 34:0.054739 35:0.210124 36:-1.727780 37:-2.080831 38:-0.148371 39:1.155327 40:-1.315968 41:-0.311261 42:-0.116665 43:-0.641075 44:0.657894 45:-0.175709 46:0.273991 47:-0.894337 48:-0.278366 49:-0.054845 50:0.646294 51:-0.303764 52:0.909861 53:0.077985 54:1.077783 55:-0.835833 56:0.823014 57:-0.833731 58:-0.043936 59:-0.296268 60:-1.101383
-1 1:0.368486 2:1.939419 3:-1.093542 4:-0.768245 5:1.358328 6:0.443075 7:0.495798 8:0.111669 9:1.982161 10:-0.095541 11:-0.007311 12:-1.937055 13:1.354696 14:1.027782 15:1.425630 16:0.561544 17:0.055962 18:-0.454528 19:0.286676 20:-2.508050 21:-0.546290 22:-0.289498 23:1.464466 24:0.091843 25:-0.379766 26:0.602638 27:-0.915702 28:-1.358005 29:1.168918 30:2.360815 31:0.607114 32:-0.230654 33:0.715750 34:-0.370298 35:-0.294137 36:-0.533800 37:-0.290387 38:-2.001141 39:0.707512 40:-0.310633 41:0.820391 42:-0.873957 43:1.496209 44:0.482403 45:0.125625 46:0.614838 47:0.761554 48:0.052987 49:0.853668 50:1.564678 51:1.435176 52:-0.577227 53:0.257199 54:0.822748 55:0.717438 56:-0.765276 57:0.052121 58:-0.483799 59:-0.392285 60:-0.053609
-1 1:1.145264 2:-0.416706 3:0.090876 4:0.809671 5:-0.916307 6:0.014218 7:-0.302747 8:2.221352 9:-0.516919 10:0.736394 11:-0.936587 12:0.679860 13:-0.284080 14:-1.280254 15:2.643747 16:0.811591 17:0.296793 18:-0.061595 19:-0.611054 20:-1.240147 21:1.442882 22:-0.862902 23:1.462994 24:2.029872 25:-1.478444 26:-0.155086 27:-0.725411 28:-0.181895 29:1.118911 30:-0.335129 31:0.752822 32:1.900437 33:-0.749489 34:0.683193 35:-0.347890 36:-0.412582 37:0.473837 38:-0.028691 39:-0.401336 40:-0.923887 41:-0.450833 42:0.931231 43:-2.016551 44:3.072944 45:-0.341680 46:1.136402 47:-1.305821 48:-0.944002 49:1.864155 50:0.483819 51:-1.236504 52:0.437501 53:-0.041512 54:0.244745 55:-1.231494 56:-0.885794 57:-0.043747 58:1.753653 59:0.442578 60:-2.087655
-1 1:-0.340422 2:0.491508 3:-0.388360 4:0.437913 5:-0.370204 6:-1.561812 7:-0.812440 8:2.118360 9:0.088889 10:-0.637331 11:-0.231359 12:1.691584 13:1.265260 14:-0.682533 15:-1.040418 16:0.423874 17:0.121704 18:0.744539 19:-1.573967 20:-1.613135 21:-0.599275 22:0.119922 23:0.239449 24:-0.014060 25:-0.392129 26:-0.923977 27:0.592822 28:-1.576611 29:1.192897 30:-0.986738 31:-2.078409 32:1.182251 33:0.302190 34:1.460953 35:0.207427 36:-1.341352 37:0.741736 38:0.946942 39:0.725007 40:0.802105 41:-0.487705 42:-0.002687 43:0.444333 44:0.250068 45:0.257777 46:0.089992 47:1.220356 48:0.889733 49:2.447967 50:0.126405 51:1.176900 52:0.817437 53:-0.234971 54:0.289674 55:0.745118 56:0.226324 57:0.305669 58:0.903860 59:0.958717 60:-0.845571
-1 1:0.382731 2:-0.403700 3:-1.630024 4:-1.197385 5:-0.175086 6:-1.190092 7:0.439302 8:-0.363877 9:0.558474 10:-1.537177 11:0.725638 12:-3.095008 13:-0.532183 14:-0.475178 15:-1.855444 16:-0.469832 17:0.387994 18:1.294992 19:0.297731 20:0.475607 21:-2.404233 22:0.586362 23:-1.300065 24:1.731418 25:0.918893 26:1.306491 27:-1.066628 28:0.106255 29:1.340317 30:0.677536 31:-0.324603 32:0.042620 33:1.660145 34:-0.215937 35:-0.199442 36:0.526412 37:0.898387 38:-0.425510 39:1.361999 40:-0.422141 41:-1.104907 42:0.367726 43:0.049242 44:-0.159325 45:1.045665 46:-1.688097 47:-1.452649 48:-1.395770 49:-0.168067 50:0.063573 51:-0.707488 52:0.355776 53:-1.013366 54:0.244902 55:0.647045 56:-0.492833 57:-0.211714 58:-0.473087 59:1.722957 60:-1.947117
-1 1:2.574432 2:1.454260 3:-0.631335 4:-2.147506 5:-0.268186 6:0.468627 7:-0.074734 8:0.258264 9:1.432233 10:0.284338 11:0.228367 12:-0.788541 13:-0.386522 14:1.041953 15:0.055108 16:-0.521800 17:-0.980897 18:-0.197688 19:0.638063 20:0.283009 21:-0.944456 22:-0.843986 23:-2.378327 24:0.287186 25:0.141692 26:0.760554 27:0.097954 28:0.925852 29:0.487854 30:0.279878 31:1.986259 32:0.096944 33:-1.067055 34:-0.842180 35:0.056069 36:1.038923 37:-1.110335 38:0.311168 39:0.446868 40:0.158158 41:-1.016103 42:-0.267963 43:-0.848242 44:0.337822 45:0.326185 46:0.154138 47:0.201278 48:0.080718 49:-1.359241 50:0.944060 51:-0.840294 52:-1.367927 53:0.235754 54:0.999753 55:0.970724 56:0.117347 57:1.067496 58:-1.040197 59:0.550705 60:-0.552721
-1 1:0.155889 2:-0.868485 3:-0.192751 4:-0.580739 5:-1.122181 6:0.613749 7:1.606447 8:-1.052776 9:0.481360 10:0.739268 11:0.861719 12:1.792315 13:0.556843 14:-0.881792 15:1.035889 16:0.084750 17:-0.335982 18:-0.706278 19:-0.290097 20:0.045437 21:0.618560 22:-0.829720 23:-1.288897 24:-0.970773 25:0.231823 26:-1.854536 27:-0.398426 28:0.577778 29:-0.794809 30:-1.049091 31:0.684254 32:0.552066 33:-0.845597 34:-0.373360 35:1.515382 36:-0.792534 37:0.869145 38:0.727430 39:1.208505 40:0.975781 41:0.917959 42:-0.872513 43:1.547022 44:-1.161558 45:-0.113584 46:1.013968 47:-0.214338 48:-0.290757 49:2.058163 50:-0.677644 51:-0.081757 52:-0.259480 53:-1.532217 54:-0.600871 55:0.114457 56:0.764526 57:0.795371 58:0.246450 59:0.433111 60:-0.053417
-1 1:0.686908 2:1.086102 3:1.091911 4:0.077766 5:0.261024 6:-0.428277 7:-0.866616 8:0.272352 9:-2.035353 10:1.835570 11:0.005229 12:-0.314280 13:1.623188 14:-0.605880 15:-0.538928 16:0.958293 17:0.217491 18:-1.509068 19:0.330997 20:-0.404963 21:-0.198984 22:0.538678 23:-1.054298 24:0.045802 25:1.728100 26:-1.163840 27:0.791887 28:1.209198 29:-0.969687 30:0.730909 31:0.201737 32:-1.275076 33:-1.215242 34:-0.337918 35:-0.027598 36:0.789403 37:-0.947595 38:-2.017128 39:1.978142 40:0.502171 41:-0.659264 42:-0.985050 43:-0.123478 44:0.188683 45:-0.448632 46:0.883221 47:0.333732 48:-1.291777 49:0.855078 50:-0.255838 51:-0.824250 52:-1.512745 53:0.319476 54:-0.208536 55:0.067634 56:-0.041786 57:0.084431 58:-0.136154 59:-0.002534 60:1.377049
-1 1:0.720419 2:0.118961 3:-0.734442 4:0.475750 5:0.253808 6:0.188617 7:-0.476388 8:-0.177505 9:0.737341 10:-1.651441 11:-1.390548 12:0.040129 13:-0.839923 14:0.769026 15:-0.288785 16:1.722661 17:-2.161719 18:0.969540 19:0.812856 20:-1.106973 21:-0.650521 22:-0.620273 23:0.742064 24:1.669864 25:-0.342034 26:0.356737 27:0.168989 28:0.936639 29:-0.330970 30:0.887865 31:1.041625 32:0.774461 33:0.811379 34:1.159685 35:-0.237610 36:-0.337993 37:-0.061383 38:-0.615435 39:0.913437 40:-1.227359 41:-1.620460 42:1.260811 43:-1.102223 44:-0.751694 45:0.512673 46:0.797762 47:1.491934 48:-0.722803 49:-0.131407 50:-0.745034 51:-0.511315 52:-3.274010 53:-1.975023 54:0.280814 55:-1.716719 56:0.635792 57:-0.312019 58:0.220514 59:0.056199 60:-1.289506
-1 1:-0.064956 2:0.069953 3:-1.127158 4:2.218719 5:-0.063363 6:-1.287879 7:-0.939771 8:1.363834 9:0.821671 10:-0.622477 11:-0.451761 12:-2.426881 13:0.259775 14:-2.897482 15:-0.211051 16:0.995125 17:-0.182428 18:-0.590022 19:-0.522361 20:0.788756 21:-0.239786 22:1.438036 23:0.772316 24:-1.181555 25:0.221512 26:-1.802550 27:0.768565 28:0.674761 29:-0.598466 30:-0.408963 31:0.097198 32:-0.698365 33:-0.739981 34:-0.211716 35:-0.316078 36:-1.050816 37:-1.403241 38:-0.192472 39:-1.768927 40:0.235570 41:0.055188 42:-0.615678 43:-0.114131 44:-0.206038 45:0.178278 46:1.784935 47:1.253301 48:-0.159038 49:0.627769 50:-0.983007 51:-2.118545 52:-1.841690 53:0.750055 54:0.295524 55:0.186809 56:-1.084443 57:-0.162915 58:-0.814851 59:-1.776001 60:1.457603
-1 1:-0.534183 2:1.038292 3:-0.278769 4:-1.115399 5:0.916094 6:0.353321 7:-0.362756 8:1.242546 9:1.289216 10:-2.528920 11:0.161970 12:-0.878088 13:1.381447 14:-0.192434 15:1.206864 16:-0.217496 17:0.723263 18:-0.229593 19:-0.068788 20:0.148105 21:0.155153 22:0.824164 23:0.387731 24:0.287123 25:0.170041 26:-0.112960 27:-0.995356 28:-0.226627 29:0.085519 30:-0.058829 31:-0.833704 32:1.311479 33:-1.166953 34:-0.182690 35:-0.179166 36:0.474778 37:-1.725620 38:0.218663 39:-1.032724 40:-0.248441 41:-1.687123 42:-0.635524 43:-0.767684 44:-0.242578 45:0.305693 46:-0.780678 47:0.690011 48:-0.134416 49:0.772582 50:1.467771 51:0.957629 52:-0.674932 53:0.041541 54:1.422176 55:-0.265548 56:-0.746168 57:-1.698870 58:0.737388 59:2.197654 60:0.362229
-1 1:0.550780 2:-0.149708 3:0.595923 4:1.909958 5:-0.983051 6:-0.193511 7:0.334951 8:0.669528 9:-0.827589 10:-0.747844 11:-0.091896 12:0.420340 13:-2.383091 14:0.804419 15:-0.125296 16:0.379899 17:-0.311949 18:-1.676994 19:-0.133249 20:-0.471356 21:-1.369225 22:0.485502 23:0.099947 24:0.011726 25:1.141453 26:1.979368 27:0.771604 28:-0.222005 29:0.317395 30:-0.532827 31:0.170730 32:0.647174 33:-0.575646 34:0.470931 35:0.662121 36:-1.243424 37:-1.036408 38:-1.291149 39:2.073980 40:-0.590921 41:-0.117362 42:1.237757 43:0.403067 44:-0.910324 45:1.336756 46:-0.163959 47:1.560024 48:1.378377 49:1.457881 50:1.258992 51:1.374761 52:0.990883 53:-2.260791 54:1.543647 55:0.796990 56:1.128822 57:0.128256 58:0.014221 59:0.344363 60:-1.644027
-1 1:0.264995 2:-1.033518 3:-0.451784 4:0.622620 5:0.980113 6:0.221567 7:-0.783757 8:0.191531 9:0.265058 10:0.843211 11:-0.953555 12:-0.226811 13:0.658926 14:0.065581 15:-0.152606 16:-0.808835 17:1.298646 18:0.915734 19:-0.257175 20:1.021555 21:-0.605524 22:-1.436110 23:-0.690376 24:-0.322589 25:-1.236178 26:1.512873 27:-1.621647 28:-0.246951 29:0.541358 30:-0.607690 31:0.191825 32:0.095708 33:0.655720 34:0.412501 35:-1.053362 36:0.108969 37:0.079160 38:-1.911803 39:-0.088644 40:1.719982 41:0.690604 42:0.028889 43:-0.340075 44:0.634935 45:-0.314795 46:-0.792272 47:0.941776 48:-0.625100 49:-0.889517 50:0.394200 51:0.407136 52:0.141681 53:1.276968 54:0.384315 55:-0.958462 56:-0.593346 57:-1.106853 58:-1.179276 59:-0.766003 60:-0.270374
-1 1:-0.298601 2:-0.976402 3:0.457148 4:-0.440300 5:-0.401507 6:-0.263071 7:0.761407 8:0.503365 9:0.400325 10:-0.577817 11:1.515726 12:0.167092 13:0.354383 14:0.046030 15:-1.343711 16:-0.727032 17:-0.864223 18:0.160978 19:-1.150206 20:-0.579196 21:0.060681 22:0.212010 23:0.188398 24:-0.789648 25:-0.957286 26:-0.623866 27:-1.502505 28:-0.303055 29:0.118734 30:-0.537717 31:-0.812736 32:-0.854707 33:-1.714257 34:0.448071 35:-0.585280 36:0.569364 37:0.100833 38:-0.345033 39:-1.331844 40:-0.934691 41:1.191008 42:0.603898 43:-0.320029 44:0.739919 45:0.294429 46:-0.473040 47:1.034705 48:-0.143514 49:-1.187665 50:-0.495468 51:-0.646788 52:0.662380 53:1.145073 54:-0.501045 55:-0.707933 56:-1.161907 57:0.885275 58:-0.621919 59:-3.362891 60:-2.037098
-1 1:0.302453 2:-0.475152 3:-0.055074 4:0.889473 5:-0.652580 6:-0.138747 7:0.437351 8:0.584918 9:-0.488753 10:0.219159 11:0.093244 12:2.318972 13:-0.905833 14:-0.475560 15:-1.767664 16:0.091492 17:2.360004 18:-1.272636 19:-0.706518 20:0.299807 21:0.652472 22:1.214342 23:0.573421 24:1.952833 25:-0.437760 26:0.936590 27:-0.197293 28:1.868000 29:-0.103337 30:-1.095621 31:0.638476 32:0.515842 33:0.303462 34:1.268666 35:-1.116165 36:-0.065449 37:0.159931 38:0.382703 39:2.501007 40:0.779559 41:-1.490709 42:0.170333 43:-0.135406 44:1.302043 45:-1.417472 46:0.135305 47:-0.263138 48:1.280427 49:-1.167354 50:-1.048023 51:-0.772410 52:-0.738800 53:-0.502006 54:-0.738860 55:0.265312 56:0.034654 57:-1.564832 58:0.889550 59:-0.054997 60:-1.268699
-1 1:-1.302528 2:-1.688238 3:0.782752 4:-0.377709 5:0.306190 6:0.068388 7:0.590453 8:-0.930719 9:-1.829561 10:-0.818085 11:-0.512622 12:0.380048 13:-0.903483 14:-1.827452 15:0.924385 16:0.278169 17:1.060364 18:0.514318 19:0.226789 20:0.753931 21:-0.660412 22:-1.354257 23:-0.050877 24:-1.647519 25:-0.043027 26:-0.848142 27:-1.741000 28:-0.033511 29:-0.750880 30:-1.044155 31:-0.423415 32:-1.243941 33:-0.949019 34:-2.117293 35:-0.494809 36:1.504686 37:0.316181 38:0.977681 39:0.732801 40:-0.215177 41:-0.584029 42:0.198364 43:-0.293763 44:0.113946 45:-0.800369 46:0.056825 47:1.235636 48:0.560244 49:0.419442 50:2.292876 51:-1.469929 52:0.450912 53:0.324204 54:-0.142550 55:-0.103769 56:1.459635 57:1.080848 58:-1.077378 59:1.192753 60:1.047680
-1 1:-1.834484 2:0.635261 3:0.242784 4:-0.309907 5:1.551263 6:-0.202358 7:0.983537 8:-0.674172 9:-0.176415 10:0.800302 11:-0.511145 12:-1.025960 13:1.808941 14:0.684937 15:0.411416 16:0.931040 17:0.324812 18:-0.886107 19:0.852533 20:-2.177255 21:0.059152 22:-0.188196 23:-0.848526 24:1.081986 25:1.555678 26:-0.363756 27:0.373187 28:0.642847 29:0.992498 30:0.588129 31:-1.571252 32:1.015543 33:1.225257 34:-0.183124 35:-0.492146 36:-1.127560 37:-0.297109 38:-0.401264 39:0.797652 40:0.440252 41:-1.224183 42:1.225275 43:-0.750620 44:-1.796118 45:-1.161192 46:0.597639 47:0.655352 48:2.740965 49:1.597158 50:-0.532062 51:-0.483015 52:2.387332 53:1.029548 54:0.267067 55:0.720709 56:-0.817648 57:1.237416 58:-0.346653 59:-0.233127 60:0.452404
-1 1:1.296158 2:1.604268 3:0.473443 4:-0.795148 5:-0.544081 6:-1.205784 7:-1.445280 8:-0.920179 9:1.862550 10:-3.105900 11:1.376967 12:1.456170 13:1.753678 14:-0.987226 15:-1.013277 16:-2.921741 17:-0.046612 18:-0.440546 19:0.712539 20:1.447655 21:-0.227510 22:-1.272866 23:-0.928827 24:2.634721 25:-1.550169 26:-0.149863 27:-0.448471 28:0.474893 29:1.931533 30:1.503971 31:0.182932 32:0.450449 33:-0.466862 34:-0.413458 35:-1.238047 36:0.666274 37:2.018470 38:2.181686 39:-0.549744 40:-1.118442 41:0.510151 42:-0.755857 43:0.000925 44:1.219734 45:-0.130244 46:-0.752808 47:1.119841 48:0.470552 49:-0.337646 50:-0.263535 51:0.371745 52:-0.890869 53:-1.366376 54:0.144910 55:0.819201 56:0.388486 57:-0.350457 58:-0.803774 59:-0.186991 60:-2.200298
-1 1:0.175997 2:-0.885710 3:0.275369 4:-1.145954 5:0.645322 6:0.914602 7:-1.220899 8:0.339341 9:0.726418 10:-0.009832 11:-0.668159 12:-0.322176 13:0.934176 14:-2.944943 15:0.919292 16:-1.357413 17:-0.373215 18:-0.534840 19:-1.393826 20:-0.275537 21:-1.248371 22:-0.383974 23:0.516309 24:-0.218929 25:-0.693058 26:1.331040 27:-0.103764 28:-1.172202 29:-0.084131 30:-0.304539 31:-1.220074 32:-1.466215 33:-0.596757 34:1.198253 35:-1.862829 36:1.286888 37:1.342285 38:0.138999 39:0.911837 40:-0.216916 41:-3.103265 42:-0.832777 43:-0.633846 44:1.400423 45:0.788745 46:-1.694615 47:1.070326 48:-0.037789 49:-1.039517 50:0.641166 51:-0.343976 52:1.145377 53:-0.212411 54:-0.610738 55:-0.665207 56:0.878985 57:1.258631 58:-1.531757 59:-0.351149 60:0.325101
-1 1:0.469767 2:-0.019544 3:-0.251818 4:-1.439210 5:0.292045 6:-1.048864 7:-1.406580 8:0.908043 9:0.768890 10:0.417348 11:-0.329862 12:2.027069 13:0.591911 14:-0.038377 15:0.477818 16:0.264289 17:-0.222431 18:-0.439817 19:0.110023 20:-0.900399 21:-0.680563 22:1.002931 23:-0.481479 24:1.625650 25:-0.319120 26:-0.980184 27:0.283989 28:1.412976 29:-2.120419 30:-2.683244 31:-1.624031 32:-2.926635 33:0.181408 34:-0.052660 35:-0.247392 36:0.309092 37:0.505661 38:0.544862 39:-0.894847 40:-0.652900 41:-1.778556 42:-1.159342 43:-0.232162 44:-0.606490 45:1.576982 46:-0.545982 47:1.505624 48:1.371007 49:0.396361 50:0.985562 51:-1.619951 52:0.277992 53:-0.472694 54:0.316960 55:0.421927 56:-1.881455 57:0.364769 58:0.167492 59:1.106264 60:1.258099
-1 1:0.143419 2:2.341161 3:-0.651252 4:-1.482804 5:1.956367 6:-0.728954 7:1.229518 8:-1.022990 9:-1.910836 10:0.029648 11:0.191477 12:-0.388721 13:1.230074 14:0.539395 15:0.062320 16:1.566534 17:1.685594 18:0.980600 19:-0.887480 20:0.334117 21:-0.166716 22:-0.261529 23:-0.841395 24:-1.881657 25:1.085642 26:1.552471 27:0.264428 28:0.382776 29:0.442802 30:-0.050338 31:0.311396 32:-0.967584 33:-1.703697 34:-1.356290 35:-0.829175 36:-0.255233 37:0.804966 38:0.734722 39:0.381439 40:0.227029 41:-0.822962 42:-1.305155 43:-0.391773 44:1.855210 45:0.223971 46:0.967048 47:-0.432826 48:-0.034587 49:-0.147573 50:-0.065057 51:0.954854 52:-0.578888 53:-1.057059 54:-0.659209 55:1.908322 56:1.089515 57:-0.245924 58:-0.756933 59:-0.018478 60:0.819802
-1 1:-0.148588 2:-1.432265 3:0.542750 4:-1.096228 5:-0.095048 6:-0.485994 7:-0.375326 8:-0.125076 9:1.494200 10:0.623215 11:-0.089738 12:-0.043457 13:0.649845 14:-0.350739 15:-0.043239 16:1.600402 17:-0.335579 18:-1.814110 19:-1.952553 20:-0.902486 21:1.841659 22:1.307322 23:0.164605 24:0.644693 25:0.150738 26:1.391350 27:0.597060 28:0.320932 29:-0.979340 30:0.403865 31:-0.770935 32:-0.935242 33:0.659589 34:-0.399633 35:1.627208 36:1.011860 37:-0.660199 38:-2.160196 39:0.175546 40:1.526465 41:-0.125161 42:-0.835890 43:-1.463421 44:1.006113 45:0.941700 46:-0.713852 47:-0.505575 48:1.908281 49:-0.078878 50:0.084849 51:-1.534037 52:0.768851 53:1.392618 54:1.578532 55:-0.121500 56:0.339788 57:-0.828064 58:-0.618969 59:1.642498 60:0.994021
-1 1:1.217698 2:0.597687 3:0.548416 4:-1.151196 5:2.727565 6:0.622817 7:0.431959 8:0.914918 9:1.949147 10:-0.833265 11:-2.819925 12:1.117654 13:-1.030994 14:-0.541085 15:-0.108440 16:-0.951337 17:1.771392 18:-0.064656 19:-0.150652 20:1.129931 21:1.236429 22:1.583497 23:-1.643270 24:-0.892089 25:0.804462 26:-1.483934 27:-1.412253 28:-0.863450 29:0.013190 30:-0.149019 31:-0.166995 32:-1.373686 33:0.001745 34:-0.700959 35:-0.400349 36:1.935056 37:-0.050611 38:1.833836 39:-1.308913 40:-0.410721 41:0.986425 42:-0.610438 43:-0.191648 44:0.197526 45:-0.073820 46:-0.918450 47:-1.155236 48:0.402918 49:-0.304982 50:-0.099605 51:-2.049850 52:-0.534359 53:-0.270925 54:-1.035978 55:-0.045788 56:0.611022 57:-0.143876 58:-0.507564 59:-0.525591 60:1.625699
-1 1:0.335827 2:0.209868 3:0.649353 4:-0.179592 5:-0.582859 6:1.280836 7:2.809207 8:-0.466948 9:0.690935 10:0.911035 11:1.366221 12:-1.196712 13:-1.615621 14:-0.576733 15:0.305896 16:-0.206336 17:0.128072 18:2.090029 19:0.078720 20:0.692031 21:1.298754 22:-2.082584 23:0.472577 24:1.129646 25:1.064958 26:-1.071444 27:2.197042 28:0.880287 29:-1.107231 30:-0.789733 31:0.327776 32:-0.212868 33:-0.725042 34:-1.683079 35:0.110091 36:-0.123491 37:-0.663790 38:-0.532752 39:0.340796 40:-0.832434 41:0.857254 42:1.167268 43:-2.050148 44:-0.554229 45:0.327770 46:0.912975 47:1.656815 48:0.840537 49:-0.029771 50:-0.479032 51:0.236884 52:1.183569 53:0.008520 54:1.319444 55:-0.592009 56:-0.567102 57:-1.399115 58:1.977182 59:2.372886 60:-1.690757
-1 1:-0.194727 2:-0.520717 3:-1.666768 4:-1.058612 5:-0.693145 6:-0.883277 7:-0.666872 8:-0.046052 9:-1.069179 10:0.865582 11:-0.735329 12:0.303428 13:0.069106 14:0.295742 15:0.457741 16:0.813562 17:-0.451978 18:-1.096615 19:-0.428005 20:0.605116 21:-2.017971 22:-0.494566 23:0.005076 24:-0.065127 25:0.270413 26:0.567378 27:0.199551 28:-0.693922 29:-1.701797 30:1.733903 31:0.587567 32:0.563086 33:1.525992 34:-0.123853 35:-0.168257 36:0.224868 37:0.109587 38:-0.436329 39:0.852296 40:-0.178869 41:1.789410 42:1.240514 43:0.647853 44:-1.720731 45:-0.095456 46:0.009072 47:-0.828883 48:0.270876 49:0.829496 50:-0.958366 51:1.115956 52:-1.296185 53:0.264207 54:-0.323495 55:-1.244378 56:-2.172163 57:0.487716 58:-0.753096 59:-0.931752 60:-0.679024
-1 1:-2.228001 2:0.110969 3:-0.823763 4:-0.719249 5:-1.324950 6:-1.984061 7:-1.245076 8:-0.380880 9:1.739940 10:1.222136 11:2.596381 12:-0.320090 13:-1.304008 14:2.171175 15:-1.052455 16:0.422150 17:-0.795150 18:0.628723 19:1.045945 20:-0.639645 21:1.243205 22:1.763438 23:-0.025688 24:-1.218742 25:1.144323 26:-0.825704 27:0.773552 28:0.811503 29:0.858737 30:0.174801 31:-0.419379 32:-0.734329 33:-1.264497 34:-0.433967 35:-0.548854 36:-0.468616 37:-0.616289 38:-0.309057 39:0.521446 40:-1.544556 41:-0.527819 42:-1.581771 43:0.646309 44:-1.055732 45:-0.070961 46:0.819329 47:-0.257579 48:0.034607 49:-1.108626 50:-0.584204 51:-0.847366 52:0.858085 53:0.235257 54:-0.669215 55:0.027141 56:0.081705 57:-0.230746 58:1.198608 59:1.068290 60:-0.196616
-1 1:0.197665 2:0.486929 3:-1.263206 4:0.135798 5:-1.094467 6:0.710065 7:1.495461 8:-0.234014 9:0.149711 10:-1.225309 11:-1.437831 12:-0.357539 13:0.893143 14:0.556220 15:-1.041100 16:1.506766 17:1.519829 18:1.314302 19:2.562255 20:-0.187355 21:-0.117439 22:1.100415 23:0.315520 24:0.333069 25:-0.751833 26:-0.334284 27:0.665939 28:-0.983576 29:0.009407 30:0.464296 31:-1.198153 32:-0.312664 33:-0.676898 34:2.237362 35:-0.507970 36:0.238209 37:1.733844 38:-0.267916 39:1.018335 40:-0.545686 41:0.578309 42:0.509575 43:0.425424 44:-0.453673 45:-0.755785 46:0.827727 47:0.284160 48:-0.511568 49:1.470330 50:0.762965 51:-0.468378 52:-0.387197 53:1.723446 54:0.849436 55:-0.196935 56:0.223663 57:0.468427 58:2.563429 59:1.326049 60:1.703711
-1 1:1.699535 2:-1.201854 3:0.726150 4:-0.586104 5:-1.106650 6:1.417277 7:-2.129290 8:0.745342 9:1.030974 10:1.180272 11:-0.069658 12:-1.079187 13:-0.082470 14:-0.818207 15:-1.539688 16:-0.295488 17:1.902833 18:-0.436675 19:0.585167 20:-0.045893 21:-0.362001 22:1.035489 23:0.161468 24:-1.750704 25:-1.780002 26:0.475332 27:0.785819 28:-1.492365 29:-0.850822 30:2.236524 31:0.611038 32:-0.515265 33:0.989888 34:-1.015191 35:0.702280 36:1.886930 37:-1.439790 38:0.494276 39:-0.139183 40:-2.105725 41:0.585860 42:-0.022015 43:0.533773 44:0.708142 45:-0.390033 46:-1.302077 47:-0.857412 48:0.115195 49:0.857162 50:-0.465629 51:0.311889 52:0.591131 53:-0.680103 54:-0.456077 55:0.884406 56:1.629855 57:-0.393752 58:-0.213885 59:1.491224 60:-1.228973
-1 1:0.948582 2:0.358658 3:0.209186 4:-1.747955 5:0.389873 6:-1.123999 7:-1.261075 8:-0.001332 9:1.572147 10:-0.165828 11:-0.984999 12:-0.399598 13:-1.695424 14:-0.607084 15:0.761177 16:-0.468579 17:-0.960026 18:-1.580713 19:-0.101401 20:-1.347961 21:0.535159 22:2.653564 23:-0.475567 24:1.000759 25:-0.095546 26:0.884367 27:0.007166 28:1.299850 29:1.095856 30:-0.154506 31:-0.567891 32:0.332162 33:0.269556 34:0.589028 35:1.485743 36:0.687252 37:-0.158742 38:-0.840204 39:0.683930 40:1.015607 41:0.183815 42:0.595096 43:0.300583 44:-1.241866 45:-0.149149 46:0.449362 47:-0.989699 48:-0.283231 49:1.342675 50:-0.073729 51:-0.608137 52:-1.634043 53:0.861030 54:-1.113295 55:-0.586098 56:-0.139476 57:-0.229563 58:-0.339945 59:-1.246516 60:0.804558
-1 1:-1.029789 2:0.091410 3:-0.697240 4:0.364365 5:0.421950 6:1.484318 7:-1.196912 8:1.044463 9:-0.876174 10:1.223075 11:-1.456203 12:-0.771526 13:0.562843 14:1.649582 15:0.276383 16:-1.083735 17:0.444743 18:-1.434830 19:-1.046579 20:0.863761 21:-1.814713 22:0.007204 23:-0.934899 24:-0.148220 25:-0.746999 26:0.376548 27:-0.347888 28:1.009938 29:-1.302114 30:0.436480 31:-1.476322 32:-0.093842 33:1.060669 34:-0.531711 35:1.652410 36:0.156512 37:1.301606 38:0.250844 39:-0.105584 40:1.448567 41:-0.153946 42:-0.308269 43:0.230460 44:0.521275 45:0.187709 46:0.732704 47:-0.552404 48:0.957050 49:-0.397878 50:0.818522 51:-0.780734 52:1.764464 53:0.473050 54:-1.650491 55:-0.479190 56:1.439646 57:0.926279 58:-0.258650 59:-0.262753 60:0.420924
-1 1:1.507410 2:-0.147304 3:1.461674 4:-2.775121 5:-0.852915 6:-0.333799 7:0.499723 8:0.456460 9:-1.708883 10:-2.141651 11:-0.682000 12:-0.664073 13:1.034490 14:-0.315608 15:1.119673 16:-0.947689 17:-1.597327 18:0.605619 19:1.155355 20:0.520235 21:1.250827 22:-0.524752 23:0.588710 24:0.517978 25:1.589209 26:-0.559987 27:-0.567335 28:-0.297051 29:1.055283 30:-0.795642 31:-0.367661 32:-1.102696 33:1.126161 34:1.155615 35:1.240300 36:0.652667 37:-1.723550 38:0.601091 39:-1.188501 40:-1.855250 41:0.291003 42:-1.666568 43:-0.117981 44:0.523230 45:0.024838 46:0.317741 47:-0.510121 48:0.126444 49:0.336582 50:-0.325448 51:-2.177145 52:-0.625228 53:-0.208347 54:-2.260500 55:0.272961 56:-0.461916 57:-1.687801 58:-0.305016 59:-0.195784 60:0.273309
-1 1:-1.000961 2:-0.381418 3:-0.877696 4:0.340034 5:0.780186 6:1.439957 7:-0.586267 8:0.504985 9:-0.144632 10:-0.227410 11:-1.608481 12:1.271913 13:-1.630067 14:-0.001860 15:1.338178 16:1.452051 17:-0.038198 18:1.274966 19:0.991677 20:0.991040 21:-1.320953 22:1.289378 23:-0.171445 24:-0.225113 25:-0.383176 26:-1.094513 27:1.617809 28:-0.193379 29:-0.477518 30:1.164264 31:-0.914583 32:0.377494 33:0.671060 34:0.368321 35:0.027381 36:-1.452848 37:0.529024 38:-1.314853 39:0.204591 40:-0.306902 41:0.408109 42:-0.158100 43:-0.035965 44:2.253142 45:0.723813 46:-0.405960 47:-0.366553 48:0.979101 49:1.459992 50:-0.040614 51:0.047415 52:-1.217257 53:0.305616 54:0.382580 55:1.829345 56:-0.362304 57:0.668016 58:0.542306 59:0.770458 60:-0.623803
-1 1:-0.264259 2:-0.517791 3:0.683181 4:-1.513176 5:0.479856 6:1.436094 7:-0.049262 8:0.327104 9:0.341493 10:0.631031 11:0.958046 12:-0.117893 13:-0.741104 14:0.556598 15:0.181399 16:0.215128 17:-0.409934 18:0.948083 19:-0.319027 20:-0.670424 21:-0.353677 22:-0.763225 23:0.507747 24:-1.562462 25:0.271176 26:-0.237691 27:-1.315098 28:0.851350 29:-0.436842 30:0.598368 31:1.271564 32:-1.361665 33:-0.514411 34:0.227433 35:-1.952620 36:-0.611310 37:1.155783 38:-0.253004 39:-0.885944 40:0.245020 41:-0.073981 42:1.186156 43:-0.863256 44:0.900093 45:-1.068909 46:0.998899 47:-0.903884 48:-0.229723 49:0.753655 50:0.797596 51:1.203449 52:0.609436 53:-1.836811 54:-0.113592 55:0.280036 56:0.311971 57:-1.871910 58:-0.573899 59:0.316391 60:0.715578
-1 1:1.156201 2:-0.271137 3:0.973641 4:1.677335 5:0.841953 6:1.070317 7:-2.195947 8:0.147710 9:1.893901 10:0.458062 11:0.504502 12:-0.521690 13:-0.051941 14:-0.146614 15:-0.103474 16:-0.756209 17:-0.460840 18:0.038300 19:-0.686963 20:-0.067738 21:1.202894 22:-0.362481 23:-0.883439 24:0.271805 25:0.945731 26:-0.991075 27:-0.024451 28:-0.107010 29:-1.563819 30:-0.392306 31:0.620847 32:-1.220928 33:0.631651 34:-0.203512 35:0.399381 36:0.430301 37:0.037113 38:-0.115325 39:-0.406634 40:0.154080 41:0.477806 42:-0.174972 43:-1.028538 44:0.658729 45:0.455214 46:0.621128 47:1.054299 48:-1.062593 49:-0.179980 50:-1.356813 51:0.320013 52:0.293884 53:2.015405 54:-0.298460 55:0.498822 56:-1.305713 57:-1.504723 58:0.147657 59:-0.901715 60:-0.245022
-1 1:0.140423 2:-2.670766 3:0.691987 4:0.315509 5:0.187640 6:0.635503 7:-1.095188 8:-0.483607 9:-0.373903 10:-2.132993 11:-0.791488 12:-0.093704 13:1.670991 14:0.696906 15:0.151481 16:1.423559 17:-0.613531 18:-0.491092 19:-1.600130 20:-0.449583 21:0.759340 22:1.288750 23:0.457332 24:0.351984 25:0.883242 26:-1.416851 27:0.844428 28:-0.742741 29:-1.978638 30:-1.660001 31:1.939615 32:-0.633173 33:1.335311 34:0.267091 35:-0.573454 36:-0.426206 37:1.771473 38:-2.612175 39:0.367694 40:-0.146731 41:0.545445 42:0.545715 43:-0.629794 44:0.381809 45:-1.013500 46:-0.493379 47:0.460165 48:-0.946857 49:-0.752345 50:0.511965 51:-0.150247 52:0.309403 53:-1.371381 54:-1.020843 55:0.553925 56:1.602713 57:1.418185 58:-0.000988 59:1.081151 60:-0.763836
-1 1:-0.241319 2:0.083879 3:1.294487 4:0.092942 5:-1.643395 6:-0.765242 7:0.037827 8:0.159019 9:1.001161 10:-0.643520 11:0.945786 12:-1.624153 13:0.262778 14:-0.808375 15:-0.314944 16:-1.255789 17:-0.514014 18:0.081006 19:-0.703576 20:-0.761451 21:-1.408689 22:0.776317 23:0.373813 24:0.715781 25:-0.523577 26:0.058870 27:-0.167547 28:1.321916 29:-0.030655 30:0.583827 31:0.415146 32:0.998103 33:-2.233036 34:-0.491507 35:-0.722543 36:0.089649 37:0.832796 38:0.164656 39:-0.257469 40:-0.318705 41:0.710172 42:-3.229943 43:-0.266416 44:0.132992 45:-1.026461 46:-0.523144 47:0.624721 48:-0.233863 49:1.639069 50:-0.463561 51:-0.928638 52:-1.204379 53:-0.030158 54:0.507119 55:0.095872 56:-0.448389 57:-0.074145 58:-0.166291 59:-0.676045 60:0.398404
-1 1:-0.420756 2:1.226124 3:1.124418 4:-2.278675 5:0.103707 6:0.604149 7:-1.092229 8:-0.109098 9:1.871372 10:0.767083 11:-0.149295 12:0.019570 13:0.089112 14:0.732487 15:-0.370131 16:0.976255 17:-0.807068 18:0.803136 19:-0.834678 20:-0.306683 21:0.061828 22:-1.120072 23:1.523385 24:-0.233664 25:0.054665 26:2.859941 27:-1.287642 28:0.339167 29:-0.180651 30:0.782968 31:1.446994 32:1.761388 33:0.160231 34:0.120747 35:0.393352 36:0.356352 37:-0.668309 38:0.246535 39:-0.565405 40:-2.104680 41:-0.436891 42:-0.404194 43:0.210339 44:0.650774 45:-0.226010 46:-1.145058 47:0.321050 48:-0.361892 49:0.298072 50:-0.377109 51:-0.565168 52:-0.964354 53:0.887233 54:-0.890726 55:-0.726289 56:-1.693089 57:-0.326429 58:-0.435500 59:0.306283 60:-0.532738
-1 1:-0.207998 2:-1.728170 3:0.498743 4:-0.204734 5:0.122934 6:1.186196 7:-1.615066 8:0.098228 9:-0.232990 10:-0.385782 11:0.566834 12:-1.062025 13:0.028775 14:-0.928172 15:-2.193800 16:-0.262033 17:-0.560655 18:1.319833 19:0.343974 20:-1.116412 21:-0.328880 22:0.365703 23:0.223322 24:0.717679 25:0.672416 26:1.525227 27:-0.217740 28:1.248426 29:0.047870 30:0.196641 31:-0.822355 32:1.860696 33:-0.763697 34:1.927609 35:0.852976 36:-0.398550 37:-1.134663 38:1.121359 39:-0.811067 40:0.452366 41:0.379167 42:0.545857 43:0.181411 44:0.805309 45:-1.031828 46:-0.460815 47:-0.582346 48:-1.156006 49:0.082754 50:-1.467827 51:0.851693 52:1.432047 53:0.288101 54:-0.291313 55:-0.056929 56:-0.535740 57:0.475616 58:0.630664 59:1.419444 60:-0.921215
-1 1:1.565317 2:-1.124435 3:-0.784938 4:-0.889126 5:-0.550971 6:0.091872 7:-0.647275 8:-0.795527 9:-1.666974 10:-0.237116 11:0.937187 12:0.180370 13:-1.570902 14:0.860459 15:-0.476916 16:1.080332 17:1.501326 18:1.959892 19:-0.333107 20:-0.405369 21:0.593519 22:-0.767979 23:1.770544 24:1.031440 25:0.401522 26:2.780170 27:-0.898020 28:-0.698284 29:-1.194419 30:0.795908 31:1.525709 32:-0.701839 33:1.941364 34:0.855509 35:1.141763 36:-0.069054 37:-0.568658 38:1.161210 39:0.236806 40:1.419902 41:1.016686 42:0.195738 43:0.569425 44:-0.289483 45:-1.272061 46:1.646695 47:0.680967 48:1.319240 49:0.417250 50:0.169893 51:0.715911 52:-0.791062 53:-2.358774 54:0.340920 55:-0.890778 56:1.979464 57:-0.677542 58:0.455071 59:0.616235 60:1.833322
-1 1:-0.453261 2:0.089614 3:-1.401764 4:0.774324 5:0.896395 6:1.596740 7:-0.651159 8:0.561668 9:0.276226 10:0.022391 11:0.152506 12:-0.009686 13:-1.040124 14:0.541407 15:-2.494491 16:0.658763 17:-1.294558 18:-2.248755 19:0.094006 20:1.763024 21:-1.391353 22:0.963478 23:0.809701 24:-0.301687 25:0.267069 26:0.971102 27:0.746364 28:0.248822 29:0.787244 30:-0.240333 31:0.051312 32:0.109164 33:0.316711 34:0.726506 35:0.492416 36:0.419182 37:0.980139 38:1.011440 39:0.582897 40:0.836581 41:-0.480580 42:-1.056251 43:0.511160 44:0.062645 45:0.881120 46:0.278802 47:2.218658 48:-0.636257 49:-0.823267 50:2.401404 51:-1.598486 52:-0.389916 53:-0.474298 54:-2.037566 55:-0.854938 56:0.946435 57:1.076431 58:-1.418085 59:0.705252 60:-0.642716
-1 1:-1.252731 2:-0.001316 3:0.187201 4:-0.256934 5:-0.918390 6:0.511888 7:0.158822 8:2.032430 9:0.448424 10:-1.341131 11:-0.528627 12:0.053306 13:-3.259234 14:-0.335548 15:0.450515 16:-0.173827 17:0.712417 18:-0.219984 19:-0.143894 20:-0.386099 21:0.237969 22:-1.992294 23:-0.447596 24:-0.194588 25:-0.962883 26:-2.109102 27:0.262430 28:1.846556 29:-0.372544 30:-2.181923 31:-1.573029 32:-0.773567 33:-1.001839 34:-1.290101 35:-1.027106 36:0.669972 37:-0.519888 38:0.445831 39:-0.801337 40:-0.775723 41:1.789466 42:3.355593 43:0.241871 44:0.487797 45:0.380915 46:0.048554 47:-0.523765 48:-1.689130 49:-0.575501 50:-0.188433 51:0.925426 52:0.198527 53:-0.381090 54:-0.730683 55:-1.225461 56:-0.822706 57:-0.608935 58:0.943282 59:3.945594 60:-0.673700
-1 1:-0.978976 2:1.694253 3:-1.119705 4:2.240198 5:-0.504802 6:-0.446051 7:-1.123070 8:-0.404930 9:0.922022 10:-0.974212 11:-2.884669 12:-1.729903 13:-0.339993 14:-0.490061 15:-0.077992 16:0.052899 17:-1.599445 18:0.589303 19:0.840568 20:-1.865742 21:-0.621045 22:-1.144023 23:0.062497 24:-0.981069 25:0.069236 26:-0.251897 27:0.023694 28:0.862481 29:-0.871113 30:0.432185 31:1.392039 32:0.783824 33:0.652869 34:-0.929671 35:-0.012746 36:0.609515 37:1.322061 38:1.193074 39:0.435891 40:-1.003091 41:0.249883 42:3.036121 43:0.292265 44:-0.705570 45:-1.194013 46:-1.074245 47:-0.969072 48:0.057152 49:0.249709 50:-2.409459 51:0.287319 52:-2.117990 53:-0.156552 54:0.142346 55:-0.784953 56:0.699898 57:-0.102674 58:0.034447 59:-0.916534 60:0.851965
-1 1:0.891355 2:-0.593846 3:2.198252 4:-1.191789 5:-0.537793 6:-0.027151 7:1.659005 8:-2.226498 9:1.039388 10:0.422825 11:-0.604535 12:0.844245 13:0.099859 14:0.226115 15:-0.305983 16:-0.162029 17:0.640459 18:-0.088260 19:0.821920 20:-1.755305 21:0.039373 22:-1.241202 23:-0.767344 24:-0.508191 25:-1.413736 26:1.143093 27:0.020243 28:1.448608 29:-0.210280 30:1.294485 31:-1.584673 32:-0.539205 33:0.958257 34:0.843505 35:0.744893 36:-1.382426 37:0.795220 38:-1.049814 39:1.323572 40:-0.889733 41:-0.658726 42:-1.354583 43:-1.511869 44:0.121118 45:-1.009722 46:1.391563 47:0.967097 48:-1.228314 49:0.037104 50:0.401591 51:-0.073400 52:0.330775 53:1.020585 54:1.524265 55:0.595993 56:1.332459 57:0.507897 58:0.213652 59:1.800710 60:-0.560746
-1 1:-0.535838 2:-1.313708 3:-2.891064 4:-0.217369 5:-0.090170 6:1.047755 7:-0.611143 8:-0.511004 9:-0.010714 10:-0.584602 11:0.286403 12:2.304450 13:-0.036041 14:0.919913 15:-0.391273 16:-0.042907 17:-0.980824 18:0.611844 19:-0.868693 20:-0.186539 21:1.463321 22:-0.653465 23:0.153675 24:1.441077 25:-0.855834 26:0.750701 27:-0.119154 28:-0.847699 29:0.697505 30:-0.131685 31:-0.983705 32:-1.345897 33:-0.782649 34:-0.785099 35:0.878426 36:-0.263747 37:0.168481 38:-2.906623 39:-2.133783 40:1.512680 41:1.822582 42:0.615653 43:-0.290842 44:0.916401 45:-1.295018 46:0.515511 47:0.208484 48:0.789296 49:-0.097448 50:-0.412489 51:1.952702 52:0.586374 53:0.798855 54:0.502277 55:1.106709 56:-0.430908 57:-0.209689 58:0.260955 59:-0.950102 60:-0.013680
-1 1:-0.260625 2:-0.524812 3:1.233741 4:-0.700953 5:1.626206 6:0.132242 7:1.352449 8:1.381448 9:1.714271 10:-1.023190 11:-0.680780 12:-1.265646 13:-0.757370 14:0.328945 15:-1.261545 16:-1.725674 17:0.257206 18:2.024452 19:-0.694730 20:0.282374 21:-0.609039 22:-0.633322 23:0.629611 24:0.362216 25:-1.036049 26:2.201386 27:-1.449751 28:-1.893696 29:-0.368820 30:-0.257697 31:0.927894 32:-0.640015 33:0.190037 34:0.827862 35:-1.177112 36:-0.335573 37:-0.149303 38:-0.873127 39:0.674627 40:-0.968270 41:1.181961 42:1.645524 43:1.805874 44:-0.428487 45:0.850299 46:-1.170722 47:-0.719208 48:-0.515066 49:-0.664914 50:0.435836 51:-0.121933 52:-1.929839 53:0.921433 54:-0.270702 55:1.330037 56:-0.242515 57:0.379883 58:0.192573 59:-1.376729 60:-0.349689
-1 1:-0.208605 2:-0.458951 3:0.661595 4:-1.659286 5:-2.595909 6:-1.025976 7:-1.030939 8:-0.285241 9:-0.537369 10:0.207059 11:-0.509711 12:-1.684323 13:-0.763883 14:-0.592968 15:0.487489 16:0.215500 17:-0.397183 18:-0.172180 19:-0.144022 20:-0.846488 21:-0.846439 22:1.968176 23:0.135040 24:0.293015 25:-1.032495 26:0.696035 27:1.511168 28:1.703336 29:0.867374 30:0.850618 31:-1.276303 32:-0.629700 33:1.198390 34:-0.190035 35:-0.960842 36:0.123163 37:1.238917 38:-1.149407 39:-0.942483 40:0.796836 41:-0.841771 42:-0.598658 43:1.842656 44:-0.200855 45:0.535478 46:0.460596 47:-0.415680 48:2.108534 49:-1.229075 50:-2.788481 51:-0.341222 52:0.356164 53:1.508285 54:0.059910 55:-0.560952 56:-1.044402 57:0.816265 58:1.161973 59:0.203638 60:0.601227
-1 1:-0.170516 2:0.761162 3:-0.269474 4:-1.304789 5:0.741929 6:0.341421 7:-0.146662 8:0.374454 9:0.840805 10:-0.229796 11:-0.446380 12:0.731068 13:-1.290473 14:-0.328100 15:0.299657 16:2.104758 17:0.324681 18:-1.636907 19:-0.046613 20:-0.268034 21:0.035940 22:0.940536 23:-0.750678 24:0.066682 25:-1.105808 26:0.440220 27:-0.954236 28:-0.079673 29:-0.233427 30:-0.333152 31:-0.102600 32:-0.034910 33:1.234883 34:-1.291705 35:0.691026 36:-0.549386 37:-0.440453 38:-0.758470 39:-0.454850 40:0.470375 41:-1.042249 42:1.342288 43:0.765690 44:0.274276 45:-1.123671 46:0.221030 47:-0.954356 48:-1.645698 49:-0.082499 50:-0.153876 51:-0.544565 52:-2.069922 53:0.739913 54:-1.057921 55:0.967806 56:0.786440 57:-0.547963 58:-0.327706 59:-1.242997 60:-0.826917
-1 1:-0.412809 2:-0.112846 3:-0.407420 4:0.521173 5:-1.694372 6:-0.180926 7:0.544163 8:-0.138357 9:0.544938 10:-1.855822 11:-0.839958 12:-0.577352 13:-1.223558 14:-0.153076 15:-2.037544 16:1.459081 17:0.174347 18:0.606758 19:1.490217 20:1.037767 21:-0.591216 22:1.532901 23:-2.032652 24:-0.555957 25:-0.559041 26:0.076063 27:0.101400 28:-0.239326 29:1.243315 30:0.707170 31:0.453423 32:0.479624 33:0.632880 34:-0.882516 35:-0.614582 36:-0.422004 37:-0.419299 38:-0.055340 39:-0.749110 40:-0.777270 41:-1.178459 42:-0.218747 43:-0.813186 44:0.280816 45:0.611352 46:-0.762604 47:-0.888377 48:-1.303100 49:-0.071741 50:0.975154 51:-0.344770 52:-0.750586 53:0.789576 54:0.812534 55:0.426898 56:0.202244 57:-0.079427 58:-0.046593 59:1.529460 60:-0.156225
-1 1:0.848311 2:-1.394370 3:-0.421855 4:0.372387 5:-0.741811 6:0.997348 7:-1.503164 8:-0.270105 9:0.768229 10:0.255179 11:-0.128936 12:0.966315 13:0.554098 14:-1.431386 15:-0.357818 16:0.811556 17:-0.808173 18:1.229431 19:-0.092033 20:1.680671 21:-1.588131 22:0.149763 23:1.317826 24:-0.249564 25:-0.151686 26:0.218764 27:0.871242 28:0.276804 29:0.029139 30:0.236680 31:0.578580 32:-0.334459 33:0.134049 34:1.470134 35:0.277190 36:0.892914 37:0.587436 38:1.240017 39:0.397080 40:-2.099829 41:-1.651147 42:0.645745 43:0.787432 44:-0.147528 45:0.966316 46:2.575226 47:0.872968 48:-0.198564 49:0.599470 50:-0.653425 51:-0.103662 52:2.214443 53:0.251899 54:-0.738271 55:2.378425 56:0.626483 57:-0.550198 58:-1.199748 59:-0.036401 60:1.516338
-1 1:-0.525021 2:-1.100880 3:-0.362322 4:-0.770447 5:0.662740 6:-0.696514 7:1.184411 8:-0.091720 9:0.831266 10:-1.013311 11:0.830726 12:0.577729 13:0.491797 14:-0.547686 15:0.964560 16:0.526764 17:0.058095 18:-0.816430 19:0.966735 20:-0.548991 21:-1.289008 22:-0.362120 23:1.954390 24:0.669246 25:0.876682 26:-0.042797 27:1.621560 28:0.334838 29:0.504558 30:0.076786 31:0.639151 32:-0.343580 33:0.623114 34:-1.131917 35:-0.334034 36:-0.256651 37:-0.959607 38:0.060004 39:0.532517 40:0.640846 41:-1.210385 42:-1.215658 43:-0.421894 44:-1.249426 45:0.680042 46:0.836986 47:-1.486385 48:-0.907372 49:-0.028514 50:-0.631569 51:0.631989 52:0.851416 53:-0.909857 54:0.405152 55:-2.519074 56:0.487920 57:-0.239238 58:-1.034715 59:-0.820673 60:0.541271
-1 1:-0.756907 2:-0.571972 3:-0.192525 4:-0.550638 5:0.334709 6:-0.792766 7:0.932283 8:-0.315301 9:-1.080989 10:1.112934 11:-0.427722 12:-1.840552 13:0.018957 14:-0.076454 15:-0.965284 16:0.764457 17:-1.086678 18:-0.077692 19:-0.561034 20:-0.167089 21:-1.079075 22:-2.786408 23:1.509947 24:-0.430062 25:-1.849542 26:-1.982542 27:0.423386 28:1.059737 29:-2.649638 30:0.599285 31:0.060162 32:0.796039 33:0.495203 34:0.697686 35:-1.659733 36:2.173993 37:-0.914555 38:-0.853156 39:1.553493 40:0.513180 41:-0.456957 42:-2.342096 43:0.136846 44:0.424937 45:-0.114399 46:0.033842 47:-0.786662 48:2.395805 49:-0.244242 50:-1.768810 51:0.396488 52:0.393486 53:0.690693 54:1.694763 55:-0.158562 56:-0.427534 57:-0.768723 58:-0.567940 59:0.696865 60:0.294466
-1 1:-1.241292 2:-1.624921 3:-0.019108 4:0.251193 5:-0.589564 6:-2.244026 7:0.220525 8:-0.432343 9:-0.411700 10:0.730857 11:-1.959450 12:-0.711404 13:3.467105 14:-0.714756 15:0.463994 16:-0.484151 17:1.612911 18:0.299636 19:-0.352416 20:0.148299 21:-0.152834 22:-0.875811 23:0.178690 24:0.619354 25:0.259956 26:-1.628897 27:0.795323 28:0.290892 29:-1.501867 30:1.475449 31:-0.005390 32:0.131964 33:1.602138 34:-1.146840 35:0.084069 36:-0.572963 37:0.221251 38:0.640367 39:0.010184 40:-1.559014 41:1.015636 42:0.374810 43:0.454138 44:0.246853 45:-0.725255 46:-2.331622 47:-1.247376 48:0.011032 49:1.180043 50:1.844684 51:-0.694783 52:0.204674 53:-0.900253 54:0.647778 55:-0.733134 56:1.186354 57:1.411158 58:-2.060901 59:-0.423084 60:-0.198242
-1 1:0.240545 2:-0.694918 3:-0.382205 4:0.602239 5:0.085166 6:-0.325733 7:-1.208532 8:0.930285 9:0.281992 10:-1.326285 11:1.674750 12:0.883559 13:-0.115157 14:0.401661 15:0.115303 16:0.018692 17:-0.526735 18:-1.561134 19:0.788700 20:0.400543 21:-1.475929 22:0.823097 23:1.297677 24:1.476965 25:1.669549 26:1.026187 27:0.951928 28:-1.946245 29:0.245670 30:-0.038799 31:-0.083312 32:-1.468425 33:-0.952099 34:-0.450669 35:-0.714638 36:-1.002053 37:1.618779 38:-0.159439 39:-0.906575 40:1.915470 41:-0.915945 42:-1.663798 43:-0.181444 44:-1.770323 45:0.307105 46:1.415838 47:-0.635715 48:0.116212 49:0.166442 50:1.113742 51:-1.293290 52:0.892232 53:-1.732070 54:-0.808013 55:0.251719 56:0.511074 57:-0.504362 58:1.194631 59:1.549531 60:-0.536675
-1 1:-0.303212 2:-0.195080 3:0.453914 4:0.085969 5:-2.721353 6:1.827496 7:1.050260 8:0.073650 9:-0.965611 10:0.565371 11:-0.702908 12:-0.030538 13:-1.607530 14:1.730522 15:-0.303784 16:-0.421114 17:-1.650068 18:0.653709 19:-1.326920 20:-0.064654 21:-0.666257 22:-1.339465 23:-0.269792 24:-0.907131 25:0.206878 26:0.877966 27:0.373797 28:-0.606220 29:-0.171601 30:0.159675 31:0.577650 32:-0.426905 33:-0.013558 34:-0.360542 35:-0.604931 36:0.013578 37:0.436790 38:0.379665 39:-0.694180 40:-1.544295 41:1.691241 42:-1.175720 43:0.658873 44:0.457526 45:1.370600 46:0.108437 47:0.934431 48:0.454252 49:-0.028832 50:-1.077644 51:0.793951 52:-0.380099 53:-0.020886 54:1.718294 55:1.109449 56:-0.165475 57:1.609014 58:-0.269420 59:0.057081 60:0.053615
-1 1:0.905126 2:-1.069383 3:0.155904 4:-0.178528 5:0.380872 6:0.679122 7:-0.454603 8:-0.792518 9:1.085609 10:-1.249430 11:0.087561 12:0.376441 13:0.806274 14:0.007266 15:0.053633 16:1.270988 17:0.003974 18:0.946529 19:1.102926 20:0.495103 21:0.769964 22:-0.539364 23:0.302592 24:-0.862439 25:-1.708818 26:-0.188690 27:-0.898832 28:0.480896 29:-0.724663 30:-1.061075 31:-0.082712 32:-0.156696 33:1.886781 34:-0.322933 35:1.788866 36:0.009795 37:-1.035287 38:-0.115937 39:-1.244166 40:0.577396 41:-1.807904 42:1.602023 43:-0.113565 44:-0.067038 45:0.295283 46:1.297818 47:0.623504 48:1.408018 49:0.865983 50:-0.738960 51:2.382246 52:1.429340 53:-0.865555 54:0.275568 55:-0.999822 56:0.814053 57:0.011431 58:-1.544946 59:-1.889916 60:-0.268674
-1 1:0.377435 2:0.470810 3:-0.164086 4:-0.458065 5:0.731858 6:0.106298 7:-0.384091 8:-2.188611 9:0.046722 10:-0.609898 11:-0.180719 12:-0.537356 13:1.112600 14:-0.327229 15:-1.846215 16:1.100843 17:0.007689 18:1.018496 19:1.177368 20:0.677720 21:0.242845 22:0.085526 23:0.728179 24:-0.641696 25:1.137903 26:-0.694111 27:0.231387 28:1.320067 29:1.338526 30:0.931880 31:-1.166793 32:-1.829317 33:1.379322 34:-0.059869 35:-0.709433 36:-1.304207 37:0.827341 38:-0.308232 39:1.879583 40:1.074518 41:0.211252 42:0.379169 43:-2.064564 44:-0.480666 45:0.051665 46:2.481131 47:-1.091456 48:-0.875715 49:-1.405831 50:0.952261 51:0.298811 52:0.149850 53:-0.346070 54:-0.665191 55:-0.520494 56:-0.673231 57:-0.272783 58:-0.575394 59:0.606917 60:0.131486
-1 1:-0.260517 2:1.793433 3:0.298869 4:0.410388 5:-0.506786 6:0.303044 7:-0.323404 8:-0.516578 9:-1.262034 10:-0.581408 11:-0.261882 12:0.566990 13:-0.502293 14:-1.389072 15:0.949290 16:0.067319 17:1.942713 18:-0.320102 19:0.923545 20:1.008784 21:0.227164 22:-0.058018 23:-0.341982 24:-0.301474 25:0.334453 26:-1.002990 27:-0.023381 28:-0.258492 29:0.772646 30:0.482260 31:0.551284 32:-0.584335 33:-0.260284 34:0.498082 35:-0.216909 36:-0.172259 37:-1.070977 38:-0.362705 39:0.948984 40:-0.382950 41:-0.568675 42:0.458614 43:-0.096962 44:0.485060 45:-0.708396 46:0.319322 47:-0.909331 48:0.338264 49:1.655312 50:1.795831 51:-0.454825 52:-0.042437 53:-2.048219 54:-0.842087 55:0.668835 56:0.381551 57:1.438226 58:-1.333733 59:1.648188 60:0.246221
-1 1:1.000273 2:0.531013 3:-0.509388 4:-0.474794 5:-2.956790 6:0.982701 7:1.180201 8:-1.095691 9:0.780414 10:0.071539 11:0.446318 12:-0.959713 13:-0.478450 14:0.168464 15:0.556655 16:-0.688090 17:0.944958 18:2.279037 19:-1.436223 20:-0.593512 21:0.319401 22:-0.959995 23:-1.614818 24:1.393204 25:0.190772 26:-2.303396 27:-0.230533 28:-0.361924 29:-0.484863 30:0.869543 31:-1.742587 32:0.107794 33:1.685084 34:-0.267087 35:1.589673 36:0.307367 37:1.956200 38:1.372955 39:0.712510 40:0.310038 41:-0.351363 42:1.605335 43:-1.959660 44:-0.865355 45:-1.413817 46:-2.151885 47:0.153876 48:0.025474 49:0.687473 50:0.367609 51:1.339913 52:-0.332175 53:-0.579634 54:0.619477 55:0.943574 56:0.725562 57:-1.388196 58:1.642722 59:0.126771 60:0.094573
-1 1:-0.915036 2:-0.626372 3:0.341594 4:-0.700032 5:-0.728136 6:-1.665985 7:1.025860 8:1.465483 9:0.062441 10:0.173751 11:0.754346 12:1.008428 13:0.701615 14:-1.111135 15:-0.217755 16:-0.679887 17:-0.225840 18:-1.765418 19:0.321202 20:1.217148 21:-0.869441 22:0.503292 23:1.267405 24:-1.132921 25:0.617577 26:1.400319 27:1.220772 28:0.088085 29:-0.705349 30:-0.856707 31:-0.476264 32:0.244220 33:-0.603865 34:-0.414102 35:-0.308766 36:-0.830364 37:-0.433298 38:-1.393583 39:-0.944723 40:-1.105029 41:-2.029308 42:-1.953200 43:0.228806 44:-0.829105 45:-0.939178 46:-0.399818 47:1.136231 48:-0.700662 49:0.209698 50:2.077763 51:0.639100 52:-1.533110 53:1.321227 54:0.512261 55:-0.277388 56:0.322621 57:-0.528275 58:-0.306820 59:0.708132 60:-0.260694
-1 1:-0.836077 2:0.497152 3:-0.011023 4:0.567466 5:1.160407 6:-2.950269 7:0.825617 8:1.442200 9:0.753505 10:-0.123977 11:1.951227 12:0.067867 13:-0.586879 14:1.014613 15:-0.844361 16:-1.633412 17:1.629420 18:-0.574998 19:1.776515 20:-0.510440 21:-0.577632 22:-1.817555 23:-0.496752 24:-0.159096 25:-2.568142 26:-0.346613 27:-0.270174 28:-0.311523 29:-1.313133 30:-0.091575 31:0.190350 32:1.741627 33:-0.755281 34:0.425419 35:0.764374 36:-0.448728 37:-1.854448 38:0.347724 39:1.489202 40:-0.450510 41:-0.078279 42:-0.091697 43:-0.968886 44:0.204055 45:-1.296884 46:-0.112649 47:1.200536 48:-1.555457 49:0.664774 50:-1.499388 51:0.697552 52:-0.371283 53:-0.671062 54:-1.411618 55:-1.373784 56:1.673667 57:-0.787193 58:-0.238342 59:0.441536 60:0.263376
-1 1:0.361891 2:1.264391 3:2.148778 4:-0.056168 5:0.276086 6:-0.086584 7:-0.264834 8:1.196636 9:-0.528529 10:-0.832088 11:-0.525495 12:-0.052872 13:-0.208558 14:1.261330 15:0.183645 16:0.278786 17:-0.227294 18:-0.278842 19:-0.906389 20:1.042615 21:-1.458865 22:1.013210 23:-1.097379 24:0.031208 25:-0.336026 26:-0.849154 27:-0.396534 28:0.981137 29:-0.535048 30:0.674172 31:0.987022 32:-0.734093 33:2.091579 34:-1.077691 35:-1.939380 36:-0.978026 37:-1.137263 38:0.413988 39:-0.107903 40:-0.234873 41:0.405665 42:-0.113315 43:0.920538 44:1.074632 45:-0.555965 46:-0.173444 47:-0.655847 48:0.999500 49:0.362128 50:-0.161772 51:0.099453 52:-1.436291 53:0.331916 54:-0.114346 55:-1.391348 56:1.362746 57:-0.040275 58:-0.804271 59:1.078044 60:1.044860
-1 1:1.881173 2:1.090059 3:-0.867309 4:0.283757 5:-1.270230 6:-0.407375 7:0.218963 8:-1.207959 9:0.559206 10:-0.553089 11:-0.784938 12:0.111644 13:0.070794 14:-2.545013 15:0.165804 16:-0.080494 17:0.584689 18:1.453406 19:-0.833835 20:0.429497 21:-2.345044 22:-1.231642 23:-0.385955 24:0.194534 25:0.942050 26:0.571719 27:-0.384965 28:-1.127660 29:0.245589 30:2.585217 31:0.665173 32:-0.066439 33:-1.194068 34:-0.766305 35:0.280052 36:-2.005769 37:0.193717 38:-0.012872 39:0.074424 40:-0.492223 41:-0.127125 42:-2.284654 43:-0.360844 44:-0.962161 45:-1.319221 46:-2.182206 47:-1.435701 48:-0.904733 49:2.505105 50:0.541868 51:1.336446 52:0.546183 53:0.076922 54:-2.348992 55:-0.749152 56:0.284822 57:-3.308507 58:-1.347394 59:-0.028994 60:0.814812
-1 1:0.892066 2:-0.485410 3:-0.421274 4:-0.722145 5:0.080370 6:-0.750862 7:0.340468 8:-0.395449 9:-3.821790 10:-1.217271 11:-0.115040 12:-0.343485 13:0.661116 14:0.555546 15:-1.148356 16:0.442157 17:0.472564 18:0.490452 19:-0.267850 20:0.534698 21:-1.467952 22:-1.241238 23:-1.131584 24:-1.384899 25:-2.107727 26:-0.492574 27:0.324913 28:-0.696512 29:-0.733128 30:0.417123 31:-1.571603 32:0.044601 33:-0.617728 34:-0.261853 35:-1.089280 36:-0.032226 37:-1.815448 38:0.856787 39:0.113568 40:-1.204335 41:-0.410905 42:-0.237377 43:-0.947704 44:-0.115228 45:-1.197395 46:0.248565 47:-0.447247 48:2.019526 49:1.592083 50:-0.114629 51:-0.130517 52:-0.241788 53:-0.123007 54:-1.245678 55:-1.902734 56:0.578051 57:0.130949 58:-0.543303 59:-0.027590 60:0.381655
-1 1:-0.704224 2:0.250010 3:0.323395 4:-0.897940 5:-0.152967 6:-1.729744 7:0.898216 8:0.326709 9:0.436855 10:-0.192959 11:0.177155 12:-0.782233 13:0.378487 14:-0.284400 15:0.003861 16:-0.751256 17:-0.448762 18:-0.788512 19:1.712143 20:-0.768264 21:0.038236 22:-0.357709 23:1.879140 24:0.392189 25:1.475820 26:0.686323 27:-1.154039 28:0.170746 29:1.800852 30:-0.594011 31:-1.055364 32:-1.192469 33:-0.148165 34:-0.682229 35:1.357113 36:0.729974 37:-0.707634 38:1.170305 39:1.883944 40:0.417235 41:-1.265362 42:0.239406 43:-0.112093 44:0.550525 45:-0.345610 46:-0.697587 47:0.532281 48:0.119025 49:-0.771669 50:-0.977894 51:1.261776 52:0.580008 53:-0.948237 54:-0.344406 55:-1.003156 56:0.734665 57:-2.077739 58:1.801782 59:-1.462257 60:-1.111664
-1 1:-1.116424 2:0.437292 3:-1.476548 4:-0.753628 5:1.185644 6:0.233791 7:-2.101967 8:1.093658 9:0.582682 10:-0.582797 11:-0.328341 12:0.002535 13:0.256014 14:0.089882 15:-1.326842 16:1.037371 17:-1.459551 18:-0.794717 19:0.092443 20:-0.079044 21:1.063009 22:1.119516 23:-0.058698 24:0.075242 25:-1.057459 26:-0.826242 27:-1.249962 28:0.845872 29:-0.482377 30:-1.431029 31:-0.286988 32:-2.653021 33:1.095481 34:-0.201288 35:1.822888 36:-1.485254 37:1.239486 38:-0.246925 39:0.608309 40:-1.344406 41:1.632699 42:0.135130 43:-0.864930 44:0.250144 45:-2.609808 46:0.243504 47:0.364439 48:0.013780 49:0.241311 50:-0.502804 51:0.308948 52:-0.363971 53:-0.768206 54:-1.999326 55:-0.094964 56:-0.409819 57:0.393654 58:0.224330 59:0.344453 60:-0.541866
-1 1:0.247225 2:-1.498393 3:-1.925345 4:-0.180203 5:0.769518 6:0.172717 7:-0.809426 8:0.335952 9:-0.406437 10:-0.007803 11:-0.055525 12:1.684057 13:0.153996 14:-0.725147 15:-0.814505 16:-0.879330 17:-0.197433 18:0.233131 19:-0.219037 20:0.729209 21:-0.154297 22:1.117069 23:-1.391766 24:0.225259 25:0.622335 26:1.404010 27:0.587951 28:0.129810 29:-1.685155 30:0.602859 31:0.666271 32:-0.781318 33:-1.468327 34:0.446017 35:0.249325 36:0.779171 37:-0.515809 38:-0.004929 39:1.880912 40:0.636386 41:1.447694 42:-0.009123 43:0.001470 44:0.063818 45:0.747750 46:-1.991134 47:-1.448216 48:1.099999 49:0.906570 50:-1.130754 51:0.000912 52:-1.742800 53:-0.063354 54:0.378189 55:0.630245 56:-1.261536 57:1.311534 58:0.050619 59:0.360737 60:0.051748
-1 1:-0.764901 2:-2.847415 3:1.218725 4:-0.272083 5:1.052604 6:-0.491054 7:-1.172402 8:0.585766 9:-0.142279 10:-0.067798 11:0.325680 12:-0.861489 13:0.827023 14:-0.695142 15:0.608560 16:0.645757 17:0.005402 18:1.119321 19:-0.030159 20:0.017066 21:0.154099 22:0.039268 23:-0.751442 24:0.403916 25:-0.241764 26:-0.531507 27:-0.047079 28:-0.627396 29:1.793796 30:0.213016 31:-0.158380 32:-0.261025 33:0.132823 34:-2.858922 35:-0.137425 36:1.124941 37:1.074363 38:0.893606 39:-0.209816 40:-0.449546 41:-0.147744 42:-0.223359 43:-0.887717 44:-1.439682 45:-0.509217 46:-0.390235 47:1.778323 48:0.993606 49:0.285702 50:0.590927 51:-0.209765 52:-0.718976 53:-0.985776 54:-1.637910 55:-0.678985 56:-0.202845 57:0.440921 58:-0.679267 59:0.705891 60:-1.429076
-1 1:0.606348 2:0.327209 3:1.790690 4:0.712600 5:-0.202890 6:-1.022350 7:-0.503017 8:2.407335 9:0.226798 10:-0.295355 11:0.562404 12:0.237261 13:-0.294417 14:-1.002530 15:0.285963 16:-0.541536 17:1.164325 18:0.453732 19:-1.253682 20:1.333063 21:0.378254 22:0.362125 23:2.283277 24:0.785300 25:0.419434 26:-0.253144 27:-0.133748 28:-1.171086 29:-0.992523 30:0.753587 31:0.870700 32:0.115026 33:0.070710 34:0.185594 35:-1.710229 36:0.910694 37:0.697025 38:0.142476 39:0.142184 40:0.042367 41:0.585950 42:-1.404225 43:-0.021731 44:-0.174267 45:1.430779 46:-0.274218 47:0.476537 48:0.086212 49:-0.516964 50:-0.276950 51:1.189396 52:1.532453 53:1.093904 54:-0.806061 55:-0.405152 56:1.982952 57:0.038288 58:-0.162892 59:-0.422808 60:-2.697365
-1 1:1.578180 2:1.028283 3:2.433012 4:-1.065285 5:0.411800 6:0.280087 7:0.421529 8:0.329873 9:-0.667963 10:-0.473986 11:0.399037 12:-0.458818 13:-0.115880 14:-2.024265 15:0.708368 16:-0.304751 17:1.919568 18:-1.024111 19:-0.219544 20:0.078410 21:-0.988778 22:-0.401977 23:-0.909984 24:2.387386 25:0.351480 26:2.182721 27:1.803253 28:-1.533199 29:-0.314629 30:-1.081062 31:0.141590 32:-0.843822 33:0.415512 34:0.259198 35:0.762482 36:0.799424 37:-2.172037 38:-0.394333 39:-0.751205 40:0.111199 41:-0.990072 42:-0.735000 43:0.673905 44:0.256586 45:0.901922 46:0.867066 47:-1.110724 48:0.701235 49:-1.963513 50:-2.199569 51:1.151905 52:1.019508 53:0.506352 54:-0.083466 55:0.696452 56:-0.394155 57:-0.278423 58:0.333972 59:0.319698 60:-0.842113
-1 1:-0.935408 2:-1.373939 3:0.825838 4:-1.411069 5:1.902358 6:0.360888 7:-0.755529 8:-0.637712 9:1.524017 10:0.154563 11:-1.828104 12:-0.578222 13:1.259114 14:1.604458 15:1.371501 16:-0.690185 17:0.492079 18:-0.157421 19:-0.077684 20:-1.504341 21:1.208423 22:0.917067 23:1.347306 24:0.240550 25:0.070637 26:-1.823647 27:0.156448 28:-0.537948 29:0.290189 30:-1.092710 31:1.538614 32:-2.773752 33:1.370204 34:-0.755717 35:-1.159982 36:-1.560952 37:0.759361 38:-0.046345 39:-0.207576 40:0.808418 41:-0.060880 42:-1.811952 43:0.308081 44:-0.194584 45:0.338961 46:-1.071343 47:-1.453929 48:-0.749194 49:-0.836065 50:-0.901952 51:0.328498 52:-0.602460 53:1.118803 54:0.540661 55:-0.146022 56:1.276073 57:-0.430883 58:-1.346135 59:0.060837 60:-0.208849
-1 1:-0.907407 2:-1.108511 3:-1.113623 4:-0.530417 5:1.503569 6:1.577275 7:0.647626 8:-1.516168 9:1.611822 10:-0.692660 11:0.068743 12:-0.140615 13:-0.878936 14:0.513066 15:-0.492033 16:-0.386314 17:-1.286769 18:0.149854 19:0.719571 20:0.137284 21:-0.379756 22:0.291179 23:-0.457698 24:-0.981771 25:0.168012 26:0.299642 27:0.329817 28:0.343004 29:0.058324 30:0.530712 31:0.826418 32:0.894792 33:-1.787455 34:-0.336665 35:-0.869375 36:0.865498 37:0.748971 38:0.564105 39:-0.066419 40:-2.019430 41:1.077131 42:0.309416 43:-0.439238 44:0.742136 45:-0.628898 46:0.322284 47:-0.085740 48:-1.265068 49:-0.372583 50:2.499410 51:1.221737 52:-0.057547 53:0.388604 54:1.409691 55:-0.791430 56:-0.512052 57:-0.368420 58:0.614903 59:-1.083963 60:0.505132
-1 1:-0.345410 2:-1.287612 3:1.723352 4:-0.811631 5:-0.640131 6:0.992495 7:-0.579324 8:0.796318 9:-0.939677 10:-0.619916 11:0.807474 12:0.865646 13:0.609941 14:-1.341622 15:-1.161025 16:0.823689 17:-0.069653 18:0.316537 19:1.536551 20:-0.392927 21:-0.989037 22:-0.363578 23:-0.407194 24:-0.275599 25:-1.303292 26:-0.656909 27:0.477063 28:-0.659849 29:-0.331618 30:-0.496095 31:-0.306014 32:-2.266614 33:1.021591 34:-0.051393 35:2.306196 36:-0.689609 37:0.194912 38:-0.773825 39:-1.207461 40:-0.301628 41:0.498640 42:-1.143678 43:1.469359 44:0.494255 45:0.974369 46:1.406397 47:-0.416311 48:-0.023087 49:-2.326112 50:-0.161287 51:-0.487578 52:-0.814483 53:-0.343349 54:-0.328349 55:-0.518612 56:0.673620 57:0.648768 58:-1.109434 59:0.304315 60:1.145397
-1 1:-0.392596 2:0.276010 3:0.907252 4:0.141610 5:0.743950 6:0.311724 7:-0.408951 8:-1.379795 9:0.282882 10:-1.355448 11:1.971034 12:-2.185296 13:-0.530874 14:0.427898 15:1.355803 16:1.778503 17:-0.262120 18:1.429436 19:1.152928 20:0.365386 21:-0.689137 22:-0.024224 23:-1.746030 24:-0.523578 25:-0.264931 26:-0.748845 27:0.820933 28:0.147392 29:-0.823284 30:-0.023454 31:-0.023485 32:0.170304 33:1.565500 34:0.112384 35:-0.589134 36:1.551261 37:-1.575950 38:0.389795 39:-0.588220 40:3.005718 41:-1.171001 42:0.502626 43:0.689499 44:0.152104 45:-0.040532 46:0.870321 47:-0.549820 48:1.806736 49:-0.647624 50:0.656989 51:-0.579005 52:1.019260 53:-0.759655 54:-1.850284 55:2.175957 56:0.198456 57:0.066807 58:1.118000 59:0.050742 60:0.063737
-1 1:-0.292446 2:0.340341 3:-0.336488 4:0.704534 5:0.362334 6:0.936212 7:1.874858 8:-0.643865 9:2.214855 10:0.062899 11:-0.219386 12:-0.489473 13:-1.302328 14:-0.918630 15:0.244467 16:-0.240236 17:2.084388 18:-0.605846 19:-0.824385 20:0.188118 21:0.462212 22:-0.335668 23:-0.539466 24:-1.838192 25:-1.384591 26:-0.607722 27:0.667195 28:-1.146876 29:1.193567 30:0.396234 31:-0.483854 32:0.256384 33:-0.517173 34:0.965016 35:-1.518628 36:-0.558074 37:-0.592200 38:2.136884 39:0.494442 40:0.475947 41:0.816299 42:0.738621 43:0.075447 44:0.011252 45:0.739498 46:-1.185566 47:1.179468 48:-0.487147 49:1.208913 50:0.990709 51:-0.901371 52:-0.473610 53:-0.008482 54:0.634238 55:0.113898 56:-0.655781 57:1.266841 58:-0.571465 59:0.936719 60:0.808062
-1 1:-0.625488 2:-0.633404 3:1.023133 4:1.348491 5:-0.583497 6:0.448289 7:-1.042151 8:2.097477 9:0.414220 10:-1.484831 11:-0.719114 12:1.724675 13:-0.452744 14:1.134397 15:1.053847 16:-1.699298 17:-0.291656 18:1.340149 19:-0.532155 20:0.891719 21:1.832736 22:-0.680539 23:-0.661837 24:-0.214833 25:-0.373782 26:-0.176205 27:0.523099 28:1.705805 29:0.353741 30:-1.499416 31:0.399032 32:-0.071520 33:0.255722 34:-1.521929 35:-1.136367 36:0.940656 37:-0.285289 38:0.014004 39:1.503231 40:0.712749 41:0.327961 42:-0.311985 43:-0.019456 44:-0.024855 45:-0.965070 46:-0.584170 47:-0.376112 48:-0.452037 49:0.224340 50:-0.434064 51:0.739487 52:-1.873502 53:2.010432 54:0.294971 55:-0.056986 56:0.562592 57:-0.582431 58:0.917079 59:-0.497238 60:-0.936860
-1 1:0.647112 2:1.188341 3:0.182814 4:-0.285302 5:-0.440395 6:-0.400968 7:-0.125128 8:0.831264 9:0.203608 10:0.392525 11:1.002380 12:-1.742587 13:0.186844 14:1.106224 15:-0.928227 16:-1.025062 17:0.347937 18:-0.604558 19:0.943197 20:-0.913067 21:-0.748059 22:1.725736 23:-0.232787 24:-1.935587 25:-0.288443 26:1.085775 27:-0.086772 28:-0.986686 29:0.558916 30:1.036157 31:-0.066406 32:-0.795773 33:1.462345 34:0.643069 35:-0.600576 36:-1.896250 37:-0.136636 38:0.678886 39:0.324774 40:1.537661 41:0.824638 42:0.810725 43:0.598624 44:0.469730 45:0.053869 46:0.689095 47:-1.432978 48:1.202675 49:-0.786742 50:-0.384859 51:2.197617 52:1.182102 53:-0.584477 54:1.480137 55:-1.397882 56:0.584235 57:-1.103839 58:1.367966 59:1.140056 60:-0.462485
-1 1:-0.115037 2:-0.625795 3:1.859437 4:0.068577 5:-1.427173 6:0.181988 7:0.683058 8:-0.329535 9:-0.099426 10:1.234771 11:0.581973 12:-1.879019 13:0.754163 14:-0.803937 15:1.695751 16:0.479381 17:-1.595023 18:-0.576384 19:0.241181 20:-0.351574 21:1.835710 22:-2.156560 23:1.169489 24:-0.749960 25:1.062697 26:0.349092 27:-0.396997 28:0.954641 29:-0.617993 30:-0.119620 31:0.241825 32:0.191798 33:-0.023568 34:0.632813 35:1.132482 36:0.351522 37:0.791952 38:-1.167467 39:-0.386722 40:0.059058 41:-1.318583 42:0.488132 43:2.858390 44:0.133784 45:-0.522433 46:1.201476 47:-0.785021 48:-0.547517 49:0.434092 50:-0.197375 51:-0.291660 52:1.951719 53:-1.622381 54:0.155149 55:-0.578876 56:-0.826563 57:-0.408880 58:-0.409350 59:0.019825 60:-0.266686
-1 1:1.005134 2:-2.921297 3:0.784888 4:-1.758894 5:0.083080 6:0.429724 7:-0.049821 8:-0.809279 9:0.583380 10:1.539777 11:-0.644515 12:-0.842493 13:-1.233337 14:-0.920686 15:0.632096 16:2.310968 17:1.450039 18:-0.971602 19:-0.437514 20:0.361106 21:-1.263367 22:1.700775 23:-1.326316 24:-0.008079 25:-0.923500 26:0.691894 27:1.417512 28:0.528649 29:1.290253 30:-0.433979 31:-0.040306 32:0.546180 33:0.486800 34:0.594306 35:-0.105837 36:-1.272753 37:0.516606 38:-0.629692 39:-0.279079 40:-0.385976 41:0.493647 42:-0.856539 43:0.653375 44:-0.543355 45:0.504294 46:0.596520 47:0.670877 48:0.483558 49:0.917469 50:0.556122 51:1.103878 52:1.395301 53:0.891694 54:1.973320 55:-0.948638 56:-0.772810 57:0.353371 58:-1.893464 59:-1.746909 60:0.156226
-1 1:-0.820293 2:0.896833 3:-0.306939 4:-0.119110 5:0.124188 6:-0.171417 7:0.440623 8:0.808734 9:1.137367 10:1.192560 11:-1.155298 12:-1.504472 13:-0.967497 14:-0.394603 15:-1.039917 16:-1.765817 17:0.498777 18:-0.425504 19:-0.321956 20:0.965293 21:0.742984 22:-0.283767 23:-0.625828 24:-1.989674 25:-0.614716 26:1.772798 27:-0.171418 28:0.345018 29:0.729045 30:-0.497677 31:-0.967456 32:-1.164113 33:-0.880221 34:1.016672 35:-1.805063 36:-0.397596 37:0.124280 38:0.480522 39:-0.210819 40:-0.667098 41:-0.563048 42:-0.231365 43:0.739083 44:-0.806382 45:-0.111644 46:0.986562 47:0.003846 48:0.326098 49:-0.187026 50:-1.217992 51:1.176133 52:-1.506853 53:-0.357589 54:1.292210 55:-0.505045 56:0.162848 57:1.467347 58:-1.212315 59:-0.718625 60:-0.951021
-1 1:-0.457990 2:1.102898 3:0.567749 4:-0.063054 5:1.051902 6:0.426659 7:-1.609546 8:-1.860669 9:-0.972371 10:0.641362 11:1.260010 12:-1.682395 13:1.071953 14:1.529573 15:0.247199 16:1.489494 17:-1.816542 18:-1.503475 19:0.510969 20:-0.431927 21:-1.616233 22:0.396345 23:-0.260080 24:1.451449 25:-0.017559 26:1.742381 27:2.150237 28:-1.590471 29:-0.813738 30:1.688339 31:-0.765391 32:1.714000 33:-0.351377 34:-0.237498 35:-3.283615 36:-2.245867 37:-0.293527 38:1.050479 39:-0.103353 40:0.388807 41:0.718431 42:0.106283 43:0.197014 44:0.108188 45:0.550402 46:-0.122355 47:-0.670439 48:0.968846 49:0.161030 50:-0.099333 51:-2.548144 52:-1.234842 53:-0.492565 54:-0.810918 55:-1.376430 56:0.186458 57:-0.180116 58:-0.135587 59:-0.095473 60:-1.778618
-1 1:0.899664 2:0.795525 3:-0.701922 4:1.690624 5:-1.613628 6:-0.722592 7:2.273517 8:-0.077804 9:-1.140367 10:1.393893 11:-1.084380 12:-0.486970 13:0.571954 14:0.443457 15:0.520423 16:-0.982818 17:-0.518123 18:1.156227 19:0.731680 20:0.576235 21:0.773095 22:0.554667 23:-0.729556 24:-0.320491 25:-0.356076 26:2.488858 27:0.492797 28:-0.039511 29:0.911037 30:-1.021258 31:0.216542 32:0.643261 33:1.578080 34:0.832202 35:0.780189 36:-0.675525 37:-1.060535 38:0.443544 39:0.641034 40:0.482253 41:1.342725 42:0.641459 43:0.269567 44:-1.281683 45:-0.154080 46:1.296504 47:-0.220710 48:0.103704 49:-1.289117 50:0.201402 51:-2.189884 52:1.371843 53:0.184036 54:3.118017 55:-0.061894 56:-1.166673 57:-0.685554 58:-1.402317 59:-0.891014 60:0.819641
-1 1:-2.579129 2:-0.134089 3:1.113871 4:1.048362 5:-1.010729 6:1.305508 7:1.006890 8:2.113596 9:1.870326 10:-0.406908 11:0.604162 12:0.292754 13:-0.040229 14:0.236006 15:-0.036609 16:-0.095498 17:1.366180 18:-0.294115 19:0.120085 20:2.159331 21:0.053659 22:0.531984 23:1.170010 24:1.157393 25:-0.909577 26:-0.785734 27:-0.439747 28:-0.494439 29:-0.717443 30:-0.309172 31:-2.054342 32:0.849932 33:-0.854454 34:-0.734082 35:0.964075 36:1.410109 37:-0.213041 38:1.360840 39:0.379337 40:1.155323 41:-1.204961 42:1.487874 43:-0.755693 44:-0.092176 45:0.161528 46:-0.149333 47:1.306113 48:0.263850 49:-0.395196 50:1.344929 51:0.089025 52:-0.308074 53:-0.080740 54:1.536370 55:1.536080 56:-0.699580 57:-1.316203 58:2.371500 59:-0.639299 60:1.387640
-1 1:1.085492 2:0.083391 3:0.014535 4:-1.266619 5:-1.305369 6:0.869315 7:-0.494012 8:-0.765989 9:1.316970 10:-0.388940 11:-0.506383 12:-0.695168 13:-0.507497 14:-1.830325 15:-2.223919 16:-0.905203 17:1.615493 18:0.914804 19:-0.731356 20:2.363337 21:0.564219 22:-0.117227 23:-0.825046 24:0.683500 25:0.280476 26:0.370407 27:1.330602 28:1.519965 29:-0.203274 30:0.471284 31:2.492126 32:-1.333334 33:-0.902555 34:-1.093700 35:-0.038038 36:-0.210441 37:-0.284419 38:-0.413483 39:0.383849 40:0.376291 41:1.073147 42:0.538553 43:-1.581816 44:-0.408312 45:-0.169336 46:0.936209 47:-0.764595 48:0.229215 49:-1.218331 50:-0.150477 51:-0.091854 52:-0.003103 53:-1.045644 54:0.821471 55:-0.582282 56:-1.294721 57:-1.739714 58:-2.014565 59:-0.380357 60:-0.312037
-1 1:-1.664033 2:1.108688 3:1.051555 4:1.840754 5:-0.421934 6:0.053664 7:0.249230 8:-2.117731 9:0.155669 10:-0.012548 11:0.796962 12:-0.311180 13:0.320887 14:-0.207790 15:2.412358 16:0.274426 17:0.457850 18:1.638406 19:0.518471 20:-1.076691 21:-0.329389 22:-0.280895 23:0.168774 24:1.170453 25:0.707917 26:-0.125888 27:0.276165 28:-0.356307 29:-0.442581 30:2.761214 31:-0.932297 32:-0.835051 33:-0.443619 34:0.063580 35:0.248543 36:1.184924 37:0.138096 38:-0.464020 39:-1.291084 40:0.961399 41:0.717652 42:-0.364918 43:-0.059949 44:0.735299 45:0.689139 46:0.348891 47:1.558114 48:-1.944467 49:1.685809 50:-0.547323 51:-1.014795 52:0.082851 53:1.501817 54:0.291554 55:1.755065 56:-1.858035 57:1.386618 58:-0.448133 59:-0.190091 60:0.299288
-1 1:1.671217 2:2.413782 3:-0.393494 4:-0.864555 5:-0.234093 6:0.375806 7:1.259384 8:-1.332430 9:0.391989 10:0.760991 11:-1.344418 12:0.662038 13:1.741872 14:0.063017 15:-1.723998 16:0.576718 17:1.031435 18:-0.307917 19:0.181128 20:1.848505 21:1.301763 22:-0.956926 23:-0.776841 24:-1.385689 25:-0.331218 26:-1.805677 27:-3.146395 28:0.175115 29:-1.222352 30:-1.139918 31:-0.862607 32:0.336678 33:-0.014447 34:-1.009938 35:-0.588427 36:-1.125833 37:-0.759298 38:0.271571 39:0.066379 40:-0.503032 41:-1.112424 42:-0.081438 43:-1.569578 44:1.038064 45:0.307343 46:-0.193172 47:-0.664113 48:-0.320840 49:-0.166676 50:-1.515641 51:0.170647 52:0.045812 53:1.170117 54:0.167681 55:0.466417 56:-0.152018 57:1.061617 58:1.509225 59:-0.605859 60:-0.282507
-1 1:0.657493 2:-0.261473 3:-0.561959 4:1.067645 5:0.695403 6:0.480346 7:0.593049 8:0.342786 9:-1.897779 10:0.127189 11:0.860357 12:0.103791 13:0.150578 14:1.082550 15:-0.441464 16:1.360658 17:-0.000715 18:2.091441 19:0.223008 20:1.808667 21:-0.172713 22:0.607355 23:0.472377 24:0.369860 25:-0.424394 26:-0.252264 27:-0.524330 28:-1.240990 29:0.133380 30:-1.612997 31:1.716541 32:0.755580 33:-1.188140 34:0.606427 35:0.565808 36:0.029989 37:0.252353 38:0.511904 39:-1.018457 40:0.366393 41:0.081516 42:0.762271 43:0.185656 44:0.536706 45:0.024990 46:0.079660 47:-1.382954 48:0.103122 49:-0.848814 50:0.919315 51:-1.407492 52:-1.665816 53:0.129434 54:1.072283 55:-0.128842 56:0.650580 57:1.136118 58:0.560469 59:-1.320574 60:0.448972
-1 1:0.460661 2:-0.523452 3:-0.691519 4:-0.390769 5:-1.513614 6:-0.857607 7:0.420779 8:-0.051533 9:-0.825355 10:0.124044 11:0.493745 12:0.992848 13:1.935676 14:0.689901 15:0.881738 16:-0.568410 17:0.412618 18:-0.004568 19:-0.130288 20:0.517000 21:-0.100013 22:1.354512 23:0.961030 24:1.031290 25:2.567056 26:-1.180394 27:-1.398538 28:-0.195538 29:-1.006816 30:1.048558 31:0.289953 32:-0.035466 33:-1.375771 34:-0.991486 35:0.564044 36:-0.995490 37:-0.211552 38:-1.924802 39:-1.256418 40:-1.402118 41:-0.418890 42:-2.045725 43:0.433516 44:-0.817368 45:-0.658743 46:0.533629 47:-1.158217 48:0.226205 49:1.043704 50:-1.023263 51:-0.311008 52:-0.475318 53:2.020839 54:0.535414 55:-0.577040 56:-0.305121 57:-0.212520 58:0.368216 59:-0.679023 60:2.326953
-1 1:-0.221891 2:-2.132725 3:-0.282281 4:-0.279015 5:-0.544751 6:-0.113764 7:2.422195 8:1.789282 9:0.178377 10:0.928957 11:-1.225185 12:-2.432366 13:-0.526281 14:0.102445 15:-1.659311 16:0.800590 17:-1.520026 18:0.408182 19:0.822043 20:1.096772 21:0.324762 22:-0.071315 23:-0.225888 24:-0.435454 25:0.758901 26:0.608908 27:-2.019550 28:-0.187915 29:0.747208 30:0.389567 31:-0.436061 32:-0.090665 33:-0.857126 34:-0.674426 35:0.858869 36:0.028244 37:0.886160 38:-0.221746 39:1.848852 40:0.783730 41:-0.476646 42:-2.160837 43:-1.173269 44:-0.422097 45:-1.002594 46:-0.349179 47:0.486953 48:-0.193308 49:0.827940 50:1.251228 51:0.744374 52:0.246606 53:2.371385 54:0.282396 55:0.805570 56:2.204318 57:0.185710 58:-0.773117 59:-0.328404 60:0.010833
-1 1:-0.541409 2:-2.657228 3:-2.685051 4:0.006500 5:-0.785908 6:-1.510543 7:-0.297172 8:-1.086290 9:0.200150 10:0.970995 11:0.014239 12:1.073604 13:1.124624 14:-0.955356 15:-0.224233 16:0.167990 17:-0.948258 18:-0.938110 19:-0.788613 20:-0.037848 21:0.650889 22:-0.691852 23:0.855664 24:-0.436235 25:-0.527807 26:0.996939 27:-1.428730 28:0.605040 29:-0.072891 30:1.514069 31:-1.274560 32:-0.625410 33:0.637852 34:0.740312 35:0.811165 36:1.437283 37:0.427789 38:0.971904 39:0.351359 40:1.449776 41:-1.186419 42:-0.620344 43:-0.632448 44:-1.059308 45:0.734270 46:-0.136125 47:-1.514539 48:-0.245380 49:0.631709 50:0.404610 51:-0.587680 52:0.568302 53:-0.213789 54:0.547040 55:0.312995 56:1.697851 57:1.382404 58:1.004679 59:-0.640377 60:0.141180
-1 1:-1.275838 2:-0.812990 3:1.964759 4:0.535236 5:-1.389920 6:0.442678 7:-0.597949 8:2.560162 9:-1.374087 10:-1.950022 11:-0.186068 12:0.354137 13:1.133420 14:-0.000425 15:-0.772799 16:-0.661839 17:0.406355 18:-0.178984 19:0.352444 20:-0.400229 21:0.385699 22:-0.750956 23:0.616926 24:-0.599743 25:0.122640 26:1.241095 27:0.374005 28:0.117071 29:0.104232 30:-1.780250 31:-2.677735 32:1.588553 33:1.048943 34:0.482974 35:0.675148 36:0.262326 37:-0.503558 38:0.867415 39:-0.974079 40:0.344561 41:-0.212249 42:-0.440874 43:-0.392123 44:-0.053404 45:1.166231 46:1.402812 47:-0.459250 48:-0.055547 49:0.598909 50:-0.352116 51:0.441585 52:0.621366 53:1.144602 54:-1.245285 55:-1.525071 56:-0.454088 57:0.389604 58:-0.389468 59:-0.816593 60:-0.558788
-1 1:-1.086207 2:-1.199478 3:1.202911 4:-0.230440 5:-0.922795 6:0.911003 7:-0.745122 8:0.970194 9:-0.395348 10:-0.345661 11:-0.132766 12:0.462474 13:-0.234964 14:-0.817598 15:0.011971 16:-0.348243 17:1.469341 18:0.373388 19:1.387208 20:0.290766 21:-0.781825 22:-1.150525 23:0.073611 24:-0.375809 25:0.956330 26:-0.115319 27:-1.702298 28:-2.382411 29:0.062037 30:-0.233405 31:0.563328 32:1.223384 33:0.850144 34:-0.947361 35:-0.076028 36:3.508586 37:0.949147 38:-0.028298 39:1.941747 40:0.320992 41:0.142321 42:-0.460774 43:-0.058791 44:-0.894057 45:-1.511352 46:0.085541 47:-0.465345 48:-0.640234 49:-1.264572 50:1.000348 51:-0.854355 52:0.487836 53:1.161255 54:-0.454020 55:-0.215942 56:-1.572588 57:1.373590 58:-0.683417 59:0.888158 60:0.361499
-1 1:-0.501921 2:1.527455 3:0.406977 4:-1.445021 5:-0.509380 6:-0.907541 7:0.030307 8:0.846884 9:-1.125939 10:1.034826 11:0.698900 12:0.613005 13:-0.510625 14:-1.638864 15:1.644477 16:-1.141135 17:1.131664 18:-1.062308 19:-0.553686 20:-0.837839 21:0.220129 22:-0.992586 23:-1.893051 24:-0.738771 25:1.398794 26:-0.029222 27:-0.148754 28:-0.079932 29:0.744765 30:0.933962 31:0.661369 32:1.726346 33:-0.631006 34:-1.306659 35:0.167559 36:-0.258504 37:-1.636391 38:1.489558 39:0.099131 40:-1.784715 41:-0.040158 42:0.585729 43:-0.160724 44:-0.653847 45:0.175138 46:-0.099333 47:-0.762012 48:1.912278 49:-0.455607 50:0.389813 51:-1.547964 52:0.028624 53:-1.985912 54:-0.112065 55:1.097397 56:0.398730 57:-1.405791 58:-0.691759 59:0.176605 60:0.207580
-1 1:-0.528584 2:1.142410 3:-1.351763 4:-0.688579 5:-0.322804 6:-0.380302 7:-0.117491 8:0.469604 9:1.544250 10:0.375974 11:0.153899 12:0.419853 13:-0.032559 14:-0.468364 15:0.470702 16:-0.785329 17:0.816361 18:0.996352 19:-1.793591 20:-0.043741 21:-1.673957 22:1.275717 23:-1.643406 24:0.337586 25:1.349443 26:-0.072776 27:-1.977770 28:-0.617137 29:0.294738 30:1.340531 31:0.596508 32:0.394477 33:-1.049132 34:-0.845735 35:-0.191578 36:0.257866 37:-0.183001 38:-0.934843 39:-1.363093 40:0.115149 41:-0.710974 42:0.667991 43:-1.205706 44:-1.015023 45:-0.087319 46:-0.363902 47:-0.274774 48:-0.175874 49:-0.499719 50:-1.220845 51:-0.164296 52:0.627579 53:-0.057671 54:0.334168 55:-0.177865 56:-0.139828 57:-0.203442 58:0.828407 59:-0.516429 60:1.625937
-1 1:1.210672 2:0.569982 3:-1.645707 4:0.422913 5:-0.302286 6:0.332898 7:-0.009835 8:0.594101 9:0.713490 10:-0.214116 11:-2.396986 12:1.099114 13:0.612244 14:1.871445 15:0.015613 16:-2.189495 17:-0.785428 18:-1.110584 19:0.558882 20:1.030298 21:-0.591497 22:1.216418 23:0.535229 24:0.592457 25:0.788526 26:-1.251251 27:2.535922 28:-0.994364 29:0.249955 30:-0.521518 31:1.189397 32:-1.922648 33:0.443954 34:-0.772902 35:0.996650 36:-0.201114 37:-1.523049 38:-0.226208 39:-0.435589 40:-0.220951 41:-1.019345 42:0.975135 43:0.232979 44:-0.214436 45:0.913285 46:1.504251 47:0.143686 48:0.447691 49:-1.520212 50:0.191797 51:0.638461 52:-0.152323 53:0.060556 54:0.080709 55:0.246081 56:-0.322050 57:1.115640 58:2.251464 59:-0.704420 60:-1.306483
-1 1:0.351033 2:-2.093184 3:-0.687595 4:-0.678455 5:-0.678650 6:0.581350 7:-0.092316 8:-1.682496 9:1.176866 10:-0.161559 11:0.793072 12:1.189559 13:-0.809150 14:0.538672 15:-0.288590 16:1.936851 17:-0.383041 18:-0.681548 19:-1.233010 20:-0.212727 21:-0.880661 22:-0.052431 23:-0.138372 24:-0.215797 25:0.104101 26:1.633604 27:1.994288 28:2.262326 29:2.004174 30:-1.990763 31:0.319229 32:0.464516 33:0.251213 34:-2.109837 35:-1.707007 36:0.886751 37:0.844161 38:-0.288859 39:0.378496 40:1.418838 41:-0.920207 42:-1.999294 43:0.691040 44:0.231565 45:0.509434 46:-0.217576 47:-0.418560 48:-0.274493 49:-0.057475 50:-1.024887 51:0.585461 52:-0.500169 53:0.113851 54:-1.218209 55:-0.096909 56:0.163721 57:-0.011381 58:0.180548 59:-1.694643 60:-1.370442
-1 1:1.412308 2:-0.562331 3:-0.358607 4:-0.641646 5:-1.604362 6:1.121757 7:-1.038319 8:0.461538 9:1.231148 10:0.699673 11:-1.044651 12:-0.031072 13:0.828582 14:1.261950 15:0.514194 16:0.705003 17:0.769332 18:0.680833 19:-0.604352 20:-0.175481 21:0.540125 22:0.417377 23:1.411988 24:-1.330888 25:0.118946 26:-0.057979 27:-0.767281 28:-0.363074 29:-0.153661 30:1.250618 31:-1.251239 32:-2.171699 33:0.581742 34:-2.971119 35:0.860041 36:-0.556507 37:0.418485 38:1.159721 39:-0.771464 40:1.682756 41:0.598795 42:1.768644 43:-0.419959 44:0.141723 45:0.085900 46:-0.288274 47:-0.393906 48:-0.385124 49:0.630596 50:1.664074 51:-0.279745 52:1.129237 53:0.202437 54:0.346104 55:-0.505726 56:-0.683952 57:-1.793996 58:-0.318822 59:0.654992 60:-0.542105
-1 1:0.376221 2:0.161420 3:0.683412 4:-0.665720 5:0.099015 6:-0.651061 7:-1.139489 8:-1.121696 9:1.414622 10:0.399725 11:-0.047752 12:-0.107360 13:1.885799 14:-0.443364 15:0.235069 16:-0.286439 17:-0.598760 18:0.086325 19:-0.919134 20:-0.787441 21:0.149158 22:0.341846 23:0.301448 24:0.660354 25:-0.402995 26:2.459179 27:0.727385 28:0.262065 29:-2.273253 30:-0.495691 31:1.064781 32:0.092414 33:-1.449899 34:0.124647 35:-1.645749 36:0.101143 37:-1.732661 38:0.364125 39:0.851393 40:0.059906 41:0.473052 42:0.167072 43:0.753347 44:-1.501607 45:-0.310782 46:-1.476293 47:0.208129 48:-0.705058 49:1.962684 50:0.789811 51:-0.190395 52:-1.992960 53:0.811719 54:-1.247967 55:0.141366 56:0.544355 57:-0.953146 58:0.240006 59:-0.432192 60:-0.115014
-1 1:-0.113481 2:0.317888 3:-1.861099 4:1.198762 5:1.123739 6:-0.187253 7:0.479182 8:-0.149518 9:0.136562 10:-0.306395 11:1.348410 12:-0.923519 13:0.594104 14:-0.213636 15:0.028405 16:-0.712316 17:-1.149402 18:0.893720 19:-0.526252 20:1.192863 21:0.013121 22:-0.715764 23:-0.473052 24:1.349077 25:1.730607 26:2.218844 27:0.069493 28:0.229142 29:-0.531347 30:0.459769 31:-0.129065 32:-0.893517 33:-1.609031 34:-0.899423 35:0.910587 36:-0.699251 37:0.226938 38:-0.676288 39:0.768217 40:-0.591600 41:-1.057055 42:-0.009856 43:1.166117 44:0.466330 45:-0.312099 46:-1.170099 47:-0.113322 48:-1.049653 49:-1.837674 50:-1.835946 51:-0.265701 52:2.217858 53:1.075247 54:1.496664 55:0.135257 56:0.895338 57:0.345190 58:-0.244008 59:-0.938422 60:-0.801408
-1 1:-0.165786 2:-0.986035 3:-0.688959 4:-1.302865 5:-0.728297 6:-0.076428 7:0.456708 8:-2.180568 9:-0.340920 10:-0.806857 11:-0.136452 12:1.771678 13:-0.923709 14:-0.072195 15:2.032032 16:-0.830592 17:-0.721290 18:0.693067 19:0.271883 20:1.232999 21:-1.562725 22:0.161201 23:0.699078 24:0.775948 25:0.348748 26:0.411013 27:-0.108670 28:-0.354428 29:-0.222099 30:0.425154 31:-0.237073 32:-0.245015 33:-0.382828 34:-0.262373 35:1.366498 36:-0.293300 37:1.164072 38:0.978147 39:0.539290 40:-0.429193 41:-2.418198 42:0.364773 43:-0.897383 44:-0.208103 45:-0.956292 46:-0.411191 47:0.503713 48:-0.717402 49:-0.831111 50:0.627686 51:-0.063904 52:-1.156618 53:1.268173 54:0.429067 55:-0.894850 56:0.445732 57:3.333393 58:1.412265 59:-0.381936 60:-0.098275
-1 1:0.599370 2:-0.532483 3:0.223666 4:0.300023 5:1.173870 6:-0.459323 7:0.548474 8:-0.124099 9:-2.951511 10:-0.210217 11:0.036366 12:1.342673 13:0.524423 14:0.502738 15:-0.849363 16:0.198781 17:0.761927 18:0.840808 19:0.542087 20:0.633477 21:-0.147631 22:0.324884 23:-0.460912 24:-0.526773 25:-0.936285 26:0.309545 27:0.092512 28:0.125004 29:-0.285839 30:-0.628236 31:-0.142540 32:1.279245 33:1.194533 34:-0.592384 35:0.249675 36:0.620276 37:1.098954 38:0.046759 39:1.810496 40:-0.894956 41:-1.202158 42:2.099750 43:0.319163 44:0.710448 45:1.317995 46:-0.325638 47:2.392226 48:-0.065345 49:-1.063391 50:-1.066267 51:0.821155 52:-1.359158 53:0.715610 54:1.898692 55:1.908574 56:-0.709070 57:-0.657177 58:-0.157599 59:1.486420 60:-0.044674
-1 1:0.263603 2:-1.687372 3:0.673479 4:2.612033 5:-1.790908 6:0.313125 7:-0.143171 8:0.438269 9:-2.475413 10:-0.394042 11:1.709170 12:-0.866064 13:-1.865924 14:0.315802 15:1.271297 16:-0.800156 17:-1.580467 18:0.448728 19:-1.378506 20:0.501543 21:1.117569 22:0.523545 23:0.119594 24:1.248678 25:1.037253 26:-1.074042 27:-0.067032 28:2.407837 29:1.731897 30:0.276735 31:-0.358694 32:-0.550786 33:-0.591164 34:1.264949 35:0.123274 36:-3.066185 37:0.231908 38:1.902932 39:0.479932 40:0.406528 41:-0.750781 42:1.225805 43:-0.229985 44:1.446245 45:0.416940 46:0.310368 47:-0.010514 48:0.926952 49:-1.080316 50:0.585835 51:-0.195109 52:-0.229939 53:0.971779 54:1.224753 55:0.099967 56:-2.140050 57:0.618728 58:0.682466 59:1.438845 60:2.111025
-1 1:0.139941 2:0.551807 3:1.256132 4:-0.244412 5:0.451350 6:-0.566980 7:0.588997 8:-0.559087 9:2.084203 10:-0.401044 11:-0.754369 12:2.641206 13:-0.112193 14:1.238693 15:-0.767944 16:0.053550 17:0.286267 18:-0.068062 19:0.465851 20:-0.423878 21:-1.504857 22:-1.895320 23:-1.568256 24:0.611119 25:-0.730174 26:-1.003649 27:0.296270 28:0.240778 29:0.390693 30:0.030856 31:-1.086357 32:0.571792 33:-0.692177 34:0.259521 35:0.670744 36:0.911345 37:0.756028 38:-1.917648 39:-1.885930 40:0.465897 41:2.451080 42:0.350960 43:-0.118134 44:-0.110327 45:1.046456 46:-0.240934 47:0.473692 48:-0.793356 49:-0.246597 50:-0.882913 51:0.874855 52:-0.268999 53:0.797458 54:-0.236967 55:0.519595 56:0.149644 57:-1.696810 58:-0.918863 59:-1.593599 60:-0.875735
-1 1:-0.811966 2:1.707411 3:-0.009379 4:0.170954 5:-0.170420 6:0.103627 7:-1.623226 8:-1.476523 9:2.081842 10:0.042895 11:-0.522711 12:-0.469183 13:0.007950 14:0.738737 15:0.683119 16:0.575524 17:2.052815 18:-1.793895 19:-0.100745 20:-1.116139 21:0.439228 22:-0.309263 23:-0.170157 24:-0.720685 25:0.112488 26:0.403413 27:0.563443 28:-0.423246 29:0.582830 30:-0.608442 31:0.922758 32:-0.694065 33:-0.704697 34:0.230469 35:-1.202844 36:-1.033579 37:0.483003 38:0.666347 39:0.475026 40:0.346949 41:-1.143821 42:0.164870 43:-1.828725 44:-0.131727 45:-0.536584 46:0.655344 47:0.737385 48:-0.388310 49:0.833592 50:-0.345748 51:-0.073700 52:0.393482 53:0.056843 54:0.345082 55:-0.811712 56:0.247861 57:1.076198 58:0.730792 59:0.788617 60:-0.686476
-1 1:-0.730390 2:0.784505 3:-0.891683 4:0.495425 5:-1.051507 6:-2.221347 7:-1.648207 8:0.303182 9:-1.145235 10:0.286227 11:-0.740863 12:0.158069 13:-0.351965 14:2.489814 15:-0.643072 16:-0.268930 17:-1.033443 18:-1.047866 19:-0.474674 20:1.193544 21:0.953446 22:-0.305505 23:-0.027552 24:-0.027850 25:-0.646041 26:-1.368098 27:0.294333 28:0.129576 29:1.797805 30:-0.626420 31:0.948354 32:0.232159 33:-2.735171 34:-0.261230 35:-3.035162 36:-0.729434 37:-1.631374 38:2.905993 39:-0.995366 40:0.935097 41:-1.152994 42:0.016700 43:0.796107 44:-0.980067 45:0.447261 46:-0.930844 47:0.910388 48:-0.204884 49:1.608235 50:-0.104870 51:0.820943 52:-0.919928 53:0.326681 54:-1.694618 55:-1.332309 56:0.176149 57:-1.306821 58:1.584232 59:0.379512 60:0.803621
-1 1:-0.029366 2:-0.037521 3:-0.426571 4:-0.855028 5:1.671214 6:-1.228989 7:-0.357059 8:1.928015 9:0.051616 10:-0.741400 11:-1.604957 12:0.189054 13:0.180822 14:0.358444 15:-0.273988 16:-0.075843 17:1.249347 18:-2.141504 19:-0.079078 20:1.452386 21:-0.112372 22:1.408739 23:1.298053 24:-1.258839 25:0.670226 26:0.588587 27:0.895494 28:0.309909 29:0.889907 30:0.470014 31:1.226923 32:0.563530 33:0.144389 34:0.133435 35:-0.111662 36:1.979277 37:1.516072 38:-0.339069 39:-0.035055 40:0.200616 41:-1.339785 42:-0.592995 43:-0.017897 44:-0.481754 45:-1.340943 46:0.036815 47:0.356413 48:1.484141 49:-0.446234 50:-2.344292 51:0.142707 52:0.598419 53:0.535420 54:-0.260602 55:0.187972 56:0.968634 57:-1.222380 58:-0.661404 59:1.983888 60:-1.109893
-1 1:-1.294179 2:0.917544 3:-1.567875 4:0.402755 5:0.664131 6:0.088889 7:-0.392865 8:-1.231012 9:0.682628 10:0.706745 11:-1.185831 12:-0.484441 13:-0.178966 14:-1.214652 15:0.553142 16:-0.888590 17:-0.513928 18:-0.199720 19:-0.216248 20:0.580819 21:-0.465487 22:0.182141 23:1.948637 24:1.365180 25:0.357407 26:0.711000 27:-0.082926 28:0.014023 29:0.805300 30:-0.015088 31:0.587322 32:1.345256 33:-1.018014 34:0.354469 35:0.653843 36:1.023492 37:-0.982627 38:-0.852045 39:-0.295420 40:0.761090 41:1.026958 42:1.814607 43:0.530476 44:0.148469 45:0.406767 46:0.675227 47:-0.311169 48:1.452651 49:-0.739623 50:-2.265857 51:0.751496 52:-0.075133 53:-0.390760 54:-1.554837 55:-0.624535 56:2.245978 57:-0.099163 58:-0.777444 59:-0.466516 60:-0.729187
-1 1:0.838575 2:0.476848 3:-1.789219 4:-0.830822 5:2.653619 6:1.031407 7:0.030613 8:1.103893 9:-0.538245 10:0.559174 11:0.511814 12:-0.441404 13:0.605750 14:-0.810596 15:0.242895 16:0.063643 17:-0.359824 18:-1.892103 19:0.952086 20:-0.245497 21:0.219553 22:0.183494 23:-0.605609 24:-0.119694 25:0.262812 26:0.284183 27:-0.414136 28:-0.501858 29:1.243562 30:0.154461 31:1.406088 32:-0.085468 33:-0.807822 34:-2.186946 35:1.861053 36:0.257295 37:-0.628692 38:0.658622 39:-0.602640 40:0.516245 41:-0.455427 42:-0.791838 43:-0.299520 44:1.384153 45:2.623839 46:1.185840 47:1.226457 48:-1.565207 49:-0.076063 50:1.712009 51:-0.249111 52:0.887725 53:-0.997100 54:1.220369 55:-0.111298 56:-0.020783 57:0.965863 58:1.950697 59:0.198389 60:0.305413
-1 1:0.753956 2:-0.473611 3:0.479135 4:0.462082 5:0.362504 6:-0.916265 7:-0.009710 8:-0.889571 9:0.321685 10:0.693744 11:-0.635554 12:-1.273973 13:0.474252 14:-0.098921 15:1.026963 16:-1.277762 17:2.678798 18:3.605076 19:0.302100 20:0.087444 21:1.238161 22:1.036769 23:0.830790 24:-1.365766 25:1.233183 26:-1.588403 27:-0.906118 28:-1.579455 29:0.422160 30:-0.256494 31:-2.129236 32:2.185738 33:-0.132185 34:-0.905709 35:1.153626 36:-0.807861 37:-0.355691 38:-0.888236 39:0.191220 40:-0.504940 41:0.898901 42:-0.176532 43:-0.389755 44:-1.095915 45:2.406921 46:-0.528372 47:-0.884585 48:-0.938680 49:-0.590452 50:0.562429 51:-1.079426 52:-1.132160 53:0.508584 54:-0.765602 55:0.899715 56:-1.174949 57:0.082493 58:-2.003625 59:-1.584074 60:-1.315886
-1 1:1.006348 2:-1.382239 3:0.041865 4:1.549641 5:-0.928702 6:-0.237286 7:0.155972 8:0.748502 9:-1.060592 10:-0.471188 11:1.261203 12:0.016547 13:0.181653 14:-0.378094 15:-2.147060 16:-1.281543 17:0.432132 18:1.642242 19:1.604538 20:-1.326475 21:-0.134692 22:1.364958 23:-0.073107 24:0.959189 25:-0.875813 26:0.857252 27:-1.519954 28:-1.008864 29:-0.805784 30:-0.813483 31:0.191460 32:-0.392006 33:-0.428852 34:-0.525295 35:-0.634472 36:0.922123 37:0.444886 38:0.313409 39:-0.030844 40:0.430615 41:0.833703 42:1.247380 43:1.381619 44:-1.997872 45:-0.470295 46:1.364332 47:0.095240 48:-1.295073 49:1.216670 50:-0.338407 51:-1.898808 52:-0.619904 53:-1.125930 54:0.926396 55:-1.224083 56:-0.693660 57:0.559198 58:0.471376 59:0.681929 60:0.356618
-1 1:0.263033 2:-0.374382 3:0.668016 4:0.130478 5:-0.777774 6:-1.630482 7:1.678356 8:-0.127093 9:0.634325 10:-0.473421 11:0.745350 12:0.647468 13:0.716803 14:0.983008 15:-1.443332 16:1.109356 17:-0.254924 18:-0.257167 19:-0.795130 20:-1.775822 21:-0.481261 22:0.886842 23:1.493650 24:0.120345 25:1.457657 26:0.439343 27:-1.025617 28:0.534589 29:-0.821491 30:-0.680444 31:0.092310 32:-0.741846 33:0.848250 34:-0.285253 35:-0.371757 36:0.068979 37:0.768198 38:-0.615846 39:0.530676 40:-0.327099 41:-0.563896 42:-0.854208 43:-0.056219 44:-1.095745 45:-1.727334 46:-1.210753 47:-1.562472 48:2.533463 49:1.763515 50:0.362572 51:0.306332 52:0.950594 53:1.630544 54:-1.048693 55:1.460882 56:-1.354656 57:0.144323 58:-0.316292 59:-1.149210 60:0.622389
-1 1:-0.469775 2:-0.111872 3:-1.700731 4:-0.370251 5:0.614729 6:-0.560611 7:1.240309 8:0.175520 9:1.070253 10:-0.482069 11:0.124465 12:-0.056837 13:-0.453102 14:0.357879 15:1.706222 16:1.157963 17:-0.009821 18:0.550740 19:-1.156384 20:0.463099 21:0.797765 22:-0.835815 23:-0.279147 24:-0.412023 25:1.791414 26:-0.807754 27:1.272006 28:-0.213146 29:-0.507232 30:0.096215 31:1.738642 32:1.622043 33:0.042857 34:0.429439 35:-2.170574 36:0.314120 37:-0.210361 38:-0.972565 39:-0.444468 40:0.534725 41:-1.031826 42:-0.534612 43:1.202537 44:0.467215 45:-0.691905 46:0.882378 47:0.045772 48:-0.293330 49:0.768624 50:-0.400817 51:0.812413 52:0.906717 53:-0.886238 54:-0.133194 55:0.466507 56:-1.692746 57:-0.289182 58:-1.527473 59:0.264549 60:0.724390
-1 1:1.430880 2:0.994917 3:0.733409 4:-0.605465 5:-0.849748 6:-0.412451 7:-0.121176 8:0.508286 9:-1.649524 10:-2.204067 11:-1.972184 12:0.716456 13:0.022603 14:0.646777 15:0.193066 16:0.007863 17:0.487642 18:-0.771028 19:-0.951216 20:0.124076 21:-0.872331 22:-1.468373 23:0.683469 24:-1.321542 25:0.233105 26:0.736201 27:0.381302 28:0.735113 29:-0.658058 30:-0.436192 31:0.849178 32:-1.988103 33:0.338261 34:0.665835 35:-0.354010 36:-0.822673 37:0.304441 38:0.053815 39:-1.587660 40:0.020074 41:-1.092063 42:-1.227142 43:-0.535857 44:-0.426889 45:0.346629 46:0.991327 47:1.525458 48:0.314205 49:1.183059 50:-0.901465 51:0.061794 52:0.665671 53:-0.745960 54:0.625772 55:-0.446258 56:-0.506386 57:0.255255 58:-1.382179 59:-1.370734 60:-1.687688
-1 1:0.810493 2:-0.771445 3:1.452228 4:0.083673 5:-1.168310 6:-0.024730 7:0.443794 8:1.360867 9:-0.492944 10:-1.667910 11:-0.867997 12:-0.023272 13:1.313706 14:2.215300 15:-0.404549 16:-0.603686 17:0.446481 18:0.663016 19:0.661174 20:0.200313 21:-0.371564 22:0.159406 23:-0.404057 24:0.199532 25:-0.138014 26:0.609529 27:1.839682 28:1.699474 29:-0.041793 30:-2.101989 31:0.976473 32:-1.518384 33:-0.857395 34:1.231574 35:-0.357514 36:-0.588914 37:0.523785 38:-1.598186 39:-0.511172 40:-1.657984 41:-0.050525 42:-1.271509 43:1.456959 44:1.374167 45:0.552124 46:0.547706 47:2.247725 48:-1.191619 49:-0.645786 50:0.821805 51:-1.230235 52:1.150099 53:-1.618328 54:0.856718 55:1.454684 56:0.369113 57:-0.439074 58:-1.649072 59:2.326800 60:1.414596
-1 1:-0.758065 2:0.055431 3:1.543422 4:-1.689641 5:1.261430 6:1.257449 7:-1.216143 8:0.812810 9:-0.034720 10:1.741669 11:-0.953336 12:-0.615340 13:-0.699394 14:-0.828129 15:0.394053 16:-1.349483 17:-1.298038 18:0.049846 19:1.017861 20:0.298488 21:0.638792 22:-1.039359 23:-1.184375 24:-0.379912 25:0.031433 26:0.502039 27:0.457956 28:-1.415315 29:1.893218 30:0.758515 31:1.017630 32:-1.714505 33:-1.702567 34:-1.002820 35:-0.971616 36:0.052000 37:0.256939 38:-0.279419 39:-0.425886 40:-0.142061 41:1.015724 42:-1.213369 43:-0.506565 44:0.680286 45:-1.317721 46:0.455568 47:0.194033 48:1.755428 49:-0.256478 50:-0.113182 51:0.524731 52:0.224835 53:0.150080 54:1.237741 55:-0.085942 56:1.752888 57:-1.475260 58:-2.241200 59:0.206987 60:2.090737
-1 1:-1.430174 2:1.011336 3:0.795555 4:0.543209 5:1.755227 6:0.196839 7:0.791718 8:1.095275 9:0.601426 10:0.043165 11:0.381189 12:0.922578 13:0.799579 14:-0.397369 15:0.572237 16:-0.856240 17:0.049647 18:0.327734 19:-0.371221 20:0.942784 21:1.162134 22:0.219715 23:0.074777 24:-0.042105 25:-1.603740 26:0.021880 27:-1.081162 28:-0.910620 29:-2.119939 30:-1.360492 31:0.217053 32:1.139942 33:-0.459168 34:-1.551116 35:-0.142561 36:1.211998 37:-0.122704 38:-0.879710 39:0.414188 40:2.026745 41:-1.277882 42:-1.074098 43:-1.043567 44:0.750258 45:-1.402262 46:0.483731 47:0.967669 48:-0.192801 49:0.045298 50:0.694926 51:-1.156728 52:-0.567485 53:-0.819831 54:-2.339449 55:1.635750 56:-0.444747 57:0.164764 58:-0.010896 59:1.930587 60:2.612419
-1 1:-1.836366 2:-0.406724 3:-0.769625 4:0.913408 5:-1.049580 6:0.547138 7:-1.569637 8:1.059200 9:-0.520676 10:-1.564900 11:1.582046 12:-0.885296 13:1.576903 14:0.734793 15:-0.555902 16:-1.533630 17:1.811851 18:0.262891 19:-0.540133 20:-0.618470 21:1.512182 22:0.430005 23:-0.795931 24:1.095589 25:-1.325162 26:0.491725 27:-0.102306 28:-0.232534 29:-0.886177 30:-0.291508 31:-0.756871 32:0.470184 33:-0.995963 34:0.950085 35:-0.844928 36:0.477023 37:0.880755 38:0.542840 39:0.118224 40:-0.758489 41:-1.174022 42:-1.759985 43:-0.008129 44:0.727927 45:0.987212 46:-0.806432 47:-0.035044 48:1.303582 49:2.245230 50:1.727611 51:0.290571 52:-0.095626 53:-0.806069 54:-0.540867 55:0.883060 56:1.678877 57:0.997987 58:-0.390768 59:-1.813134 60:0.823309
-1 1:-0.109938 2:-0.068363 3:-1.107703 4:-0.134006 5:-1.284006 6:0.003295 7:-0.381940 8:-0.438369 9:-1.127315 10:1.595850 11:1.663483 12:-0.400845 13:2.325001 14:1.566504 15:1.526421 16:-0.851083 17:-0.375720 18:-1.599909 19:0.653433 20:-0.686350 21:0.314603 22:0.858195 23:1.256195 24:0.166433 25:0.277996 26:-0.025661 27:0.991214 28:-0.875142 29:0.082178 30:-0.144507 31:-0.663170 32:-1.096555 33:-0.165846 34:-0.101146 35:0.752375 36:-0.792794 37:-0.096082 38:1.006092 39:-0.187880 40:0.221335 41:-0.516162 42:-1.280397 43:1.336228 44:-0.477850 45:0.356509 46:-1.108804 47:0.124761 48:-0.493596 49:-0.127119 50:1.550919 51:-0.793679 52:1.157809 53:0.144642 54:-0.709001 55:1.811127 56:0.902346 57:-0.631713 58:1.265141 59:-1.661154 60:1.743978
-1 1:2.205978 2:0.302364 3:-0.088282 4:-0.087988 5:1.737171 6:0.964084 7:-0.411013 8:0.315869 9:-0.688618 10:-0.924307 11:1.382378 12:0.744427 13:-0.138440 14:-0.096805 15:-0.069741 16:0.539249 17:0.661924 18:-0.042284 19:-1.279202 20:-2.091036 21:0.370343 22:1.415191 23:-0.967490 24:-0.107934 25:2.197310 26:-0.175023 27:1.001591 28:0.583553 29:-1.787963 30:-0.004817 31:-3.171385 32:0.796846 33:-1.082037 34:-0.690745 35:-2.816934 36:-0.324803 37:-0.020193 38:0.664179 39:-0.700963 40:-0.927826 41:-0.802083 42:0.202322 43:-0.476486 44:0.890427 45:-0.204360 46:0.428274 47:-0.367077 48:0.656980 49:0.820400 50:0.524118 51:1.590416 52:-2.307576 53:0.116896 54:-1.368780 55:-3.486705 56:-0.740307 57:0.176601 58:-0.311215 59:-0.161894 60:0.830670
-1 1:-0.201830 2:0.254785 3:-0.223876 4:0.737202 5:0.210202 6:0.451907 7:1.293193 8:0.746535 9:0.764755 10:-1.010824 11:-0.819491 12:-0.549554 13:-1.933032 14:0.459022 15:1.475571 16:-1.870010 17:-0.672766 18:0.573575 19:-0.456080 20:-0.728936 21:-0.408740 22:0.588690 23:0.011590 24:-0.395773 25:0.298416 26:-0.327548 27:-0.547747 28:-0.938188 29:1.162956 30:0.778262 31:2.167050 32:-0.164452 33:0.510574 34:1.102635 35:-0.175778 36:0.331373 37:1.003698 38:-0.999286 39:-0.400032 40:-1.065529 41:0.848383 42:0.365105 43:-1.401881 44:0.532120 45:0.651621 46:-0.047054 47:-2.157737 48:0.912593 49:0.843039 50:0.535493 51:-0.186837 52:-0.678882 53:0.759971 54:-2.150310 55:0.623415 56:0.142871 57:-0.849438 58:1.046274 59:-0.806272 60:-1.558707
-1 1:-0.757086 2:-0.360841 3:0.066270 4:-0.345591 5:1.053931 6:0.587356 7:-0.031463 8:1.409082 9:1.803558 10:-0.151205 11:0.422694 12:-0.758520 13:-0.010571 14:-1.579276 15:0.119447 16:1.022349 17:1.383470 18:-1.764797 19:-0.496083 20:1.103424 21:-0.152663 22:-1.214930 23:-0.546835 24:-0.666108 25:0.123224 26:-0.991902 27:-0.070823 28:3.590443 29:0.608759 30:0.354910 31:-1.283755 32:1.882102 33:-1.963157 34:0.315744 35:0.937425 36:0.916150 37:-1.204554 38:0.747052 39:-1.083145 40:0.067196 41:2.237619 42:-1.960819 43:-0.648748 44:0.862582 45:-0.914370 46:1.251393 47:0.305927 48:-0.050028 49:0.052507 50:-0.493615 51:-1.583819 52:-0.310494 53:-1.032160 54:-1.285739 55:1.773731 56:-0.959164 57:0.568983 58:-1.119447 59:-0.185675 60:0.274693
-1 1:0.540931 2:-0.604631 3:-0.491824 4:0.672865 5:-0.992184 6:-0.522168 7:-0.434394 8:-0.521085 9:1.530002 10:-1.165502 11:-0.437169 12:-0.777786 13:-0.086428 14:-1.433342 15:0.435755 16:-0.382070 17:-1.614135 18:-0.027303 19:-2.047338 20:-0.198726 21:-0.735932 22:1.550521 23:-0.796292 24:0.799992 25:0.759519 26:-1.011340 27:0.838816 28:0.396750 29:-0.020730 30:-1.119985 31:-0.242553 32:-0.376231 33:0.196175 34:0.555071 35:1.764299 36:0.498808 37:0.493639 38:0.390671 39:-0.604976 40:1.412096 41:-0.604897 42:1.133632 43:-0.484930 44:-1.374241 45:0.701268 46:0.248364 47:-0.285451 48:0.761147 49:-1.114522 50:-1.732983 51:1.589561 52:1.567852 53:-0.049211 54:2.003521 55:0.244766 56:-1.308301 57:-0.157710 58:1.793926 59:0.893745 60:0.202026
-1 1:-0.357958 2:0.879632 3:0.266771 4:0.875145 5:0.705306 6:0.327353 7:-1.740389 8:0.526645 9:0.574979 10:-1.505459 11:-0.741503 12:0.294552 13:-0.140455 14:-0.139765 15:1.688702 16:-0.621658 17:0.634900 18:-1.383107 19:0.633497 20:-1.785459 21:-0.430253 22:1.025165 23:0.867371 24:-0.490965 25:0.359572 26:0.626598 27:0.921247 28:-0.681269 29:-0.633078 30:-1.379508 31:0.425930 32:0.847313 33:-1.044473 34:-0.581817 35:-1.040381 36:0.778136 37:-1.402105 38:-0.812285 39:1.575491 40:-0.786924 41:2.498799 42:-0.094034 43:0.633329 44:0.512925 45:-1.391952 46:-0.207870 47:2.203700 48:1.039176 49:-0.717538 50:-1.276494 51:-0.409509 52:0.715600 53:0.881142 54:-0.679103 55:0.592974 56:-1.710785 57:-0.483650 58:-0.966901 59:0.718564 60:-0.788044
-1 1:1.711255 2:0.497705 3:-0.154571 4:2.009494 5:-0.494448 6:-0.206119 7:1.163019 8:-1.207459 9:0.291506 10:2.540858 11:0.308456 12:-2.064539 13:-0.359073 14:-1.961438 15:0.516127 16:0.251053 17:-0.840459 18:0.502530 19:-0.262338 20:-1.286652 21:0.525838 22:0.034707 23:-0.382092 24:-2.231560 25:0.992654 26:-0.615219 27:-0.165514 28:0.835316 29:0.780071 30:0.129662 31:-0.062282 32:0.109544 33:1.415993 34:2.392242 35:-1.061599 36:0.435590 37:-0.632122 38:1.392931 39:0.442385 40:0.676134 41:-0.656540 42:0.445872 43:-0.110415 44:-0.622193 45:-2.485734 46:-0.126141 47:-0.889879 48:-0.844972 49:1.023547 50:-0.249347 51:0.079221 52:-1.152603 53:1.995734 54:-1.203873 55:0.066701 56:0.009921 57:0.912027 58:-2.127826 59:1.322660 60:-1.714092
-1 1:1.151063 2:-0.739583 3:0.817590 4:-0.436983 5:0.474522 6:-0.034618 7:-1.387005 8:2.244975 9:-0.195027 10:-0.579427 11:-0.240822 12:-0.807349 13:-0.676236 14:-0.070191 15:0.244441 16:-1.913418 17:1.865433 18:-1.256999 19:-1.162278 20:0.880834 21:-0.232683 22:-2.888516 23:0.225428 24:1.068817 25:-1.461258 26:-0.210251 27:-1.412111 28:-0.287949 29:-0.203172 30:-0.575720 31:-0.163139 32:-2.034972 33:-0.466695 34:-1.341397 35:0.659418 36:-2.221754 37:-0.480106 38:0.629394 39:-0.135470 40:0.286589 41:-1.059651 42:0.565231 43:0.325315 44:0.749065 45:0.111059 46:-1.306887 47:-1.677064 48:1.860131 49:0.095491 50:-0.273738 51:0.741981 52:-0.868321 53:1.890856 54:-1.433381 55:1.310184 56:-0.234213 57:0.249267 58:0.929448 59:0.063571 60:1.736391
-1 1:-1.731030 2:-0.772805 3:-0.143385 4:0.359392 5:-0.441050 6:-1.109940 7:-0.504221 8:0.047906 9:0.986461 10:0.438735 11:0.490397 12:0.051045 13:1.734106 14:-0.615853 15:0.526013 16:1.738022 17:-0.330142 18:-0.557478 19:-1.691608 20:-0.613523 21:0.763134 22:-0.651107 23:-0.899741 24:-0.965702 25:-0.346207 26:0.038161 27:0.004542 28:0.094131 29:1.617780 30:1.243067 31:0.004134 32:1.416079 33:-0.952604 34:1.321736 35:1.642089 36:-0.038860 37:-0.231126 38:-1.070068 39:-1.417557 40:-0.093837 41:0.281855 42:-0.345576 43:-0.195196 44:0.495428 45:-0.014978 46:1.091573 47:0.899074 48:-0.280551 49:0.652458 50:-2.279041 51:-1.102833 52:-0.278664 53:-1.235441 54:2.147992 55:-1.251175 56:0.282044 57:-0.589949 58:-1.433528 59:1.594369 60:-0.939249
-1 1:-0.213224 2:0.121865 3:-0.360064 4:0.332335 5:-1.181137 6:1.030175 7:-0.056772 8:-0.599362 9:-0.086820 10:-2.526614 11:0.195258 12:0.972873 13:0.548086 14:-0.297275 15:-0.374067 16:-0.645581 17:-0.230600 18:0.427739 19:1.554893 20:-1.295643 21:1.654779 22:1.781569 23:-2.976257 24:0.187120 25:1.644938 26:-1.615375 27:-1.522531 28:-0.153958 29:0.672961 30:0.227052 31:-0.392719 32:-0.910302 33:0.578330 34:-0.284481 35:-1.828936 36:-1.227054 37:-0.645455 38:-1.231537 39:-0.823731 40:-0.367220 41:0.806017 42:-0.509154 43:-0.989425 44:0.987565 45:-0.270876 46:-0.086573 47:-0.719960 48:-0.062632 49:1.809881 50:0.207516 51:-2.342037 52:-0.497021 53:-1.338827 54:-1.195682 55:-1.069644 56:0.049872 57:-0.818369 58:-0.539007 59:0.099468 60:-0.292037
-1 1:0.643891 2:1.242159 3:-0.131261 4:-0.904094 5:-0.341112 6:2.350081 7:-0.078056 8:0.886691 9:0.276821 10:0.824659 11:-0.187149 12:1.022536 13:0.461002 14:-0.340790 15:-0.441330 16:1.686267 17:-0.821845 18:-0.757384 19:-0.370427 20:0.709351 21:1.844609 22:-1.003445 23:-0.282614 24:1.193324 25:-1.217142 26:-0.786077 27:0.245383 28:0.291689 29:1.483996 30:0.380082 31:0.404233 32:0.527231 33:1.870187 34:1.233469 35:0.770835 36:0.344474 37:1.188257 38:0.259269 39:1.817767 40:-0.406697 41:0.233361 42:-1.478195 43:0.096330 44:1.215353 45:0.210270 46:0.768138 47:-1.900041 48:0.492900 49:-2.208882 50:0.213289 51:0.100180 52:-1.050840 53:0.379998 54:1.274488 55:0.525964 56:-0.335638 57:-0.861614 58:-0.301175 59:1.713588 60:-0.567905
-1 1:0.097437 2:1.091098 3:-0.245370 4:-0.493088 5:-0.121422 6:1.088267 7:-0.530860 8:0.369819 9:1.247838 10:-0.413780 11:-0.923696 12:-0.340878 13:-0.155947 14:-0.653850 15:0.527784 16:-0.897499 17:0.699790 18:0.871922 19:-1.690808 20:0.427218 21:0.396361 22:0.709794 23:-1.836809 24:-0.235658 25:1.399579 26:-0.098721 27:0.534752 28:0.169202 29:0.471821 30:1.926863 31:0.425902 32:0.610715 33:0.617699 34:0.602287 35:0.173507 36:-0.970449 37:0.364185 38:0.734859 39:1.537926 40:-0.905153 41:2.017173 42:-1.075007 43:-1.474228 44:1.578721 45:-2.493973 46:0.716312 47:0.291982 48:0.487883 49:0.553566 50:-0.306588 51:0.569881 52:2.042771 53:1.686712 54:-0.138438 55:-2.651907 56:0.817936 57:0.171340 58:-0.621776 59:-0.119381 60:-1.602675
-1 1:0.909633 2:0.251178 3:1.416086 4:-1.033481 5:2.059715 6:0.554807 7:-0.214546 8:-2.272029 9:1.560432 10:0.353419 11:0.117142 12:1.735380 13:1.811916 14:0.859689 15:0.995303 16:-1.172826 17:0.952059 18:1.643005 19:0.137461 20:0.220717 21:-0.203681 22:0.041444 23:0.221390 24:0.971001 25:-0.590346 26:-0.692526 27:0.049622 28:-0.301641 29:-0.658898 30:-1.611246 31:0.388837 32:-1.110907 33:-0.578219 34:0.217843 35:1.555141 36:1.093277 37:0.744653 38:0.610641 39:0.584931 40:-0.155470 41:0.136079 42:-1.108425 43:0.483107 44:-0.816381 45:-0.853463 46:-0.907887 47:0.528107 48:1.374886 49:-1.003378 50:0.192193 51:1.175464 52:-1.710820 53:-0.135650 54:-2.180786 55:-0.549735 56:-0.564793 57:0.343310 58:1.354569 59:2.379930 60:-0.018192
-1 1:0.418260 2:-1.145023 3:-0.617112 4:-0.710860 5:0.577465 6:-0.090626 7:0.396327 8:0.919497 9:2.073885 10:-0.399772 11:0.039328 12:-1.296838 13:0.819129 14:-0.285817 15:0.518424 16:1.666017 17:0.764469 18:-0.690415 19:-0.632966 20:-0.908905 21:-0.385213 22:-1.567843 23:0.860580 24:-0.385808 25:-1.201044 26:1.632980 27:-1.044775 28:-1.287928 29:0.084817 30:0.437492 31:-2.787090 32:-0.222266 33:0.508599 34:0.552234 35:-0.886982 36:0.192838 37:-1.815408 38:-0.483136 39:-0.079618 40:-1.160593 41:0.248033 42:-0.555391 43:-1.186430 44:-0.969551 45:0.561930 46:-1.485149 47:0.637038 48:-0.109361 49:-2.071944 50:-0.166670 51:0.832437 52:1.345550 53:0.499767 54:-0.146210 55:1.452160 56:0.116064 57:-0.525571 58:0.612574 59:-0.822510 60:-0.554029
-1 1:-2.033221 2:-1.603712 3:-0.793788 4:-2.123023 5:-0.778269 6:0.296190 7:-1.487947 8:0.950098 9:-0.055114 10:2.044911 11:0.591725 12:0.576582 13:0.396430 14:2.015618 15:-1.725052 16:-1.396437 17:-1.154506 18:-0.818786 19:-0.980540 20:0.909816 21:0.037944 22:0.266626 23:0.355146 24:-1.001665 25:-0.007141 26:1.960782 27:-0.094655 28:-2.172223 29:0.984023 30:0.413793 31:-0.957784 32:0.197607 33:-0.354113 34:0.175321 35:-0.080590 36:-0.496962 37:-1.018932 38:0.960170 39:-0.737085 40:-1.162735 41:0.696509 42:0.347226 43:-0.309037 44:1.317993 45:-0.858111 46:0.334639 47:-1.272269 48:1.221823 49:1.490309 50:-1.490723 51:0.745285 52:1.114357 53:0.336764 54:0.993594 55:-1.879690 56:2.303130 57:1.586135 58:-0.115576 59:-0.115165 60:1.784370
-1 1:0.893849 2:-0.653058 3:2.464527 4:0.315917 5:-0.520958 6:-0.125737 7:-0.032037 8:1.117061 9:0.169676 10:0.012781 11:0.388261 12:0.648046 13:-0.343053 14:-0.528989 15:0.007636 16:-0.635778 17:-0.986552 18:1.151743 19:-0.446925 20:-0.176139 21:1.174808 22:-1.522323 23:-0.087697 24:-0.560970 25:-1.289078 26:-0.415635 27:1.269262 28:0.822438 29:-0.061077 30:1.688434 31:0.629343 32:0.799404 33:-0.385610 34:1.895393 35:-0.654434 36:-0.175598 37:0.129147 38:0.378461 39:-1.778111 40:0.258325 41:-0.420959 42:0.253150 43:0.254727 44:-0.056383 45:-1.349934 46:0.889019 47:-0.841919 48:0.873859 49:0.007633 50:-0.400108 51:-1.392803 52:0.744386 53:1.348061 54:0.976868 55:-0.837417 56:0.092694 57:1.072556 58:-0.269352 59:-0.167975 60:-0.254850
-1 1:-0.474478 2:-0.695819 3:0.965093 4:0.643616 5:-1.392922 6:1.191877 7:1.638600 8:0.126463 9:-0.925586 10:0.186913 11:-1.200350 12:1.199715 13:-0.345190 14:0.536610 15:0.607734 16:0.360508 17:-0.395677 18:0.109744 19:0.596141 20:0.980001 21:-0.579638 22:-1.020352 23:0.469243 24:-0.195735 25:0.227516 26:-0.572734 27:-0.662418 28:0.356676 29:0.906091 30:-0.067788 31:-0.215605 32:0.133998 33:0.035944 34:-0.131541 35:0.436558 36:-0.843513 37:-0.493360 38:0.152457 39:0.612524 40:0.195274 41:0.397710 42:0.284327 43:-0.106260 44:0.572054 45:-0.947672 46:-0.533660 47:-0.930439 48:1.048214 49:0.531185 50:0.636030 51:-1.556236 52:1.120989 53:-0.091392 54:-0.833426 55:0.521143 56:-0.452645 57:-0.711695 58:2.433088 59:-0.273964 60:0.994747
-1 1:-1.348076 2:-2.392711 3:-0.302529 4:-0.512911 5:0.989639 6:0.018227 7:1.542635 8:-0.917917 9:-0.299240 10:1.623089 11:0.286075 12:0.724148 13:0.307819 14:0.742116 15:0.930299 16:-1.125753 17:0.206406 18:1.502232 19:-0.307569 20:0.320189 21:-1.245919 22:0.471864 23:-0.782226 24:-1.589290 25:1.242276 26:-0.592744 27:0.035961 28:1.497762 29:-0.280843 30:0.938931 31:0.757416 32:1.445324 33:1.344628 34:1.341418 35:0.402133 36:-0.034278 37:1.027676 38:-0.089831 39:-0.230353 40:0.200104 41:0.294236 42:1.501855 43:0.255515 44:-1.065771 45:-0.019086 46:-0.590262 47:0.659022 48:-1.404756 49:-2.022911 50:0.359233 51:-1.139452 52:1.733661 53:1.253366 54:-0.477201 55:0.491512 56:-0.886097 57:-0.557515 58:0.589438 59:0.555364 60:-0.534447
-1 1:-1.386681 2:-0.855942 3:1.444582 4:1.021350 5:1.235857 6:2.197053 7:1.120845 8:-0.225940 9:1.593920 10:-0.293453 11:-2.808914 12:-1.115507 13:-0.229849 14:0.458994 15:0.484026 16:0.531301 17:0.721912 18:0.650332 19:0.715413 20:0.618385 21:0.039973 22:2.106415 23:0.811411 24:0.321362 25:1.571403 26:0.067799 27:0.477646 28:1.789120 29:1.196232 30:-0.557149 31:-0.040686 32:-0.250170 33:-0.646550 34:1.428930 35:-2.013557 36:-0.553816 37:-0.744836 38:1.557465 39:-1.268862 40:-2.012222 41:1.166827 42:0.136898 43:-0.219943 44:-0.741992 45:-0.170610 46:-0.977124 47:1.285265 48:0.096082 49:-0.595488 50:1.020896 51:0.614813 52:-0.186414 53:0.834621 54:-1.217751 55:1.031679 56:0.952402 57:1.442941 58:0.639163 59:-0.261768 60:-1.137577
-1 1:0.743906 2:1.505430 3:-0.522380 4:-0.768244 5:0.583615 6:1.514607 7:0.153023 8:-0.094804 9:1.421135 10:-0.090408 11:1.182905 12:1.017834 13:0.646724 14:0.765961 15:-0.608021 16:0.464090 17:0.471632 18:1.028294 19:0.145164 20:-1.048756 21:-0.489547 22:0.079191 23:0.867154 24:0.051025 25:-0.613393 26:-1.696043 27:-0.150446 28:1.830692 29:1.729028 30:0.140094 31:-0.086221 32:0.554333 33:1.254428 34:-0.790527 35:1.074888 36:0.357749 37:-2.701523 38:1.425723 39:0.469997 40:0.939983 41:1.548182 42:-2.426795 43:-0.676690 44:-0.060453 45:0.539980 46:-0.180673 47:2.340271 48:1.235416 49:-0.029510 50:1.620403 51:-0.390616 52:-0.939477 53:1.235244 54:-0.124871 55:-1.036597 56:0.322820 57:-1.498231 58:1.171834 59:0.571031 60:-0.807689
-1 1:-0.934784 2:1.516120 3:0.009581 4:1.330315 5:1.292438 6:-1.076390 7:0.136274 8:0.820438 9:-1.300417 10:-1.624285 11:-0.319467 12:0.467781 13:0.576628 14:0.140684 15:-1.465708 16:-0.832029 17:0.006756 18:-0.794568 19:0.195097 20:-1.344095 21:1.281150 22:-1.253211 23:1.755433 24:0.473138 25:0.261914 26:-0.625792 27:0.628540 28:0.834534 29:0.232280 30:0.149693 31:-0.364512 32:1.255618 33:-0.016254 34:0.307246 35:-0.247659 36:1.370878 37:0.046899 38:-0.682382 39:0.935231 40:-0.364083 41:-0.377136 42:0.384322 43:-0.025044 44:-1.009828 45:-1.778225 46:0.555997 47:1.032473 48:0.458766 49:0.130791 50:-1.304879 51:0.940638 52:0.223077 53:-1.021926 54:-0.592329 55:-2.387385 56:0.436436 57:0.165784 58:-1.037630 59:-0.698457 60:-1.298759
-1 1:-0.582878 2:-0.344266 3:-0.337029 4:1.154274 5:-1.099879 6:-0.718934 7:-0.008916 8:-1.699520 9:-0.286307 10:-0.070477 11:1.446450 12:0.978217 13:-0.835363 14:-0.546167 15:-0.847894 16:1.693171 17:1.881613 18:1.088569 19:0.232437 20:-0.048684 21:-1.266692 22:-0.522119 23:-0.827336 24:2.121308 25:-0.745511 26:-1.143723 27:-0.963826 28:-1.450732 29:-0.374900 30:0.923602 31:0.984572 32:0.175510 33:-0.162486 34:-0.344717 35:-1.403659 36:-2.143464 37:-0.281495 38:2.068306 39:-0.237730 40:1.365398 41:-0.425245 42:-0.964368 43:-1.544388 44:0.045367 45:-0.626902 46:-0.913449 47:0.411730 48:0.479767 49:1.908351 50:-0.339654 51:0.224065 52:1.274620 53:-1.062556 54:-0.834669 55:-1.000729 56:0.820706 57:-0.921597 58:-0.230190 59:-0.158585 60:1.258498
-1 1:0.494849 2:-0.758857 3:-2.201748 4:-0.546058 5:1.444007 6:1.768332 7:0.516637 8:-1.476816 9:-0.629151 10:0.143066 11:1.406007 12:-0.178976 13:-1.669588 14:-0.464134 15:1.744537 16:-1.630759 17:-0.519403 18:0.418938 19:1.397676 20:-0.883025 21:2.252312 22:1.403979 23:-0.923368 24:1.853204 25:1.456928 26:0.295176 27:0.365886 28:1.794556 29:0.040864 30:0.023952 31:-0.366415 32:0.193092 33:-1.769226 34:0.207043 35:-1.085904 36:-1.527810 37:1.164091 38:-0.237584 39:-0.007028 40:-0.818280 41:-0.206563 42:-0.800035 43:-1.972946 44:-0.170742 45:1.052962 46:-0.397419 47:1.525630 48:0.136562 49:-0.770310 50:0.147336 51:-0.648413 52:1.450334 53:0.595704 54:0.018577 55:-0.541969 56:-0.481278 57:-1.052305 58:1.107398 59:1.420431 60:-0.416384
-1 1:0.022736 2:-1.036114 3:-1.690707 4:1.014969 5:0.688051 6:2.540491 7:0.565622 8:-0.046977 9:-1.192526 10:-2.303187 11:0.517362 12:1.453611 13:-1.080240 14:0.111360 15:1.443924 16:-1.839302 17:0.217178 18:-0.415199 19:-0.999440 20:-0.528349 21:-1.357356 22:0.305566 23:1.415009 24:0.508458 25:-0.272543 26:-0.189432 27:0.333639 28:-2.124045 29:1.940670 30:-1.626191 31:-0.325130 32:-1.261920 33:0.330748 34:0.327250 35:0.511374 36:-1.621612 37:1.170972 38:0.793203 39:-0.914158 40:-0.876578 41:-2.062794 42:-0.690635 43:-0.037581 44:-1.408063 45:-0.722554 46:1.277767 47:0.046898 48:0.616940 49:-0.213459 50:-0.553373 51:0.376698 52:-1.959903 53:-0.127695 54:-0.228355 55:-1.343023 56:-0.869372 57:-0.929779 58:1.634547 59:-0.554244 60:-1.649371
-1 1:-1.888884 2:0.527709 3:0.464704 4:-1.601744 5:0.560368 6:-0.145254 7:0.085148 8:-0.595632 9:-0.749598 10:-2.271679 11:-0.845478 12:-1.611904 13:1.246985 14:-0.010136 15:0.330637 16:0.722751 17:-0.132460 18:-1.189120 19:-0.945890 20:1.178422 21:-0.598767 22:1.771572 23:-1.195299 24:-1.099018 25:-0.785751 26:-1.410479 27:-0.852331 28:1.105355 29:-0.446201 30:0.914263 31:-0.185926 32:-1.423253 33:-0.047901 34:-1.933931 35:1.164833 36:-1.094244 37:1.161263 38:-1.032391 39:-0.353704 40:0.225853 41:0.818592 42:0.010159 43:-0.139635 44:-0.965710 45:2.625208 46:-0.465685 47:0.040222 48:1.716220 49:-0.084954 50:-0.170476 51:-1.732069 52:-1.143701 53:0.597426 54:-0.866896 55:-0.362142 56:-1.577031 57:-1.486777 58:0.126806 59:-0.582588 60:0.018261
-1 1:1.142204 2:1.794026 3:1.108070 4:0.062750 5:-0.665404 6:0.198312 7:-0.467189 8:0.626646 9:-0.389659 10:0.520820 11:-0.035758 12:0.265169 13:0.067586 14:1.651057 15:-3.441062 16:-0.440846 17:-0.226236 18:-0.430434 19:-1.887442 20:0.333213 21:0.007392 22:1.320901 23:0.286127 24:-0.384844 25:-1.475136 26:1.190167 27:-1.253216 28:-0.571698 29:1.236741 30:-2.049177 31:-0.905349 32:-0.306516 33:-1.212587 34:0.163336 35:1.171171 36:1.800997 37:1.186671 38:-0.573640 39:-1.281165 40:0.312095 41:-0.760538 42:0.194291 43:0.217119 44:-0.304723 45:-0.105162 46:0.485704 47:-0.567004 48:-1.806609 49:0.229841 50:-1.965756 51:-0.236207 52:-1.679256 53:1.899084 54:3.054578 55:-0.920671 56:-0.234996 57:1.061218 58:1.354558 59:0.387502 60:2.204447
-1 1:0.375223 2:0.907270 3:-0.948082 4:-0.657714 5:1.545323 6:-2.250737 7:-0.940161 8:-1.059123 9:-2.938811 10:0.297796 11:-0.152323 12:-0.894804 13:-1.741594 14:0.047611 15:0.246149 16:-1.817533 17:-0.346985 18:-1.513551 19:-0.754418 20:0.352709 21:-0.012557 22:0.907654 23:0.629201 24:-2.138795 25:-1.985386 26:0.012617 27:0.547414 28:1.702457 29:0.777913 30:0.541175 31:0.233117 32:1.347400 33:-1.012637 34:-0.472838 35:-1.170213 36:0.368752 37:0.001479 38:1.078564 39:0.221443 40:0.255927 41:-0.609614 42:0.426340 43:0.040141 44:-0.644665 45:1.195026 46:-0.726202 47:0.138768 48:-0.638432 49:-0.015916 50:0.719102 51:1.396155 52:-0.186772 53:-0.148182 54:0.389360 55:-1.315655 56:-1.125633 57:0.210267 58:-1.051447 59:-1.381123 60:-0.114973
-1 1:1.025406 2:0.244240 3:-0.303308 4:-0.175630 5:-0.433289 6:-0.578232 7:-1.081196 8:2.139484 9:-0.880432 10:-0.190333 11:-0.055961 12:0.991919 13:-0.654680 14:-0.251094 15:-0.091972 16:0.762021 17:-0.482229 18:-0.474971 19:-1.502345 20:0.290548 21:-1.107998 22:-0.497108 23:0.989739 24:-0.412743 25:0.280604 26:1.676044 27:-0.474938 28:-0.283803 29:-0.184791 30:0.822229 31:-1.049832 32:0.700512 33:-0.358625 34:0.992694 35:-0.011440 36:1.296223 37:1.132112 38:1.391745 39:-0.953949 40:-0.713941 41:-0.158935 42:-0.801194 43:-1.335273 44:0.424482 45:-0.021071 46:-0.589984 47:-1.154491 48:-1.947520 49:0.970985 50:0.417173 51:-0.614818 52:0.279509 53:-1.945130 54:-0.153515 55:0.234516 56:0.301842 57:2.717338 58:0.627857 59:0.006732 60:0.308888
-1 1:-1.583341 2:0.745074 3:0.370804 4:-0.923041 5:1.122982 6:0.261579 7:0.333003 8:-0.559284 9:-0.178241 10:-0.268045 11:0.050666 12:-0.789851 13:-1.864970 14:-2.320283 15:-1.840716 16:0.011440 17:0.940590 18:0.174775 19:-1.081194 20:-1.075366 21:0.011114 22:-1.508290 23:0.809798 24:1.577259 25:0.924066 26:-0.721935 27:-1.089564 28:0.444460 29:-0.041227 30:-0.773546 31:-0.829166 32:-0.660122 33:-0.169999 34:-0.047468 35:-0.167045 36:1.518616 37:0.995286 38:-1.875481 39:-0.916432 40:-0.549103 41:-0.059931 42:1.088299 43:1.149873 44:-1.219309 45:-1.235512 46:0.661818 47:0.075393 48:-1.456792 49:-0.041571 50:-0.334809 51:-0.297386 52:-0.080415 53:-0.497341 54:-0.993201 55:0.974729 56:2.099223 57:-0.556505 58:-0.600284 59:1.655580 60:-0.699788
-1 1:-1.643503 2:0.942041 3:-0.562034 4:-0.192701 5:0.103892 6:-0.119598 7:0.619158 8:-0.256129 9:-0.087564 10:-0.285229 11:-0.152040 12:1.556124 13:-0.459881 14:-0.141605 15:-1.715162 16:-1.092113 17:0.009961 18:0.603632 19:-0.162783 20:0.435131 21:0.708653 22:0.140932 23:0.111702 24:0.059547 25:-0.093712 26:0.218907 27:-1.284397 28:-1.897993 29:-0.233229 30:0.583155 31:-1.142773 32:0.149885 33:0.744523 34:1.067325 35:0.784352 36:0.612240 37:-1.140259 38:1.486747 39:0.712514 40:1.831413 41:1.025562 42:1.221250 43:-1.752588 44:-1.446065 45:-0.984584 46:-0.642586 47:-0.445684 48:0.213249 49:-2.374813 50:0.311093 51:-0.029060 52:1.436749 53:0.109042 54:-1.799678 55:-0.421844 56:-0.405503 57:0.886789 58:-0.060257 59:-0.913265 60:0.280627
-1 1:1.027746 2:-0.409031 3:2.041287 4:1.981229 5:-1.356829 6:-0.544873 7:-0.332342 8:-0.129056 9:-0.098634 10:0.195340 11:1.162078 12:-0.006685 13:0.248053 14:1.500617 15:-0.304750 16:1.246973 17:-1.278636 18:-0.024325 19:-0.697094 20:1.061841 21:1.011140 22:1.046767 23:-1.935753 24:-1.216166 25:-0.746384 26:-0.905925 27:0.209407 28:0.347655 29:-0.956191 30:-0.550820 31:1.095448 32:0.219718 33:-1.084756 34:0.034495 35:-0.224697 36:-2.482980 37:0.294282 38:-2.200346 39:-0.554271 40:0.933789 41:0.759384 42:0.949695 43:-0.547600 44:0.851371 45:-1.059531 46:0.164948 47:-0.031177 48:-0.531003 49:-0.498776 50:-1.820132 51:0.643607 52:0.493421 53:0.104857 54:-0.844435 55:-0.556361 56:-0.865440 57:-1.449102 58:-0.130887 59:-0.869327 60:0.626190
-1 1:-0.419744 2:-0.359386 3:0.424644 4:0.446050 5:0.884725 6:1.932291 7:-2.344695 8:-0.882650 9:1.015112 10:0.191358 11:-0.536757 12:1.803426 13:0.835889 14:-0.941767 15:-1.389994 16:0.043454 17:-0.653206 18:0.408748 19:-0.811046 20:-0.802273 21:0.291750 22:-0.577921 23:-0.304092 24:-0.042003 25:0.656000 26:1.624451 27:-0.340736 28:-0.450417 29:-0.818894 30:-0.332914 31:-0.261377 32:0.989140 33:-0.973413 34:1.083600 35:-0.208671 36:-1.471216 37:-1.063968 38:2.067219 39:0.147427 40:-0.460858 41:-1.332278 42:-0.995548 43:1.263023 44:-0.125123 45:0.777648 46:-1.382326 47:-0.224786 48:0.152037 49:0.194324 50:0.325519 51:1.051923 52:-0.679381 53:-0.859334 54:-0.410972 55:0.274986 56:0.410451 57:1.360695 58:1.900643 59:0.142818 60:0.629614
-1 1:-0.927963 2:-0.773395 3:-0.665014 4:-0.286736 5:-1.370893 6:-0.772585 7:-0.686991 8:1.885419 9:-0.081266 10:0.886688 11:-0.190954 12:0.749277 13:1.109860 14:-1.770059 15:0.294396 16:-0.628218 17:0.563232 18:0.510108 19:0.161007 20:0.828272 21:0.024220 22:-0.133403 23:0.749168 24:0.218968 25:0.080776 26:-0.310661 27:-0.759730 28:0.656080 29:-0.250012 30:-0.405467 31:0.680428 32:-0.910139 33:0.283056 34:1.956105 35:-2.612847 36:-1.657495 37:0.056779 38:-0.234680 39:-0.183083 40:1.249609 41:1.013549 42:0.413056 43:0.172115 44:0.738270 45:0.393006 46:-0.595849 47:0.968624 48:-0.259418 49:0.128904 50:-1.860004 51:0.614987 52:1.282180 53:1.874854 54:1.793063 55:0.691850 56:-0.145380 57:1.318379 58:0.334782 59:0.492325 60:-1.325730
-1 1:0.103095 2:0.391812 3:-0.560216 4:-1.057407 5:0.298171 6:-0.781226 7:1.023975 8:0.782672 9:-0.084254 10:-0.334848 11:0.589203 12:-0.588886 13:0.321835 14:-0.037533 15:0.037825 16:-1.160532 17:-0.446982 18:0.980917 19:1.773430 20:0.431367 21:1.001546 22:-0.673634 23:-0.646966 24:-0.143718 25:-0.030681 26:-1.124311 27:1.975276 28:0.483254 29:-0.558776 30:0.471711 31:0.829901 32:0.521062 33:-0.910012 34:0.638467 35:0.260380 36:1.400276 37:-0.614862 38:0.605113 39:1.625968 40:-0.298760 41:-1.127705 42:-0.787172 43:-1.390191 44:-0.202898 45:-1.661921 46:1.631101 47:-0.982534 48:-0.045002 49:1.609352 50:1.241621 51:1.757386 52:-1.723485 53:2.070746 54:0.737000 55:0.835205 56:1.027285 57:-1.705929 58:3.110729 59:-1.825061 60:-0.261951
-1 1:2.530308 2:-2.195062 3:0.768736 4:0.036330 5:1.154322 6:-0.339649 7:1.083749 8:1.479235 9:-0.418956 10:1.351081 11:-0.693392 12:-1.942426 13:-0.622399 14:1.306394 15:0.605414 16:0.316744 17:-1.967169 18:-1.160668 19:-1.372581 20:-1.166275 21:1.640805 22:0.724300 23:-0.270938 24:0.802338 25:1.307368 26:0.156705 27:0.777142 28:-0.758585 29:0.271696 30:-0.060698 31:0.797303 32:0.680220 33:0.445234 34:0.370723 35:-0.356440 36:0.638316 37:0.472791 38:-0.696233 39:0.274863 40:1.475941 41:-1.298919 42:-0.279748 43:-0.276253 44:0.385324 45:-1.412279 46:1.362038 47:0.688521 48:-0.972964 49:-0.939007 50:-0.089412 51:0.515050 52:-0.494947 53:0.073362 54:1.036534 55:-1.028947 56:-0.943138 57:0.636949 58:-1.998359 59:-0.313393 60:0.236345
-1 1:1.253658 2:0.443831 3:-0.868602 4:-1.726118 5:1.055425 6:2.535967 7:-0.799965 8:-1.245399 9:-0.080294 10:-1.374707 11:0.409928 12:-0.617741 13:1.274356 14:2.517469 15:0.561544 16:0.603637 17:-1.358500 18:0.295567 19:-0.316609 20:1.022815 21:2.056102 22:0.492948 23:-1.023643 24:-2.078941 25:0.639485 26:0.093539 27:-1.426050 28:1.451733 29:0.344448 30:1.247951 31:-0.709827 32:2.774542 33:3.790797 34:-1.012117 35:-0.891303 36:-0.329210 37:0.100993 38:1.213067 39:0.482472 40:0.622942 41:0.427734 42:1.755004 43:1.092143 44:0.489327 45:1.251305 46:-0.963514 47:1.153581 48:-0.461782 49:-0.085979 50:-0.369018 51:1.449293 52:1.240153 53:-1.793887 54:0.443379 55:-1.483042 56:-0.562538 57:0.100295 58:0.262475 59:0.308167 60:-1.401002
-1 1:-0.963832 2:0.778425 3:-0.988759 4:0.743972 5:0.309108 6:0.220075 7:0.563019 8:1.381505 9:1.707065 10:0.608716 11:-0.976749 12:-0.671923 13:1.415914 14:1.358135 15:-0.268986 16:1.150888 17:1.473768 18:-0.390069 19:-0.627354 20:-0.797020 21:1.097028 22:-1.563854 23:0.691065 24:-0.569506 25:0.049398 26:-1.629906 27:-0.183913 28:-1.742462 29:1.109766 30:-0.556621 31:0.582456 32:0.826408 33:-0.256502 34:-0.231783 35:1.245580 36:1.172623 37:-0.359175 38:-0.393296 39:0.118330 40:-0.721886 41:-1.314409 42:1.211551 43:0.129133 44:-0.947518 45:0.432677 46:0.412352 47:-0.907701 48:0.367445 49:1.831246 50:0.868635 51:-0.408695 52:0.967914 53:-1.152247 54:0.392043 55:-0.168016 56:-1.502614 57:0.595387 58:-0.388792 59:-0.962644 60:-0.015213
-1 1:-1.085883 2:1.509330 3:0.015058 4:-0.222984 5:-2.000936 6:0.606710 7:-1.180064 8:1.145745 9:0.670980 10:0.478862 11:-0.550844 12:0.871094 13:0.623941 14:-1.362336 15:-0.384218 16:-0.266665 17:0.827571 18:1.027676 19:0.711127 20:-1.157095 21:2.045320 22:-0.224140 23:1.079013 24:-0.177831 25:-0.193369 26:-0.380499 27:0.986117 28:0.851589 29:2.089532 30:0.295474 31:-0.682348 32:-0.930180 33:-0.259033 34:-0.492572 35:-1.228720 36:0.353115 37:-0.012136 38:-0.114150 39:-0.550321 40:0.582950 41:-0.499254 42:-0.065883 43:0.476295 44:0.163113 45:-0.536544 46:-0.979687 47:0.045470 48:0.094791 49:0.579912 50:-0.536163 51:0.330589 52:-0.422626 53:0.138695 54:-0.617545 55:-0.322192 56:-0.341244 57:0.495592 58:-0.274614 59:0.296970 60:-0.228368
-1 1:1.115543 2:-0.112071 3:-0.133497 4:-0.618502 5:-0.230264 6:1.358549 7:-0.631343 8:-0.257776 9:1.840472 10:0.409231 11:0.089675 12:-0.994851 13:2.129829 14:1.462069 15:-0.611455 16:-0.343678 17:0.491102 18:0.736995 19:-1.174498 20:1.234821 21:-0.467102 22:1.669127 23:0.395068 24:-0.064963 25:1.777989 26:-0.473376 27:0.832400 28:-0.163333 29:-0.880319 30:0.193974 31:0.615644 32:-1.444091 33:1.434457 34:0.682279 35:-0.205465 36:1.528356 37:-0.636466 38:-2.145479 39:-0.649731 40:0.712566 41:0.349303 42:0.309641 43:-0.000806 44:0.275929 45:0.634228 46:1.585533 47:-1.295371 48:0.747652 49:-0.682848 50:0.980250 51:-1.507149 52:1.291078 53:0.554282 54:0.909832 55:0.707195 56:1.246427 57:0.679490 58:0.148791 59:2.507938 60:1.030661
-1 1:0.201245 2:-1.155168 3:-1.594568 4:-0.717428 5:1.526669 6:1.577161 7:-1.081667 8:-1.005049 9:-0.236478 10:-0.045892 11:0.039181 12:1.239250 13:-1.557046 14:0.954229 15:-0.223698 16:0.707397 17:0.365871 18:-1.812166 19:-0.966457 20:1.534152 21:0.145452 22:-0.629376 23:0.865149 24:-1.118753 25:-0.986050 26:0.231959 27:1.064093 28:-0.556923 29:-0.582519 30:-1.650654 31:-1.774065 32:-1.135277 33:0.046670 34:-0.430235 35:0.849850 36:-0.524179 37:-0.292716 38:1.023843 39:-1.094081 40:-0.242189 41:-0.160472 42:-0.781096 43:0.677952 44:1.188492 45:0.802999 46:0.659405 47:-0.773269 48:-1.119488 49:1.383780 50:-0.250517 51:-1.389824 52:-0.115084 53:0.963195 54:0.929786 55:1.539323 56:0.393378 57:1.708370 58:-3.104325 59:-0.487842 60:1.180154
-1 1:0.587269 2:0.490521 3:0.526598 4:-0.289477 5:0.731920 6:-1.500218 7:-0.272793 8:-0.011296 9:-0.350229 10:0.500325 11:0.070988 12:-0.861975 13:-0.093004 14:-0.364382 15:3.198076 16:0.696624 17:-0.063921 18:-1.722705 19:-0.288954 20:0.109311 21:-0.172937 22:-0.395534 23:-0.553858 24:-0.668543 25:-2.947334 26:0.477086 27:-0.001929 28:-1.104069 29:0.287048 30:-0.468215 31:-1.064014 32:-1.053363 33:0.062621 34:1.758986 35:0.298046 36:0.204210 37:0.438941 38:0.779497 39:-0.091959 40:0.551934 41:-0.221298 42:-0.298791 43:-0.277697 44:1.211649 45:1.093479 46:0.412687 47:-0.160069 48:1.457399 49:0.916088 50:-0.226297 51:-0.423313 52:0.278199 53:0.700064 54:1.293553 55:-1.125741 56:1.055535 57:0.131179 58:1.157510 59:-0.370412 60:-0.826931
-1 1:0.954235 2:-0.842144 3:0.726408 4:2.100661 5:-1.568456 6:-0.908242 7:-0.813528 8:0.160269 9:0.913534 10:-0.131513 11:0.862554 12:-0.507637 13:1.608793 14:-0.573570 15:2.569471 16:-1.034981 17:-0.313402 18:-0.546294 19:1.113688 20:1.579905 21:0.905988 22:-0.302274 23:0.692365 24:-0.008739 25:-0.508849 26:0.541935 27:-0.997044 28:1.412704 29:-0.191196 30:-2.940152 31:-0.659397 32:0.351240 33:-0.140569 34:0.493542 35:-0.495903 36:-2.034414 37:0.510116 38:-0.225676 39:-2.849359 40:1.981339 41:-0.466798 42:1.464719 43:-1.155380 44:2.040675 45:-1.815191 46:-0.069764 47:-0.013766 48:-0.192674 49:0.382747 50:-0.587883 51:-0.103225 52:0.097369 53:-0.118600 54:-0.006611 55:0.513773 56:-0.495775 57:0.405880 58:0.632771 59:0.211676 60:1.011331
-1 1:1.075052 2:0.283156 3:-0.327806 4:-0.760340 5:0.732224 6:-1.138964 7:0.797546 8:-2.258171 9:1.670072 10:-1.080560 11:-0.970239 12:-0.282074 13:-1.272443 14:1.429105 15:-0.209599 16:-0.270023 17:0.349957 18:-0.152651 19:-1.121352 20:-0.826160 21:0.203669 22:0.234250 23:-1.759461 24:1.354531 25:0.762763 26:-2.199597 27:1.968266 28:-0.245435 29:-0.174635 30:-0.045766 31:-1.244171 32:0.059412 33:-0.321359 34:-0.288216 35:-0.928628 36:0.216392 37:0.387886 38:0.607955 39:-0.527928 40:-1.027799 41:1.120327 42:-0.292972 43:-0.629575 44:-0.240430 45:1.426328 46:-0.500697 47:-0.582722 48:-0.864701 49:0.932071 50:0.436783 51:-2.149719 52:-0.341607 53:-1.176497 54:-1.491482 55:-1.128589 56:-0.079717 57:-0.693741 58:-0.929586 59:1.956811 60:0.243528
-1 1:0.072554 2:-1.260496 3:1.076151 4:-2.095464 5:-0.265228 6:-0.683889 7:1.103817 8:0.569234 9:0.215546 10:-0.297600 11:0.027991 12:1.279279 13:-0.933549 14:1.187603 15:0.493544 16:-1.432540 17:-0.586186 18:0.156299 19:1.588252 20:-0.973260 21:-0.539749 22:0.161005 23:1.696954 24:1.646514 25:-0.761445 26:0.639050 27:1.311461 28:1.349944 29:0.777775 30:-0.833994 31:0.325738 32:0.695597 33:-1.180900 34:-0.794989 35:-0.764013 36:0.725211 37:-1.875650 38:0.391129 39:1.178970 40:1.132958 41:-1.062267 42:-0.793164 43:1.273812 44:-0.427647 45:-1.629232 46:0.415298 47:-0.658928 48:0.444147 49:-1.480291 50:0.193007 51:0.036082 52:-0.788788 53:1.174967 54:1.054814 55:-0.168367 56:-0.094926 57:0.134579 58:1.903399 59:-0.754254 60:-0.480454
-1 1:0.752720 2:0.447381 3:0.013736 4:-0.586964 5:-0.407914 6:-2.329990 7:-1.502982 8:0.388327 9:-0.700909 10:-0.735218 11:0.009125 12:-0.030021 13:-0.185361 14:0.329206 15:-0.072236 16:1.175996 17:-1.066264 18:0.722924 19:0.081129 20:-1.890166 21:-2.092961 22:-0.045111 23:0.271327 24:-0.063896 25:-0.793738 26:0.338873 27:-0.661457 28:-1.303118 29:-2.462851 30:-2.146366 31:0.121877 32:0.281752 33:-0.955952 34:0.625841 35:0.259761 36:-0.041571 37:-1.350811 38:1.789353 39:0.791867 40:1.922535 41:0.733571 42:0.583323 43:1.313230 44:-1.978678 45:0.241139 46:-0.762377 47:-0.392892 48:0.532968 49:-0.240254 50:-0.191952 51:-0.263425 52:-0.136663 53:1.403955 54:-2.208087 55:1.502503 56:-0.082751 57:0.078398 58:0.227913 59:-1.209561 60:-0.507531
-1 1:-0.334189 2:-0.396671 3:-1.728747 4:-0.119686 5:0.035638 6:1.200302 7:-1.146274 8:0.550948 9:-0.619319 10:-0.224485 11:0.423623 12:0.014494 13:-0.466560 14:1.376900 15:-1.034414 16:0.033141 17:0.119614 18:0.038599 19:0.310225 20:-0.915449 21:1.950948 22:0.389329 23:0.685421 24:0.874810 25:1.585013 26:-0.090070 27:-0.992693 28:-0.322435 29:0.220700 30:0.004136 31:0.054251 32:0.338992 33:0.412450 34:0.260716 35:-0.993893 36:-1.775450 37:0.738135 38:0.452136 39:0.066036 40:-0.827563 41:-0.610725 42:-0.254378 43:-1.277213 44:1.265195 45:0.671998 46:1.045354 47:0.264938 48:-0.771251 49:2.113068 50:-0.216527 51:-1.365759 52:-1.484870 53:0.097691 54:1.270257 55:0.337254 56:1.444173 57:-0.222607 58:-0.126261 59:-1.235870 60:-0.986255
-1 1:0.568257 2:0.279668 3:1.511097 4:-0.507123 5:0.495700 6:-0.233759 7:0.701152 8:-0.316824 9:-0.050666 10:-0.400862 11:0.748515 12:1.997122 13:-0.389977 14:-0.704554 15:-1.088966 16:-1.497209 17:0.786592 18:-1.120755 19:-3.061981 20:-1.317216 21:-0.653363 22:-1.167527 23:-0.517484 24:0.325506 25:0.657991 26:3.325977 27:1.813652 28:0.610026 29:-0.110840 30:-0.389850 31:0.731194 32:-0.939476 33:2.051667 34:0.677821 35:2.062399 36:0.115253 37:0.440690 38:-0.565182 39:-1.841310 40:0.836896 41:0.124356 42:0.596968 43:1.003375 44:0.367506 45:-0.819817 46:2.547037 47:-0.535653 48:1.674679 49:-0.736681 50:0.144751 51:-0.874729 52:0.289789 53:-0.399489 54:-0.015982 55:-1.551403 56:-1.318760 57:-0.011230 58:-0.547841 59:-0.068687 60:0.910778
-1 1:2.424240 2:0.518987 3:-1.815593 4:-0.142754 5:0.104489 6:1.370152 7:-1.645850 8:-0.080506 9:1.821672 10:-0.404728 11:0.703468 12:1.614162 13:-1.142299 14:-0.070698 15:-0.511325 16:-0.210023 17:0.538308 18:-0.625874 19:0.933882 20:0.821803 21:-0.144396 22:-0.018149 23:-0.116448 24:-1.551210 25:-1.275896 26:1.987419 27:0.993078 28:-1.345953 29:-0.479955 30:0.288622 31:1.887058 32:-0.960841 33:-0.961975 34:0.089160 35:-0.605004 36:0.063349 37:-1.094969 38:-0.236742 39:1.598749 40:0.003133 41:-1.635247 42:0.675562 43:-0.991585 44:-0.506112 45:0.185876 46:-0.476413 47:-0.471351 48:0.560315 49:0.133890 50:0.516294 51:-1.054504 52:1.689985 53:-1.159907 54:0.350997 55:-1.198626 56:-1.206225 57:0.542448 58:0.861170 59:0.412707 60:1.111942
-1 1:-0.791643 2:-0.262037 3:0.432562 4:-0.469584 5:1.157979 6:-1.513598 7:-0.238277 8:-0.098046 9:0.483435 10:-0.403300 11:-0.247700 12:-0.383302 13:1.011021 14:1.615094 15:0.716170 16:0.097046 17:-1.339178 18:-0.420008 19:-0.704772 20:0.141698 21:-1.191600 22:0.254306 23:-0.152811 24:-0.930861 25:-0.822673 26:-1.112218 27:-0.720013 28:0.585245 29:0.202059 30:-0.374142 31:-0.807674 32:0.039678 33:-2.451635 34:-3.342860 35:-0.538882 36:-0.438954 37:1.058142 38:-0.281319 39:0.772391 40:-1.685197 41:0.682934 42:-1.281229 43:-0.699988 44:1.552707 45:-0.874373 46:-0.582463 47:-0.443327 48:0.522680 49:-1.190574 50:0.927979 51:-1.086337 52:-1.632215 53:2.017373 54:1.237123 55:-2.052418 56:0.617740 57:1.152159 58:-0.174321 59:0.065888 60:0.070000
-1 1:-0.479692 2:-2.662807 3:-3.248079 4:-0.463847 5:0.113003 6:-0.215738 7:-0.968296 8:-1.383796 9:1.923013 10:0.012624 11:1.839960 12:-0.728106 13:-0.667260 14:0.774983 15:0.196607 16:0.238069 17:-0.872187 18:-1.658677 19:-0.090211 20:0.615137 21:0.097001 22:1.571766 23:0.113029 24:-0.907376 25:2.159945 26:0.194238 27:-0.405263 28:-0.666475 29:-1.612338 30:0.031515 31:-0.668348 32:-0.624618 33:1.704987 34:0.480255 35:-1.516886 36:0.069599 37:-0.290497 38:-0.575518 39:0.636108 40:0.915215 41:0.358143 42:-0.503714 43:0.434572 44:-0.141542 45:0.378769 46:1.829732 47:1.227009 48:-0.370689 49:-0.984916 50:2.355200 51:1.021408 52:1.161797 53:-0.523980 54:-0.743575 55:1.099809 56:-1.603158 57:-0.452810 58:-0.703675 59:-0.148747 60:0.202292
-1 1:0.417862 2:-1.118421 3:0.598561 4:-1.539939 5:-0.521505 6:0.303225 7:0.819894 8:0.864201 9:-3.071868 10:0.046043 11:0.358760 12:0.812474 13:-0.199246 14:0.356834 15:-1.288174 16:0.213562 17:0.413821 18:-0.339899 19:0.152137 20:0.408043 21:-0.284242 22:0.144845 23:-0.271434 24:-0.019693 25:1.230217 26:-1.061090 27:-1.410800 28:1.382097 29:-0.875260 30:-0.708897 31:0.477445 32:1.240790 33:-0.080711 34:-0.520092 35:0.579689 36:-0.763614 37:0.620940 38:0.083866 39:-0.983125 40:-0.953091 41:-0.478691 42:-0.214105 43:-0.871916 44:0.653625 45:-0.383207 46:-0.656379 47:0.282163 48:0.447617 49:0.307667 50:0.913394 51:-0.044060 52:-1.134904 53:-1.090250 54:-0.483329 55:-0.143133 56:-0.565422 57:-2.047180 58:-0.034784 59:0.826962 60:0.454796
-1 1:1.515184 2:0.882039 3:1.313229 4:-1.209027 5:-0.753816 6:-0.308554 7:0.843776 8:-2.958024 9:-0.585753 10:2.220745 11:0.442947 12:0.306661 13:0.432174 14:-0.805220 15:-0.533588 16:1.041374 17:0.759931 18:0.409711 19:-0.882594 20:-0.611380 21:-1.906657 22:1.331307 23:-1.553009 24:0.224352 25:-0.157697 26:1.330970 27:1.582100 28:0.056325 29:0.663927 30:-0.352241 31:0.301416 32:0.657145 33:-0.542455 34:-0.185005 35:0.812883 36:-0.419817 37:1.638682 38:0.672307 39:-0.049568 40:-0.537950 41:-1.381270 42:-0.447719 43:1.999196 44:-0.163439 45:0.325144 46:-0.039981 47:-1.502881 48:-2.492677 49:-1.309982 50:-1.853657 51:-0.359812 52:0.414412 53:2.038994 54:-0.167878 55:-1.866337 56:-1.507571 57:-0.453245 58:0.225562 59:-1.104587 60:1.019592
-1 1:-2.594699 2:0.015100 3:1.739570 4:1.766699 5:0.001417 6:-1.578211 7:0.440603 8:-0.751678 9:-0.882822 10:-0.804244 11:-0.721523 12:-0.370438 13:0.782530 14:0.611500 15:0.777486 16:-0.648469 17:-0.476905 18:-0.000223 19:0.647101 20:-0.785623 21:-1.879911 22:0.022736 23:0.186411 24:1.514808 25:-0.479316 26:-1.771205 27:-1.290544 28:0.500479 29:1.960345 30:-0.787349 31:0.585532 32:-0.129592 33:1.469435 34:-0.109424 35:-0.915301 36:-0.216644 37:0.405316 38:0.313428 39:0.799287 40:0.348143 41:0.217407 42:-0.285865 43:-2.320742 44:1.074163 45:1.445492 46:-0.521387 47:-0.429944 48:-0.491044 49:-1.003713 50:-0.124298 51:-0.572179 52:-1.087736 53:0.090487 54:1.686449 55:0.075376 56:0.271494 57:0.272504 58:0.591515 59:-0.142437 60:1.273098
-1 1:-0.875805 2:1.361289 3:-0.522134 4:0.521895 5:-0.573281 6:-1.586684 7:0.622732 8:1.234677 9:-2.326961 10:0.522809 11:-1.557602 12:0.229442 13:-1.096741 14:0.921828 15:-0.249944 16:-0.172477 17:-0.808454 18:0.995412 19:-0.315248 20:0.350770 21:-0.214953 22:-0.736371 23:-1.382549 24:-0.210869 25:0.749632 26:-0.109505 27:0.742461 28:0.637463 29:0.007063 30:0.651848 31:1.578427 32:-1.198555 33:-0.180758 34:0.769548 35:0.259223 36:0.017790 37:1.713564 38:-0.440519 39:-0.431795 40:-0.789318 41:0.106347 42:-1.132357 43:0.313169 44:2.348421 45:-1.277998 46:1.952522 47:0.593674 48:-1.463704 49:-1.529323 50:2.650245 51:-0.570693 52:0.055653 53:-0.289175 54:-0.799736 55:0.696110 56:-0.364813 57:-0.968588 58:-0.026971 59:0.723448 60:-0.925695
-1 1:0.445054 2:0.632818 3:0.902131 4:0.669606 5:0.860062 6:-0.552568 7:-0.693075 8:-0.412106 9:-0.201495 10:1.315901 11:-0.129339 12:-1.530328 13:-0.219407 14:0.259519 15:0.343539 16:0.743425 17:1.754400 18:-0.257618 19:0.047548 20:0.001653 21:0.957554 22:0.018633 23:0.726243 24:-1.194487 25:-1.582804 26:-0.082471 27:-0.492911 28:-1.085252 29:-1.086841 30:0.149394 31:1.069119 32:-1.211173 33:1.481694 34:-0.215460 35:-0.825796 36:1.732014 37:0.853310 38:-0.061679 39:-0.522512 40:0.507769 41:0.245164 42:-1.418348 43:0.137364 44:1.282606 45:0.362241 46:-1.348548 47:1.059388 48:1.447473 49:-1.203577 50:-0.200243 51:-1.179110 52:0.316661 53:-1.038011 54:0.124549 55:2.005555 56:-0.702014 57:-0.044090 58:1.861375 59:1.103723 60:-1.172583
-1 1:0.436660 2:-0.092811 3:-0.345066 4:-0.991916 5:-0.687289 6:1.001594 7:-0.309647 8:-0.681409 9:-0.089267 10:0.308451 11:-0.205115 12:-0.360073 13:-0.091443 14:-0.406193 15:1.541602 16:-0.325201 17:-1.386674 18:0.586012 19:-0.765080 20:-0.983227 21:-0.045242 22:1.407696 23:0.779161 24:-0.362486 25:-0.732793 26:0.193885 27:-0.380343 28:2.496936 29:0.167110 30:-1.023067 31:1.003981 32:-0.069316 33:-0.077351 34:0.719475 35:0.711873 36:0.882966 37:-0.761484 38:-0.400340 39:0.193094 40:0.892945 41:0.027865 42:-0.544091 43:0.027246 44:2.031964 45:-0.153645 46:-1.240278 47:-1.097266 48:0.049959 49:-0.577926 50:-1.738962 51:0.052190 52:-0.640658 53:0.015043 54:-0.211149 55:1.735958 56:0.922762 57:1.116448 58:-2.171081 59:-0.091855 60:-0.069250
-1 1:0.662751 2:-0.794901 3:-2.077825 4:0.470747 5:-0.391541 6:0.937998 7:-0.466533 8:0.402057 9:2.186134 10:0.413426 11:0.711718 12:-2.434964 13:-0.922403 14:0.244045 15:1.534389 16:0.766734 17:0.376044 18:-0.466761 19:0.067846 20:-0.539175 21:-0.042691 22:-2.199091 23:0.101149 24:-1.103647 25:-0.573571 26:1.438123 27:0.595869 28:-1.498926 29:-0.469144 30:1.642320 31:-2.120857 32:0.626079 33:-0.598190 34:-1.884980 35:-0.240776 36:-0.818054 37:-1.091163 38:-0.458998 39:0.571393 40:0.449037 41:-0.496920 42:0.832804 43:-0.533955 44:-0.076840 45:1.398581 46:-1.406919 47:0.226262 48:0.941042 49:0.367015 50:1.323388 51:0.582553 52:0.928878 53:0.464277 54:0.969985 55:1.721919 56:0.526978 57:-1.083645 58:-0.109573 59:-0.374274 60:-1.092321
-1 1:-0.006995 2:-0.295208 3:-0.791580 4:-0.603454 5:-0.408614 6:-0.396996 7:0.440832 8:0.214239 9:-0.215787 10:0.218978 11:-1.172731 12:-0.661765 13:0.900243 14:1.645556 15:0.203471 16:0.041598 17:-1.632471 18:-1.051496 19:-1.349394 20:1.334812 21:-1.724942 22:1.578434 23:1.431552 24:-0.302101 25:-1.135733 26:0.387893 27:0.289145 28:-0.477510 29:-0.657777 30:0.679928 31:-0.166501 32:1.129216 33:1.531207 34:0.560260 35:1.282945 36:-1.393095 37:-0.046543 38:0.420422 39:-0.165386 40:0.333364 41:-1.119967 42:-0.380898 43:-0.078925 44:-1.149517 45:0.911125 46:-0.779562 47:0.571276 48:0.329780 49:-0.368555 50:-0.554115 51:-0.167260 52:-0.393179 53:0.580328 54:0.296717 55:-1.100781 56:-1.124660 57:1.160045 58:0.758212 59:-1.960097 60:0.226560
-1 1:-1.115450 2:-1.659304 3:-0.008574 4:-2.105568 5:-0.053000 6:0.614833 7:1.728193 8:-0.167150 9:-1.338038 10:0.424214 11:0.490192 12:-0.902347 13:-0.215220 14:-1.543237 15:1.106464 16:0.472238 17:0.309999 18:-1.136986 19:-1.037089 20:0.167840 21:-0.437536 22:-0.326288 23:1.495801 24:1.889622 25:0.555612 26:-1.262376 27:-0.238385 28:-0.638129 29:-1.060903 30:1.790485 31:-1.664279 32:-0.792866 33:-0.831007 34:-0.833254 35:1.706026 36:-0.277248 37:1.821160 38:1.224077 39:0.411256 40:0.197179 41:0.385527 42:0.889201 43:0.697431 44:-0.708522 45:0.401016 46:-0.037754 47:-0.660297 48:0.322566 49:-0.490655 50:0.654244 51:-0.166387 52:1.906696 53:0.159336 54:-0.929981 55:-0.190756 56:1.442160 57:-1.761447 58:0.411794 59:0.527491 60:1.253530
-1 1:0.883842 2:-1.461337 3:-0.608928 4:0.084055 5:-0.536567 6:-2.083234 7:0.373195 8:0.751774 9:1.349356 10:0.256261 11:0.199119 12:0.721634 13:0.680822 14:-2.537213 15:-0.039785 16:-0.957392 17:0.173361 18:0.806619 19:0.510216 20:0.897655 21:-2.032297 22:0.216838 23:0.188732 24:0.284512 25:-0.082455 26:-1.083724 27:-1.329353 28:0.549209 29:-0.004278 30:0.495982 31:0.342244 32:-2.925590 33:-0.251139 34:2.899088 35:-0.460202 36:-0.002481 37:0.788279 38:0.219214 39:2.594059 40:-1.406580 41:0.613980 42:-0.414852 43:-0.908064 44:1.115848 45:-0.125383 46:0.489172 47:0.412122 48:0.653339 49:-0.417251 50:0.639847 51:-1.491292 52:-0.878704 53:0.187387 54:-1.293641 55:-0.147300 56:-0.628209 57:0.359827 58:-1.157732 59:0.578778 60:0.655919
-1 1:-0.794245 2:0.232999 3:-0.624207 4:1.832115 5:0.549702 6:0.535199 7:0.713612 8:-0.463558 9:1.199467 10:0.062469 11:1.885238 12:-1.274437 13:-0.193136 14:-0.204646 15:-1.074065 16:0.538658 17:-0.506073 18:-0.203184 19:-0.715870 20:-1.036448 21:0.855046 22:-0.835572 23:1.068614 24:0.268592 25:-0.851438 26:0.020968 27:-1.623036 28:1.594120 29:1.599723 30:-2.114741 31:0.414175 32:-0.969267 33:-0.872664 34:1.292498 35:-0.874602 36:-0.797588 37:2.072123 38:-0.001935 39:0.726491 40:2.043498 41:0.664831 42:0.051615 43:-0.172854 44:-0.440844 45:-0.304915 46:-0.420051 47:-1.733327 48:-0.483525 49:-0.736418 50:0.518106 51:0.805190 52:1.604799 53:1.334079 54:-1.394479 55:1.029411 56:-0.924963 57:-1.017526 58:0.056284 59:0.713979 60:-0.587817
-1 1:1.035350 2:-0.947759 3:-3.205931 4:0.685954 5:-0.465864 6:0.426098 7:-0.012466 8:-0.910534 9:1.636340 10:-0.802594 11:-1.281121 12:-2.034112 13:-0.451399 14:-1.179108 15:-0.158723 16:0.711095 17:-0.186163 18:-3.897095 19:-1.623069 20:0.364075 21:-0.883781 22:-0.180533 23:-0.671451 24:1.146288 25:-1.076080 26:-0.892185 27:0.987528 28:-0.295071 29:0.210783 30:-0.992785 31:-1.010407 32:-0.928733 33:1.414678 34:-0.053469 35:-1.211737 36:0.827233 37:1.451934 38:-1.884272 39:0.692309 40:1.133666 41:1.333364 42:1.096104 43:-0.003346 44:-0.610625 45:0.107020 46:0.957295 47:-1.244632 48:-0.327911 49:0.475502 50:-0.038371 51:-0.481048 52:-0.981031 53:-0.878210 54:-0.430064 55:0.105153 56:0.509790 57:-1.009973 58:0.136498 59:0.483643 60:-0.895579
-1 1:-0.682243 2:0.818716 3:0.431489 4:-2.050581 5:0.008592 6:0.596529 7:-0.362064 8:0.681090 9:0.433814 10:1.975792 11:-0.170494 12:1.321931 13:-1.698706 14:0.549045 15:0.196615 16:0.165831 17:1.544948 18:-1.405966 19:2.100601 20:-1.188340 21:-1.051993 22:0.583761 23:-1.058679 24:0.089425 25:-0.569575 26:0.268679 27:0.090112 28:0.620795 29:0.005357 30:-1.331476 31:1.309022 32:0.920007 33:1.326053 34:-2.078796 35:0.110658 36:-1.639125 37:1.002653 38:0.367249 39:0.397655 40:1.141657 41:0.355770 42:-1.054106 43:-1.955103 44:-0.384753 45:-0.111162 46:0.772375 47:0.161268 48:0.333442 49:0.698457 50:-0.487194 51:0.950147 52:-0.647448 53:-0.065188 54:0.542272 55:1.306781 56:-1.413778 57:-0.849194 58:0.626491 59:-1.929214 60:-0.717615
-1 1:1.313964 2:-0.558253 3:0.101312 4:1.339319 5:0.208956 6:1.483819 7:-0.295369 8:0.137392 9:-0.365436 10:1.461206 11:0.768831 12:0.826722 13:1.055251 14:-0.557151 15:0.170039 16:1.325322 17:-0.980431 18:-1.093059 19:-1.174736 20:2.296108 21:-0.543191 22:1.005196 23:1.050660 24:-1.353309 25:-0.344679 26:-0.927694 27:-1.172662 28:-0.536382 29:-1.496382 30:-0.579831 31:-0.570757 32:-0.217873 33:0.314947 34:-1.401181 35:-1.187815 36:-0.344374 37:0.419320 38:-0.717407 39:0.431347 40:0.434863 41:-0.302894 42:-1.493625 43:0.058843 44:-0.499919 45:1.676221 46:0.106253 47:1.340300 48:-1.378794 49:0.671014 50:-0.285652 51:0.628242 52:-0.190359 53:-0.754483 54:0.491706 55:-0.171784 56:0.858780 57:-0.034578 58:0.543885 59:-0.850776 60:0.613391
-1 1:-2.621242 2:-1.502696 3:-1.104527 4:2.270512 5:0.036108 6:-0.139808 7:2.236255 8:0.338992 9:-2.233926 10:-0.826570 11:-0.487804 12:-1.354076 13:-0.753247 14:-0.421287 15:-0.017605 16:-0.412641 17:1.602447 18:-2.044242 19:-1.221002 20:0.205169 21:0.793680 22:0.808459 23:-0.600651 24:1.701206 25:-0.403215 26:-1.006732 27:-1.600376 28:0.920899 29:1.434435 30:-0.170880 31:-0.160197 32:-1.076054 33:0.870085 34:1.054128 35:1.804996 36:1.449152 37:2.168804 38:-1.434789 39:0.555120 40:0.778275 41:0.320578 42:0.088189 43:1.284940 44:0.790750 45:-0.727042 46:0.326067 47:2.258300 48:-1.254650 49:1.595381 50:1.390810 51:-0.154128 52:0.302614 53:-0.516995 54:0.387546 55:0.102983 56:-0.705120 57:-0.788950 58:-0.930550 59:-0.434290 60:1.014149
-1 1:-1.033718 2:0.559403 3:-0.567107 4:-0.627130 5:0.234695 6:0.119451 7:0.379526 8:1.094965 9:-0.013458 10:-0.811467 11:1.368115 12:-0.515255 13:0.457588 14:-0.424635 15:-1.068847 16:0.702318 17:-0.045573 18:-1.899017 19:-1.028644 20:0.115874 21:0.499238 22:0.339656 23:-0.088852 24:0.489440 25:-0.138406 26:1.492812 27:-1.705506 28:1.135179 29:-1.919389 30:-0.125411 31:0.848571 32:0.643452 33:-0.253845 34:-0.713876 35:1.264061 36:-0.032754 37:1.431878 38:1.785484 39:0.943952 40:1.130672 41:-1.146513 42:2.770622 43:0.913790 44:0.870812 45:-0.870618 46:-1.356182 47:-1.082475 48:1.156482 49:0.527698 50:0.926801 51:-0.779374 52:-0.209439 53:0.941406 54:-1.052755 55:0.222651 56:0.042978 57:-1.708987 58:-0.078361 59:0.345180 60:0.178350
-1 1:-0.898567 2:-0.081429 3:1.532743 4:-0.709283 5:0.633995 6:-0.737192 7:0.301115 8:-1.368749 9:-0.744280 10:-0.150675 11:-1.379489 12:0.152893 13:-0.416543 14:-0.993742 15:-0.707533 16:0.776733 17:2.269600 18:-1.482268 19:1.017080 20:2.226963 21:0.925049 22:2.241769 23:-0.526186 24:-0.344107 25:0.510566 26:-0.977593 27:1.230984 28:-0.273433 29:-0.591862 30:1.407581 31:0.262634 32:-0.455693 33:0.232437 34:0.998224 35:0.796069 36:1.254473 37:-0.637298 38:-0.847301 39:-0.974669 40:0.676748 41:-1.025111 42:-0.003533 43:1.578924 44:0.138385 45:1.063390 46:0.130011 47:-1.323701 48:-0.346850 49:-0.546116 50:-0.859442 51:1.187288 52:-0.033509 53:1.762042 54:-0.065167 55:0.479024 56:1.025706 57:-1.467098 58:-0.484093 59:-0.063488 60:1.580792
-1 1:0.172396 2:0.316230 3:-0.473231 4:0.380040 5:-0.937601 6:0.175369 7:0.457284 8:0.286119 9:-1.802978 10:0.847979 11:0.810639 12:-0.235065 13:0.652720 14:0.203544 15:-0.248598 16:-0.601179 17:0.573584 18:-0.118788 19:0.858233 20:0.261902 21:-0.410431 22:-0.349894 23:-0.059328 24:-1.075044 25:-0.791630 26:0.168144 27:0.939268 28:0.173460 29:0.787687 30:-0.463049 31:0.526490 32:0.010744 33:-0.673065 34:0.931556 35:-1.049853 36:0.557519 37:0.533402 38:1.522292 39:0.425838 40:0.128158 41:0.641966 42:0.332437 43:0.054472 44:-0.406326 45:-1.240584 46:0.435215 47:-0.683821 48:0.712095 49:1.393509 50:1.077189 51:-0.538780 52:2.698249 53:-0.145835 54:-0.705070 55:0.050552 56:0.260652 57:-0.264980 58:-2.192864 59:0.473672 60:1.499647
-1 1:1.337199 2:0.416678 3:-0.646748 4:0.762368 5:0.174150 6:-1.954806 7:-0.210457 8:0.244562 9:-0.094785 10:0.319668 11:0.415087 12:-0.127898 13:-0.142980 14:0.644060 15:-1.402280 16:-1.671765 17:-0.648255 18:-2.161882 19:0.247983 20:0.810741 21:0.738052 22:-0.619177 23:-0.361478 24:0.967105 25:0.549506 26:-0.396373 27:0.332918 28:2.234476 29:-0.195940 30:0.290888 31:-1.069690 32:-0.901217 33:-1.194168 34:0.154190 35:1.788604 36:-0.925495 37:0.240270 38:-0.753131 39:0.729087 40:0.094410 41:0.715563 42:1.002505 43:-0.653710 44:-1.627809 45:-2.427220 46:0.531618 47:0.944564 48:0.032480 49:-0.110527 50:-0.295770 51:2.295846 52:0.314294 53:-0.203769 54:-0.652479 55:0.196176 56:0.676862 57:0.663152 58:-1.754710 59:-1.602778 60:-1.617779
-1 1:-2.176088 2:0.369653 3:-0.929788 4:-0.043099 5:-1.794036 6:0.704561 7:-0.929134 8:0.691569 9:-1.631305 10:0.328391 11:0.807524 12:0.790161 13:0.331733 14:-0.694550 15:0.538722 16:2.356545 17:-0.616061 18:-1.605040 19:-0.118763 20:0.031570 21:0.284522 22:0.784221 23:-1.106289 24:-0.114966 25:2.458432 26:0.078076 27:0.188817 28:-0.128399 29:-0.332135 30:0.665719 31:0.417089 32:0.695049 33:0.793428 34:-0.314508 35:0.984258 36:0.344937 37:0.824688 38:-0.414740 39:0.335061 40:-1.396945 41:-0.221843 42:0.550851 43:-0.400312 44:0.482888 45:0.766334 46:0.331106 47:1.047040 48:0.333964 49:1.799212 50:0.630781 51:0.995660 52:-0.884363 53:0.539820 54:-1.909249 55:-1.288285 56:0.117409 57:0.810652 58:-0.490430 59:2.045415 60:-1.990772
-1 1:-1.047742 2:-0.126785 3:0.680433 4:-1.497989 5:0.423149 6:1.904062 7:-0.139141 8:0.226003 9:-0.148457 10:0.842130 11:-0.588398 12:0.916278 13:1.015564 14:2.850491 15:-0.095674 16:0.180778 17:2.097915 18:1.941603 19:-0.366473 20:0.115267 21:0.054054 22:0.351778 23:-0.116508 24:-0.818433 25:1.285336 26:-1.038201 27:-1.178808 28:-1.280261 29:1.624310 30:0.060965 31:0.672277 32:-1.203463 33:-0.847278 34:0.192612 35:0.382162 36:-1.881367 37:-0.204212 38:-0.171099 39:1.001613 40:-0.274149 41:-1.206398 42:-1.004739 43:-1.087603 44:-0.670411 45:-0.418103 46:-1.185588 47:-0.491417 48:-0.835516 49:-0.649157 50:-1.505204 51:-0.702411 52:-0.338203 53:-0.116877 54:0.341347 55:-0.570524 56:1.746395 57:0.032625 58:1.560533 59:0.458240 60:0.504328
-1 1:1.363919 2:0.431432 3:0.529006 4:1.842813 5:-0.218937 6:0.098392 7:1.451881 8:1.348255 9:-0.174988 10:-0.786130 11:0.612150 12:0.187296 13:-0.193532 14:0.346351 15:0.183909 16:-0.058999 17:-0.316149 18:-1.394950 19:-1.690063 20:0.668388 21:-1.511887 22:1.013083 23:-1.010219 24:0.305485 25:0.101547 26:2.118151 27:1.798447 28:1.186345 29:-1.546460 30:0.915884 31:0.807743 32:0.950232 33:-0.516238 34:-1.188399 35:-0.835082 36:-0.085404 37:-0.949175 38:1.358005 39:-0.244488 40:0.427997 41:0.396311 42:-1.885296 43:-0.632597 44:-1.510609 45:0.426862 46:0.017077 47:-1.981300 48:-0.915740 49:2.208808 50:-0.093321 51:0.385369 52:-0.394267 53:-0.149807 54:-0.351664 55:-1.429185 56:-0.924973 57:0.554637 58:0.166942 59:-0.650667 60:0.079730
-1 1:-0.486342 2:0.576887 3:-0.411917 4:-0.536770 5:-2.055713 6:0.104603 7:1.617992 8:-0.144111 9:1.046218 10:-1.055495 11:1.729158 12:0.842299 13:-0.561118 14:0.777033 15:-0.280149 16:0.707823 17:0.759855 18:-0.651784 19:0.897227 20:0.636398 21:-0.257931 22:-0.221763 23:0.325608 24:-1.840842 25:-1.393099 26:-1.559619 27:0.971483 28:0.645499 29:0.642320 30:-0.817759 31:1.043124 32:-0.097830 33:-0.875108 34:0.941054 35:-0.969415 36:1.520291 37:-0.335790 38:-0.900249 39:-0.785319 40:-0.964753 41:0.039477 42:0.478342 43:0.201059 44:-0.447894 45:-0.423468 46:0.189155 47:-0.277841 48:0.389529 49:0.422249 50:-1.183943 51:0.666777 52:0.821441 53:-0.990885 54:-0.371176 55:-0.397077 56:0.680286 57:0.738843 58:0.064937 59:0.194521 60:-0.554610
-1 1:1.077008 2:-0.423475 3:-0.428715 4:1.520669 5:-0.372054 6:-0.921340 7:-1.959437 8:0.349221 9:1.309294 10:0.660313 11:0.912930 12:0.669295 13:0.812535 14:1.648548 15:-0.248199 16:0.824245 17:-1.128711 18:-0.912860 19:-2.003693 20:-0.011362 21:-1.616810 22:0.304567 23:-0.006763 24:1.498369 25:0.287938 26:-0.557168 27:0.163190 28:-2.291278 29:-1.142424 30:-2.291218 31:1.131950 32:0.398808 33:-0.400082 34:0.336321 35:-0.591226 36:0.324223 37:-0.455237 38:1.018687 39:0.561254 40:1.611432 41:-0.736848 42:0.036856 43:-1.357110 44:0.569454 45:0.421206 46:-0.870889 47:-1.264709 48:0.344125 49:-1.915119 50:-1.396638 51:0.241352 52:-0.189059 53:1.065414 54:-0.130624 55:1.249551 56:0.545467 57:-0.629301 58:-0.330372 59:1.469249 60:1.620521
-1 1:-0.043650 2:-0.562000 3:-1.099945 4:0.583188 5:-1.193576 6:0.476569 7:-0.270030 8:-1.450749 9:-1.780646 10:-0.942456 11:-0.888173 12:0.557210 13:0.638045 14:-0.633410 15:0.082676 16:-1.004954 17:-0.379476 18:1.825644 19:1.492444 20:1.130253 21:1.177933 22:0.080276 23:-1.402126 24:-0.867117 25:-2.699614 26:0.538542 27:-1.929705 28:-1.446986 29:0.815181 30:-0.419480 31:0.346932 32:1.245152 33:-0.320279 34:1.203527 35:1.216217 36:0.314314 37:-1.463030 38:1.519687 39:-1.162891 40:-1.274475 41:0.061206 42:-0.920608 43:0.744564 44:-0.831799 45:0.504572 46:-0.338609 47:-0.190768 48:0.226018 49:-0.324402 50:1.200125 51:-0.131082 52:0.112668 53:-0.506278 54:-1.572706 55:0.009769 56:-1.503636 57:0.329508 58:-0.824678 59:-0.309406 60:0.053807
-1 1:1.702068 2:1.432625 3:0.180484 4:-1.319309 5:0.712717 6:-0.995057 7:-0.136629 8:-1.061682 9:-1.585129 10:1.505647 11:0.778383 12:-1.296954 13:-0.721828 14:-2.416921 15:-0.285787 16:-0.713772 17:-0.976037 18:-0.086389 19:-1.125302 20:-1.263829 21:0.207059 22:-1.115206 23:-0.365864 24:1.418863 25:-1.252288 26:-1.651433 27:0.128067 28:-1.181450 29:-0.121340 30:0.007047 31:-0.743682 32:-1.425998 33:2.493711 34:-0.511568 35:-0.551348 36:0.298171 37:1.045000 38:-0.963190 39:0.972352 40:-1.398822 41:0.023347 42:-0.864817 43:0.164426 44:-0.314053 45:-0.086669 46:0.712758 47:1.859562 48:1.504743 49:-0.461116 50:1.283808 51:0.548118 52:-0.875376 53:1.743263 54:1.247694 55:1.508326 56:2.975857 57:-0.478008 58:-0.596899 59:0.941012 60:-1.344268
-1 1:-0.407557 2:0.051873 3:0.793744 4:-0.825050 5:0.262846 6:-0.612420 7:-0.505806 8:0.876278 9:-1.097148 10:-1.930354 11:0.522033 12:-0.075894 13:1.318421 14:0.417081 15:-0.316247 16:-0.391534 17:0.890606 18:0.744736 19:-0.527060 20:-1.410470 21:-1.572761 22:0.293094 23:0.373573 24:-1.663283 25:1.289328 26:-0.284300 27:-1.132860 28:0.322071 29:-0.819018 30:-3.114283 31:0.583811 32:-0.933177 33:0.026288 34:-0.627764 35:-0.800608 36:-1.128321 37:0.767466 38:0.028114 39:-0.608046 40:-0.127285 41:0.517833 42:0.836591 43:1.726501 44:0.535240 45:-0.942750 46:0.020443 47:0.473944 48:-1.577620 49:0.970924 50:1.868827 51:-0.179950 52:0.161537 53:0.953894 54:-0.844336 55:0.788463 56:-0.058720 57:0.357138 58:1.529745 59:-1.147349 60:-0.987748
-1 1:1.172435 2:0.020817 3:1.356177 4:1.523089 5:0.243577 6:-0.900370 7:-0.132054 8:-1.675773 9:-0.382599 10:0.692880 11:-1.134947 12:1.465787 13:0.846115 14:-0.981003 15:1.378069 16:2.121028 17:0.277621 18:0.690619 19:0.301080 20:-0.311378 21:1.898786 22:-0.877036 23:-0.271166 24:0.356786 25:1.384591 26:1.939830 27:-0.415762 28:1.099892 29:0.390630 30:0.537594 31:-0.478620 32:0.236079 33:-0.375437 34:2.010385 35:0.241681 36:-0.385936 37:-0.850354 38:0.419496 39:-0.705085 40:-0.661115 41:-1.863635 42:0.243758 43:0.667948 44:-0.949765 45:1.468674 46:-0.153027 47:1.042340 48:-2.071451 49:1.309063 50:-0.274244 51:-0.428411 52:0.696632 53:0.658884 54:-0.458814 55:-1.503135 56:-0.021686 57:-0.975792 58:1.053385 59:0.565587 60:-2.596035
-1 1:1.073407 2:-0.058342 3:-1.276750 4:1.341176 5:0.806396 6:-2.191706 7:2.438184 8:-0.108880 9:-1.903546 10:0.305234 11:0.710582 12:-0.309534 13:0.552479 14:0.865917 15:-0.141356 16:-0.233561 17:-0.637547 18:-1.210071 19:-0.753286 20:0.230375 21:1.137127 22:-2.810594 23:0.246854 24:-0.984612 25:-0.319896 26:0.022823 27:2.089509 28:2.018687 29:-2.531240 30:-1.486585 31:0.342532 32:-0.384441 33:-0.782285 34:-0.804865 35:-0.998870 36:-0.801902 37:0.218261 38:-2.099566 39:-2.225905 40:1.011556 41:-0.454219 42:-0.956525 43:-0.027734 44:-0.813416 45:-2.409813 46:-1.151395 47:-0.833834 48:0.258533 49:0.152466 50:0.924401 51:-0.239971 52:-0.331213 53:0.446171 54:0.239678 55:0.914424 56:-0.222668 57:-0.516020 58:0.870023 59:0.467476 60:-0.640946
-1 1:1.222514 2:1.181191 3:-1.166177 4:0.270380 5:0.142314 6:-1.204929 7:-0.175396 8:-0.243947 9:0.160979 10:-1.086627 11:0.317647 12:-1.893108 13:0.216956 14:-0.537967 15:0.385353 16:1.277013 17:-0.797259 18:1.059338 19:-0.456330 20:0.204706 21:-0.875346 22:1.289047 23:-1.305981 24:0.187960 25:0.602918 26:0.127008 27:-0.092841 28:0.971905 29:-0.157716 30:0.816850 31:0.138224 32:-1.355699 33:-2.987206 34:0.661837 35:-1.411590 36:-0.980878 37:0.259891 38:0.013557 39:-1.500371 40:-0.398054 41:-0.825501 42:1.222683 43:-2.306498 44:0.092204 45:1.149260 46:1.542396 47:0.176528 48:-1.245895 49:-0.267940 50:0.952313 51:1.601496 52:1.379039 53:0.943326 54:0.671190 55:1.634867 56:0.037387 57:-1.074306 58:1.161278 59:0.201484 60:0.588464
-1 1:-0.011141 2:-0.881336 3:-0.352639 4:0.130662 5:0.038314 6:-0.696503 7:-0.100710 8:-1.744876 9:0.274686 10:0.535985 11:-0.347732 12:0.122738 13:0.171406 14:-0.704849 15:0.905981 16:2.575383 17:-0.843329 18:1.506758 19:0.081165 20:0.937367 21:0.162118 22:-1.092326 23:-0.697381 24:2.308645 25:-2.059531 26:-0.103791 27:-0.159231 28:-0.152663 29:-0.604987 30:-1.855374 31:0.706170 32:-0.158438 33:-0.244991 34:-2.084286 35:1.439247 36:1.077455 37:-0.339740 38:-1.127227 39:1.395207 40:-0.612238 41:-0.510840 42:-0.005557 43:-1.029399 44:-0.446897 45:0.511172 46:0.419951 47:-1.098013 48:-0.525004 49:-0.553414 50:0.995728 51:-0.084261 52:-0.083881 53:-0.043546 54:0.690907 55:-1.124278 56:1.557183 57:1.080855 58:0.503803 59:-0.480289 60:-0.000085
-1 1:-0.440480 2:0.044634 3:-0.147987 4:-1.618684 5:1.251659 6:-1.742227 7:-0.138759 8:-2.323444 9:-1.214617 10:-0.056349 11:1.658334 12:-1.329824 13:1.348364 14:0.133054 15:1.156590 16:-0.219333 17:-0.770848 18:0.227973 19:0.496638 20:-0.370825 21:0.117701 22:0.852176 23:-0.817604 24:0.915756 25:-1.270296 26:-0.266753 27:0.077274 28:-0.071581 29:0.294302 30:0.353823 31:2.012163 32:1.060708 33:-0.317749 34:-0.890165 35:-1.494074 36:-0.498118 37:0.784193 38:-1.984766 39:1.221643 40:-0.442728 41:0.744759 42:0.624122 43:-1.321847 44:0.020634 45:0.284210 46:0.858376 47:1.583322 48:-1.699144 49:2.939255 50:-0.745436 51:0.430314 52:0.421879 53:1.309431 54:-0.900472 55:0.395561 56:1.905838 57:-0.395085 58:-1.031830 59:-0.651383 60:-1.186705
-1 1:-0.753979 2:0.261571 3:-0.431931 4:1.453813 5:0.153401 6:0.500198 7:0.639481 8:-1.932462 9:1.889870 10:1.708363 11:-0.051941 12:0.849351 13:-0.288645 14:0.806122 15:0.343634 16:-0.621447 17:0.164206 18:0.461420 19:0.159002 20:-0.418550 21:0.358294 22:1.838375 23:0.385066 24:1.689948 25:-1.380901 26:0.742153 27:-0.277753 28:-0.875580 29:0.437046 30:-0.201965 31:0.009760 32:1.469423 33:0.578149 34:1.488370 35:1.083833 36:-2.007477 37:-0.101661 38:0.164952 39:-0.432201 40:-0.675553 41:-0.916638 42:1.446438 43:1.912222 44:0.522120 45:-0.622890 46:-0.205090 47:-0.468303 48:-0.366938 49:0.026306 50:-0.114191 51:0.335321 52:0.559762 53:-1.106528 54:1.947394 55:0.706051 56:0.655434 57:-0.842147 58:-1.316546 59:1.369639 60:0.110296
-1 1:-0.832992 2:0.885964 3:-1.381653 4:-0.168533 5:-0.724079 6:-0.813499 7:0.896501 8:-0.410021 9:-0.348009 10:-0.280189 11:-1.452222 12:-1.683021 13:0.582420 14:0.454162 15:-0.802207 16:-0.959272 17:0.349274 18:0.048026 19:1.958966 20:0.200136 21:1.716294 22:0.310588 23:2.140085 24:1.203257 25:0.285742 26:-1.178938 27:1.227230 28:-0.560056 29:1.405116 30:-0.756488 31:-0.706404 32:0.364149 33:-1.591142 34:-1.695379 35:-0.388469 36:0.179517 37:-0.987285 38:0.683564 39:0.636825 40:0.376325 41:-1.309055 42:1.734455 43:-0.114495 44:-0.673152 45:-0.020295 46:0.930063 47:-1.340702 48:1.635416 49:0.509133 50:-0.615100 51:-1.022245 52:0.991153 53:1.652479 54:-1.240171 55:-1.553977 56:-1.094618 57:-1.024563 58:-0.338698 59:-0.550466 60:-1.012069
-1 1:0.539697 2:0.734279 3:1.616365 4:0.592009 5:2.971014 6:-1.849595 7:-0.327598 8:0.951198 9:0.812604 10:-0.747662 11:-0.354976 12:-1.782195 13:-1.217521 14:-0.855847 15:-1.335496 16:0.326799 17:-0.243941 18:1.381742 19:-0.877579 20:1.169953 21:1.088356 22:1.328119 23:-0.559522 24:0.594957 25:0.114308 26:-1.330979 27:0.595174 28:1.038821 29:0.065652 30:-0.491310 31:0.164899 32:0.196529 33:1.171328 34:1.679274 35:1.150299 36:0.528120 37:0.868923 38:-0.530739 39:-1.366544 40:0.991728 41:-0.815562 42:-0.190695 43:-0.319576 44:-1.720530 45:0.901790 46:-0.521955 47:0.494234 48:2.370867 49:-0.867820 50:-0.525038 51:-1.283367 52:-0.032876 53:0.220041 54:-1.839579 55:0.777756 56:0.008876 57:-0.358208 58:0.310248 59:-0.048804 60:0.289131
-1 1:0.074076 2:0.507765 3:0.849685 4:-0.507641 5:-0.679141 6:0.147569 7:-1.130629 8:-0.835327 9:-0.235313 10:0.512411 11:0.995081 12:-1.107925 13:0.851709 14:0.180330 15:-0.339380 16:-0.362018 17:0.024179 18:1.298611 19:-1.257131 20:-1.445859 21:-1.009303 22:1.052341 23:0.788802 24:1.228697 25:-0.534324 26:0.235047 27:0.204875 28:-0.218379 29:-0.970174 30:0.802049 31:-0.841977 32:0.369892 33:-0.366288 34:0.242064 35:-0.326158 36:0.755585 37:-1.088985 38:1.649603 39:-0.232749 40:0.994851 41:1.377663 42:1.872668 43:0.198732 44:0.926978 45:-0.554773 46:-0.831700 47:0.323148 48:2.187671 49:-0.501643 50:0.996488 51:-0.301455 52:0.000762 53:-1.224422 54:-0.811955 55:0.951068 56:-0.794364 57:1.120573 58:-0.789640 59:1.884337 60:-0.223007
-1 1:3.553207 2:-1.504193 3:1.584658 4:0.140997 5:0.484393 6:-0.680206 7:-0.022115 8:2.336537 9:-0.178861 10:-0.065473 11:0.600724 12:0.160524 13:0.836824 14:1.082630 15:-0.208894 16:-1.052629 17:-1.148661 18:-0.004562 19:1.912521 20:-0.412885 21:0.382113 22:-0.029015 23:0.149545 24:0.369972 25:0.071419 26:-0.199204 27:0.853362 28:0.172010 29:0.249287 30:1.135336 31:-0.008933 32:0.536227 33:-0.149109 34:-0.473043 35:0.352119 36:1.154172 37:-0.567179 38:0.166041 39:0.770910 40:-2.240627 41:-2.081005 42:-1.083468 43:-0.726202 44:0.624329 45:-0.272081 46:-0.657522 47:-1.259724 48:-1.034720 49:1.316444 50:-1.258706 51:0.405269 52:-1.600620 53:-0.430825 54:-0.345997 55:-0.271235 56:1.626722 57:-0.020276 58:0.637898 59:0.202781 60:-1.256073
-1 1:-0.519210 2:1.340012 3:-1.580765 4:-2.366540 5:1.045334 6:0.180742 7:1.428639 8:-1.123006 9:-1.188679 10:-0.060952 11:-0.701987 12:0.146139 13:-0.984843 14:0.774630 15:0.874201 16:-1.099553 17:0.078994 18:0.973337 19:-0.399366 20:0.512687 21:1.042651 22:0.673230 23:-0.148339 24:-0.930644 25:0.044963 26:-0.919819 27:0.025575 28:0.864322 29:-0.125461 30:-1.172292 31:-1.584048 32:0.481206 33:-1.959329 34:-0.921518 35:1.656371 36:0.972220 37:-0.637281 38:-0.279067 39:0.196705 40:-0.805550 41:-1.024726 42:0.941027 43:0.244265 44:-0.809307 45:-1.405950 46:-3.108773 47:-0.408752 48:-0.404131 49:-0.261440 50:-0.824725 51:1.180363 52:0.589177 53:-0.872645 54:-1.130848 55:-0.402611 56:0.409965 57:0.729616 58:-0.043475 59:-1.081836 60:1.241964
-1 1:-0.664477 2:-0.119670 3:-1.359593 4:0.436388 5:0.134336 6:1.100350 7:-1.862243 8:-0.089717 9:-1.761746 10:-1.503594 11:0.473764 12:1.167544 13:0.753220 14:0.646554 15:-1.220160 16:-0.582588 17:0.997702 18:0.432656 19:0.065421 20:0.459891 21:-0.486048 22:0.422249 23:-0.074954 24:0.912107 25:0.320303 26:0.220471 27:0.060696 28:0.495004 29:1.079835 30:-0.111792 31:0.031890 32:-0.273896 33:-0.376454 34:0.416452 35:0.002948 36:-1.650879 37:0.466725 38:0.737077 39:0.612954 40:-2.344949 41:0.093709 42:0.361341 43:0.767201 44:1.181687 45:-2.159877 46:1.913697 47:-0.442603 48:-0.110474 49:0.689500 50:-0.697940 51:1.194550 52:1.451308 53:-0.604995 54:-0.657041 55:0.267926 56:-1.278422 57:-1.419903 58:0.070199 59:0.880758 60:-0.626331
-1 1:-1.276401 2:-0.457412 3:0.466002 4:0.293154 5:0.131804 6:0.566376 7:0.428001 8:0.375232 9:-0.191998 10:-0.447459 11:0.789223 12:0.310486 13:0.504659 14:0.575720 15:2.651451 16:-1.209912 17:-0.217447 18:-0.003799 19:-1.657550 20:0.867462 21:0.410852 22:-0.421880 23:-0.083761 24:1.561276 25:-0.068736 26:0.279129 27:1.703842 28:0.500601 29:-0.107542 30:-0.755608 31:1.196282 32:-0.093402 33:0.727001 34:1.457641 35:-0.078589 36:-0.019944 37:-0.562085 38:0.760761 39:-0.083301 40:-0.438072 41:-0.165616 42:-0.076609 43:1.247562 44:-0.524814 45:-0.552848 46:0.789062 47:-0.901912 48:1.240274 49:0.492472 50:-0.884330 51:-1.354399 52:-0.045473 53:0.534861 54:0.683916 55:-0.311717 56:0.007842 57:1.138471 58:0.487171 59:0.135547 60:0.891153
-1 1:-1.149428 2:0.464512 3:-1.751469 4:-0.379134 5:-1.073785 6:-1.187918 7:0.170603 8:-0.401438 9:1.926160 10:0.208773 11:0.386360 12:1.011464 13:1.850318 14:0.507951 15:-0.496734 16:-1.621531 17:-1.219754 18:0.458786 19:1.023964 20:-0.012189 21:0.145433 22:0.516903 23:0.841453 24:0.233114 25:-0.313984 26:-0.887971 27:-0.886242 28:0.287388 29:-0.822698 30:0.711123 31:0.074769 32:0.354393 33:0.283621 34:1.126904 35:0.385256 36:0.594129 37:0.507513 38:0.249297 39:0.826612 40:0.245949 41:-0.797036 42:0.106867 43:-0.291229 44:0.431003 45:0.317374 46:1.612058 47:0.921350 48:0.745910 49:-0.970873 50:-0.310565 51:-0.213677 52:0.461356 53:0.804997 54:0.443897 55:-0.471354 56:0.797727 57:-0.551717 58:-1.193192 59:-1.396449 60:-0.634984
-1 1:-0.380627 2:-0.655251 3:0.366850 4:0.856081 5:-0.450390 6:0.318100 7:0.104847 8:-0.155306 9:0.718358 10:-1.001453 11:0.815295 12:-1.012626 13:-0.054126 14:0.876970 15:-0.302130 16:0.161567 17:-0.992046 18:-1.245721 19:-0.680256 20:-1.257491 21:-0.471595 22:0.452956 23:0.000452 24:-0.602595 25:1.103045 26:0.942181 27:-2.247138 28:-0.976592 29:-0.149758 30:0.230019 31:1.209761 32:-1.064427 33:1.485404 34:-0.605482 35:-1.440239 36:0.789925 37:0.776916 38:0.631447 39:1.104094 40:0.436870 41:0.468587 42:0.232779 43:2.322566 44:-0.128248 45:0.661364 46:0.946974 47:0.157557 48:-0.738461 49:-0.164696 50:0.436305 51:0.424735 52:0.174774 53:-1.263936 54:-0.891341 55:0.260956 56:-0.389537 57:-0.323094 58:0.928109 59:-0.063369 60:-0.992692
-1 1:-1.560807 2:0.248937 3:1.206750 4:-0.451524 5:-0.960405 6:-0.075877 7:0.553209 8:0.605586 9:-2.136732 10:1.011599 11:-0.844864 12:0.240438 13:0.018377 14:-0.067276 15:-0.379095 16:-1.207095 17:-0.014432 18:1.286102 19:-2.637053 20:-0.901288 21:1.043497 22:-0.193501 23:0.258376 24:-0.111261 25:0.677678 26:-1.304552 27:0.446921 28:-1.356830 29:0.073071 30:-0.240326 31:-1.871079 32:-0.806039 33:0.026174 34:-0.776168 35:-0.678962 36:1.210406 37:0.106416 38:-0.718389 39:1.091022 40:2.192867 41:-0.801297 42:0.777197 43:-0.564880 44:-0.614428 45:-2.149947 46:1.444531 47:-1.415049 48:0.814313 49:0.578449 50:-1.076576 51:-0.134903 52:0.136805 53:1.485033 54:0.061932 55:-0.822976 56:-0.378219 57:-1.331124 58:-1.930012 59:0.814191 60:-1.475125
-1 1:-0.064043 2:-0.783958 3:0.387939 4:-0.511687 5:2.193473 6:1.612316 7:0.621742 8:-0.818582 9:0.537964 10:-0.341348 11:-1.051714 12:0.930084 13:0.196875 14:1.275128 15:1.261689 16:-1.222480 17:0.825446 18:0.156107 19:1.101014 20:-0.381835 21:-0.080324 22:0.538907 23:-2.336098 24:-0.135927 25:0.307300 26:-0.628903 27:-1.166318 28:-0.371904 29:0.404681 30:0.325309 31:-2.533384 32:0.521213 33:0.830081 34:-1.247305 35:-0.706974 36:-0.168511 37:0.982497 38:1.200119 39:-1.901861 40:1.159927 41:-0.279406 42:-1.368354 43:0.554919 44:-0.220887 45:-0.658771 46:-1.015280 47:0.491668 48:-1.195337 49:0.884458 50:-0.367009 51:0.217272 52:0.389098 53:-2.020840 54:-0.759301 55:-0.327847 56:-0.510911 57:0.734911 58:-1.838468 59:0.593702 60:-0.218562
-1 1:-0.210237 2:0.904849 3:-0.232532 4:-0.242969 5:0.645419 6:0.799828 7:2.134890 8:-0.650836 9:0.258570 10:-0.078653 11:-0.078912 12:-0.103311 13:0.690666 14:-1.615105 15:0.187423 16:-1.367313 17:-1.668416 18:-0.019919 19:-1.016457 20:-0.814521 21:-1.439289 22:-1.124839 23:1.597471 24:0.348518 25:-1.390944 26:0.390540 27:-0.149131 28:0.158918 29:0.136675 30:-0.079993 31:-0.441074 32:-1.432976 33:-0.432821 34:2.366542 35:-0.924276 36:0.957827 37:-1.058502 38:-0.635085 39:-0.484884 40:-0.426373 41:0.127668 42:1.550288 43:-1.619408 44:0.851899 45:-0.200108 46:-1.876020 47:1.061413 48:0.182570 49:0.984672 50:-1.180957 51:-0.417340 52:-0.085667 53:-0.350380 54:-0.152781 55:0.966343 56:1.155738 57:-1.580411 58:-0.114567 59:-0.306863 60:1.789961
-1 1:0.087383 2:0.087262 3:0.676683 4:0.939804 5:-0.315799 6:-0.179034 7:0.185770 8:-0.804024 9:-1.378419 10:-0.045392 11:-0.395745 12:-0.145780 13:-0.512470 14:-1.117825 15:-0.112568 16:0.628840 17:-0.617909 18:1.942334 19:0.915499 20:-0.423611 21:-1.270470 22:-1.623860 23:1.333083 24:-0.633235 25:0.930215 26:-0.038948 27:1.173453 28:0.686456 29:0.039673 30:0.325933 31:1.215189 32:-0.247448 33:-1.369688 34:-2.542490 35:0.839371 36:1.470470 37:-1.852127 38:0.915190 39:-0.446842 40:-0.920384 41:0.580380 42:0.713803 43:0.539973 44:-0.834818 45:1.469467 46:0.372993 47:-0.002837 48:-0.632995 49:-1.067763 50:0.050266 51:-1.414472 52:-0.199572 53:-0.054987 54:0.106150 55:0.397639 56:-0.481354 57:1.326401 58:0.693825 59:0.678594 60:1.222083
-1 1:-1.166039 2:-1.094845 3:1.116126 4:-0.443730 5:1.015789 6:0.157338 7:-0.561727 8:1.423085 9:0.795486 10:0.003317 11:0.210651 12:-0.704809 13:-0.181385 14:0.237531 15:-0.131892 16:-1.880614 17:-1.511385 18:0.401645 19:-1.592960 20:-0.988265 21:0.768108 22:1.307294 23:-0.133928 24:-0.454533 25:0.838583 26:-1.217288 27:-0.502028 28:2.417333 29:-0.059388 30:1.279504 31:-0.394537 32:0.371391 33:-0.912405 34:0.737648 35:-1.514056 36:1.505285 37:-0.300792 38:-0.821836 39:1.194085 40:-0.660307 41:-0.870694 42:0.036557 43:-1.369647 44:0.112678 45:-0.683408 46:2.166666 47:0.166893 48:0.638702 49:2.677315 50:0.891432 51:-0.916431 52:0.327654 53:0.607112 54:1.486362 55:0.637872 56:0.826301 57:0.097365 58:2.190791 59:-0.370041 60:0.727175
-1 1:0.090657 2:0.968183 3:-0.956064 4:-0.229399 5:2.127349 6:0.308206 7:0.146408 8:2.263964 9:-1.043785 10:1.475741 11:0.517237 12:1.116534 13:-1.499812 14:2.029382 15:1.532419 16:1.707779 17:0.665920 18:0.263222 19:0.362665 20:0.551720 21:-1.195225 22:-0.685567 23:0.132330 24:0.131695 25:0.818650 26:-1.269696 27:-0.422915 28:1.232898 29:-1.137063 30:-1.873986 31:0.557779 32:-0.194241 33:-0.372431 34:-1.013455 35:1.102253 36:-1.359287 37:-0.449431 38:-1.650060 39:1.169041 40:0.559347 41:-0.319286 42:-0.397875 43:1.154544 44:-0.384838 45:0.325175 46:-2.201816 47:-1.334829 48:-0.198521 49:-2.306452 50:-0.899630 51:-1.097029 52:-0.054830 53:-0.646554 54:-0.528698 55:-0.918470 56:1.291494 57:-1.140498 58:0.397895 59:1.250909 60:1.028037
-1 1:-1.052073 2:-0.684312 3:-0.085515 4:2.551556 5:-0.438431 6:-1.716153 7:0.565411 8:0.368539 9:-0.917227 10:2.280496 11:-0.771668 12:0.768969 13:-0.786352 14:-0.239961 15:0.930074 16:-1.134156 17:1.017830 18:1.054354 19:-0.975652 20:1.371051 21:-0.832431 22:1.429606 23:0.243838 24:0.373189 25:-0.903889 26:-0.470010 27:1.745164 28:0.012850 29:1.472763 30:-0.799246 31:-0.042173 32:-1.028427 33:-0.621130 34:-0.310232 35:-0.551520 36:0.257043 37:1.669423 38:0.924746 39:-1.931933 40:0.826837 41:-0.187569 42:-0.123136 43:1.211160 44:-0.075183 45:1.072492 46:0.955392 47:0.307759 48:2.710139 49:0.745095 50:-1.444197 51:-0.006199 52:0.340028 53:0.426340 54:0.251972 55:-0.410249 56:0.465265 57:-1.193377 58:-0.306882 59:0.134989 60:-0.651526
-1 1:1.587383 2:-0.196960 3:0.396320 4:1.549258 5:2.278555 6:1.504900 7:0.467943 8:-1.032036 9:-0.470169 10:-0.287477 11:0.019290 12:-0.382741 13:-1.363742 14:-0.984034 15:-0.595409 16:-0.603859 17:1.841489 18:-0.171681 19:-1.457027 20:-1.740371 21:0.321460 22:2.599367 23:-0.707366 24:0.429716 25:1.070528 26:-1.308411 27:-0.948315 28:-0.178678 29:0.373861 30:0.478427 31:-0.193704 32:-1.000788 33:-1.242462 34:-0.190776 35:0.533224 36:0.890941 37:0.140116 38:0.360736 39:0.805931 40:0.660146 41:-0.198436 42:-0.102366 43:1.880531 44:0.931154 45:1.436148 46:1.450185 47:1.039077 48:0.648962 49:0.579071 50:-0.650159 51:-0.634775 52:1.880783 53:0.665763 54:-1.225291 55:1.056637 56:-1.199325 57:-0.742763 58:0.196025 59:-0.527349 60:0.263460
-1 1:-0.807210 2:-1.817357 3:-1.050315 4:-0.012819 5:-0.691175 6:-0.186368 7:0.402058 8:-0.961275 9:-3.032885 10:-0.452094 11:0.236556 12:0.906850 13:-1.052849 14:0.710901 15:-1.551842 16:1.049967 17:-1.436390 18:-0.133540 19:-0.590894 20:0.091695 21:0.548529 22:-1.528825 23:-1.336305 24:2.092471 25:-1.537621 26:1.322539 27:0.951764 28:-0.114106 29:-0.303704 30:0.571169 31:0.564576 32:1.121929 33:-0.627602 34:-0.832577 35:0.107203 36:0.044373 37:-0.071919 38:1.079500 39:-2.250811 40:-0.459458 41:-1.213228 42:-0.494638 43:-0.781422 44:-0.527745 45:1.034876 46:-0.978855 47:-0.416726 48:-0.427980 49:0.053749 50:-0.126897 51:-1.593655 52:-1.249566 53:-1.797658 54:1.233192 55:-2.169918 56:0.867929 57:-0.036853 58:-0.818019 59:-1.441868 60:0.122747
-1 1:-1.338353 2:1.589458 3:0.841635 4:0.438277 5:1.375511 6:0.110544 7:1.533161 8:0.655492 9:0.736954 10:0.489427 11:-0.409802 12:-0.089960 13:1.218330 14:1.527600 15:-0.317174 16:-0.203722 17:1.211190 18:-1.283839 19:-0.838630 20:-0.346466 21:-0.553654 22:-0.517734 23:1.257238 24:0.113098 25:-2.639744 26:-0.836414 27:-0.561791 28:0.405012 29:0.084489 30:-0.183841 31:-0.321453 32:0.295998 33:0.063941 34:1.048235 35:-0.016192 36:-0.765683 37:-0.963429 38:-0.106781 39:-0.316580 40:0.008916 41:0.823859 42:-0.093605 43:0.267719 44:0.416048 45:-0.245370 46:-0.903633 47:1.318650 48:0.680370 49:-0.527238 50:-0.107880 51:0.329589 52:-1.394412 53:1.797883 54:0.000698 55:0.073153 56:0.411434 57:0.680397 58:-0.760538 59:-0.538811 60:-0.096406
-1 1:1.911516 2:-1.323622 3:-0.913021 4:0.098425 5:0.243384 6:-1.867624 7:-1.147536 8:2.145262 9:-0.073605 10:1.667541 11:-1.299446 12:-0.119128 13:-0.808895 14:0.914889 15:-0.976663 16:0.098482 17:-1.131574 18:-0.058578 19:1.230776 20:-1.280768 21:-0.183172 22:-0.393622 23:-1.836566 24:-1.905329 25:0.753486 26:0.854710 27:-1.508949 28:1.209356 29:-0.880902 30:-0.049188 31:0.667475 32:-0.053060 33:-0.789246 34:-0.307560 35:-0.281296 36:-1.294975 37:-0.586702 38:0.832207 39:1.796709 40:-0.148273 41:0.996135 42:-0.727979 43:1.724221 44:2.308679 45:2.454788 46:-0.636344 47:-0.965867 48:1.056147 49:-0.127267 50:-0.307385 51:-1.330147 52:0.295353 53:1.220600 54:-0.550223 55:0.158830 56:-0.767770 57:0.394271 58:0.786468 59:-1.109676 60:-0.412237
-1 1:-1.184433 2:0.315452 3:-0.621888 4:-0.028036 5:1.406718 6:0.995637 7:-0.717738 8:1.152461 9:1.890588 10:0.771621 11:-1.037880 12:-0.029077 13:-1.755436 14:-0.653260 15:2.196818 16:1.737694 17:-1.240205 18:0.422067 19:-1.833424 20:-0.168285 21:-1.482732 22:0.347066 23:0.306213 24:-0.542759 25:0.178457 26:1.589140 27:-2.281790 28:1.908109 29:0.700282 30:-2.141611 31:-0.615205 32:-0.148697 33:-0.441075 34:0.211168 35:1.214327 36:0.255794 37:-1.188732 38:-0.095924 39:-0.180190 40:-0.235463 41:1.545817 42:0.615310 43:0.580920 44:0.395042 45:1.305710 46:-0.209676 47:0.692987 48:-1.136642 49:-0.832049 50:-0.398764 51:0.618792 52:0.031453 53:1.896378 54:2.078971 55:-0.964450 56:0.530477 57:-1.578462 58:-1.243497 59:0.301822 60:-0.472237
-1 1:0.142904 2:0.743908 3:1.044330 4:0.145621 5:-0.307894 6:-0.691649 7:0.456102 8:0.719477 9:0.111275 10:1.128556 11:-0.313118 12:-0.191317 13:1.067238 14:0.219574 15:-2.091451 16:0.901452 17:0.598658 18:0.091883 19:-0.148337 20:0.157594 21:-0.688533 22:0.134488 23:0.155570 24:0.062413 25:0.379928 26:-0.705582 27:-1.243472 28:1.858681 29:2.352175 30:-0.315278 31:-0.331953 32:-0.026269 33:0.972122 34:0.243754 35:1.448238 36:0.769924 37:-2.437782 38:2.343563 39:-0.253333 40:1.739418 41:0.446301 42:-1.626316 43:-0.271155 44:-0.572055 45:-1.179148 46:0.162519 47:0.919366 48:0.451976 49:-0.380327 50:-0.898281 51:1.654893 52:-0.400655 53:0.631717 54:-0.960642 55:0.537892 56:-0.216957 57:0.333606 58:-0.377610 59:-1.211478 60:-0.862470
-1 1:0.651274 2:-0.285883 3:0.036305 4:0.169976 5:1.363879 6:0.230710 7:1.247615 8:-0.177136 9:-0.076457 10:2.986364 11:0.078285 12:0.304213 13:-0.967384 14:0.178986 15:-0.667012 16:1.469588 17:-0.026088 18:0.392775 19:-1.332638 20:-0.695289 21:-0.026592 22:-1.360078 23:0.901310 24:0.703633 25:-0.628504 26:0.551304 27:0.659599 28:1.341993 29:0.915356 30:0.537489 31:-0.362616 32:-0.268867 33:0.259164 34:-0.362499 35:-0.408901 36:1.084451 37:-0.446348 38:-0.000142 39:1.271015 40:0.393048 41:-1.025185 42:-0.933975 43:1.223466 44:0.814702 45:0.194604 46:0.050431 47:0.816604 48:-1.122319 49:-0.946100 50:-0.135189 51:0.856863 52:0.164915 53:1.350180 54:0.990544 55:-0.664075 56:0.118020 57:1.742965 58:-0.911327 59:-0.530709 60:0.447721
-1 1:0.266001 2:-0.758443 3:1.489224 4:-1.082027 5:0.489254 6:1.087097 7:-0.109449 8:0.886327 9:-0.238255 10:-0.717886 11:0.943297 12:0.177020 13:-0.377800 14:-2.683557 15:0.316345 16:0.171939 17:1.618453 18:1.164591 19:0.901084 20:-0.937983 21:1.070824 22:1.365851 23:1.230672 24:0.734163 25:0.294721 26:-0.651508 27:0.684627 28:1.228097 29:-1.748482 30:0.456387 31:-0.160079 32:0.944031 33:-0.527677 34:1.020272 35:-0.182533 36:1.022621 37:1.792032 38:0.242630 39:-1.357218 40:2.326936 41:-1.100093 42:1.270224 43:-1.595440 44:0.891827 45:-0.353086 46:0.145331 47:-0.769723 48:0.042336 49:0.312763 50:-1.125239 51:1.553951 52:-0.659283 53:1.607793 54:0.018612 55:-1.595495 56:-0.177068 57:0.085448 58:-0.200624 59:-0.093042 60:0.513947
-1 1:-1.691213 2:-0.028589 3:1.352760 4:0.881606 5:-1.110406 6:-0.264399 7:-0.438304 8:0.865888 9:-0.429753 10:-0.247834 11:-1.384184 12:1.128643 13:-0.559023 14:-0.848974 15:-1.280608 16:0.477579 17:0.027950 18:0.533719 19:0.509027 20:-0.574516 21:0.377455 22:-1.370662 23:-0.591237 24:-0.818135 25:-0.167534 26:0.796831 27:-0.274846 28:2.057090 29:-1.006425 30:2.392121 31:1.794621 32:1.548371 33:0.765061 34:0.673790 35:0.091199 36:1.167162 37:-0.833864 38:0.242953 39:-1.258924 40:0.873038 41:-0.553031 42:-0.862311 43:-0.789635 44:-0.119252 45:0.497582 46:-0.874722 47:1.079913 48:-0.277763 49:0.426775 50:-1.736842 51:-1.482049 52:0.593014 53:1.267544 54:-1.665796 55:-0.874614 56:1.004230 57:0.688372 58:0.116396 59:0.193681 60:0.254081
-1 1:-0.330368 2:0.158336 3:0.999801 4:-1.882941 5:-1.044121 6:1.441499 7:-1.874862 8:-0.556097 9:0.870289 10:-0.598122 11:-0.901109 12:-1.142959 13:0.053045 14:-0.807026 15:-1.386535 16:0.274705 17:0.846048 18:-0.389981 19:-0.755734 20:-1.137625 21:0.166649 22:-0.015909 23:-0.040973 24:-1.155512 25:1.618072 26:0.156820 27:0.076669 28:0.663789 29:0.173583 30:0.603166 31:0.592827 32:-0.491215 33:-0.319359 34:1.371446 35:1.929200 36:-0.359838 37:0.268415 38:-1.953221 39:0.418412 40:1.690559 41:-1.395992 42:0.680906 43:-1.125679 44:0.884173 45:0.011370 46:-0.146353 47:0.476347 48:0.116844 49:0.866672 50:0.612623 51:-0.669713 52:-0.741159 53:-0.222216 54:0.352048 55:-0.215223 56:-1.826300 57:-0.183371 58:-0.972077 59:-0.573829 60:-0.128475
-1 1:-0.172356 2:0.072600 3:-0.476843 4:0.224082 5:-1.491591 6:0.006278 7:-0.380044 8:1.029997 9:-2.615471 10:-0.516818 11:0.756873 12:0.489695 13:1.269949 14:-0.235755 15:0.580134 16:-0.424797 17:-1.697522 18:0.489080 19:-0.818350 20:-1.440372 21:-0.035818 22:-0.805029 23:0.206495 24:-0.982619 25:0.485216 26:2.143752 27:-1.712678 28:-0.045792 29:0.359100 30:0.253571 31:2.854718 32:-0.184793 33:-1.298290 34:-0.769107 35:0.374088 36:1.738138 37:0.934943 38:-0.683949 39:0.038736 40:0.022312 41:0.627874 42:0.551858 43:-0.783799 44:0.256952 45:-2.032171 46:-0.593201 47:1.043672 48:-0.475011 49:1.388350 50:-0.925453 51:-1.126580 52:0.971848 53:1.357956 54:-0.221295 55:1.257357 56:-2.091629 57:0.645672 58:-0.351276 59:-0.705463 60:1.453987
-1 1:0.821371 2:1.018028 3:0.826327 4:-0.438090 5:-0.370314 6:-0.715023 7:-2.040033 8:-0.027578 9:0.797757 10:-0.682796 11:-0.481917 12:0.218864 13:1.079260 14:0.600274 15:0.215451 16:0.186182 17:-0.522485 18:0.613978 19:0.175516 20:0.460641 21:0.647262 22:1.575729 23:-0.630656 24:-0.994395 25:0.120749 26:-0.535586 27:-0.410626 28:-0.386592 29:0.449063 30:-1.096835 31:-1.825894 32:1.523805 33:-0.485223 34:-0.777787 35:-0.528642 36:0.784148 37:-0.410511 38:-0.883735 39:-0.340906 40:-1.046126 41:0.665046 42:-0.911173 43:-1.168996 44:-1.095986 45:-1.335632 46:1.281243 47:-1.039178 48:-1.921412 49:-1.821045 50:0.777579 51:-0.634846 52:1.837687 53:0.875424 54:-0.412468 55:1.452126 56:-1.496949 57:1.172094 58:-0.681056 59:-1.056138 60:-1.783456
-1 1:0.010182 2:-0.177226 3:-1.567462 4:0.841830 5:0.060070 6:-0.089257 7:0.012621 8:2.160558 9:0.724690 10:0.960962 11:-0.333858 12:-0.474338 13:0.430061 14:-0.159340 15:0.278398 16:-0.124733 17:-0.074676 18:0.316219 19:0.415975 20:1.741344 21:0.421119 22:-0.317143 23:0.677073 24:0.182981 25:-0.804669 26:-1.771580 27:-0.604951 28:-0.765152 29:1.916323 30:-0.962209 31:0.530272 32:0.344732 33:0.899480 34:-0.876338 35:1.107372 36:-0.901750 37:0.266411 38:0.051441 39:0.247641 40:-0.531773 41:-0.654806 42:0.915744 43:-1.180503 44:-0.047139 45:-0.995693 46:-0.711847 47:0.625550 48:-0.609640 49:-0.639309 50:-0.256467 51:-1.377843 52:0.637754 53:-0.044869 54:0.041333 55:1.035163 56:1.257407 57:0.365611 58:-1.623157 59:0.356256 60:0.973079
-1 1:-0.989232 2:0.966934 3:-0.066261 4:0.279789 5:-2.054394 6:0.693271 7:-0.691059 8:0.399073 9:-0.114638 10:-0.083239 11:-0.464443 12:1.936762 13:0.666444 14:-0.380094 15:-1.917116 16:-1.093468 17:0.986001 18:1.087296 19:-0.599159 20:-0.084397 21:-0.557147 22:-0.355899 23:-1.317887 24:-1.013280 25:-1.733997 26:0.327564 27:0.797767 28:0.181865 29:0.203599 30:0.064401 31:0.943831 32:-0.481849 33:1.707768 34:-0.023489 35:0.587672 36:-0.102651 37:-1.072302 38:-0.910844 39:0.702701 40:-0.634858 41:0.620150 42:0.574010 43:2.362879 44:0.282941 45:1.608145 46:1.013475 47:1.396090 48:0.397770 49:-0.682751 50:-0.317041 51:-0.659675 52:1.979758 53:-0.771135 54:-1.642258 55:0.004843 56:0.221827 57:0.145661 58:0.664631 59:0.207559 60:-1.421859
-1 1:0.235666 2:-0.226784 3:0.604091 4:-0.042418 5:0.538319 6:-1.155892 7:2.194373 8:-1.197655 9:0.552475 10:1.951646 11:-0.622654 12:-1.513075 13:-0.511277 14:-0.795022 15:-0.528886 16:-1.235717 17:-0.697038 18:-0.353834 19:-0.584224 20:-1.047617 21:-0.251914 22:-0.466396 23:-1.286492 24:0.139165 25:0.004895 26:1.010380 27:1.552588 28:1.358913 29:-0.402314 30:0.813023 31:-0.835142 32:0.708875 33:2.115218 34:-1.036851 35:-0.083491 36:0.003502 37:0.030094 38:0.438292 39:-0.301734 40:-0.169192 41:-0.267189 42:0.202261 43:-2.016579 44:0.257579 45:-2.280104 46:1.607873 47:0.700940 48:0.763363 49:1.463448 50:-0.993319 51:-0.171556 52:-0.174137 53:-1.063102 54:2.433398 55:1.036395 56:-0.030575 57:0.698198 58:-0.235221 59:-0.513864 60:-0.159018
-1 1:-0.495415 2:-0.358427 3:0.353251 4:-3.717029 5:-0.568842 6:0.449534 7:0.697554 8:-0.573956 9:-0.393403 10:1.553176 11:-1.344069 12:0.163572 13:-0.345137 14:1.747926 15:0.126067 16:0.239218 17:0.693898 18:0.191973 19:-1.513564 20:-1.764101 21:-0.885609 22:0.562753 23:-0.381122 24:0.296091 25:0.250560 26:-0.291547 27:0.365618 28:1.114590 29:0.090801 30:-0.933099 31:0.898890 32:-0.782427 33:-0.748365 34:-2.173756 35:1.467386 36:0.338061 37:-0.678774 38:-0.784806 39:-1.239790 40:-0.116939 41:1.904945 42:0.260940 43:-1.332757 44:0.566787 45:0.203275 46:0.321464 47:0.008429 48:1.258605 49:-1.831875 50:-0.473006 51:-0.413495 52:-0.006570 53:-0.070796 54:0.329302 55:-1.265528 56:-1.121154 57:-0.289477 58:-0.698076 59:0.024807 60:0.605397
-1 1:0.792303 2:0.135256 3:-0.529910 4:-0.297089 5:-0.277805 6:0.340821 7:-0.623272 8:0.115366 9:-0.282813 10:-0.125249 11:-0.037456 12:0.814098 13:-0.131806 14:0.105822 15:0.512122 16:-0.121963 17:-2.239314 18:0.158501 19:-0.624452 20:-0.334201 21:1.311317 22:2.011321 23:1.324895 24:0.033343 25:-0.836578 26:0.874653 27:0.010217 28:1.443465 29:0.780568 30:-1.595996 31:-0.814818 32:-0.970974 33:0.006464 34:1.015073 35:1.114909 36:0.217233 37:-0.726808 38:1.212668 39:0.401228 40:0.220029 41:-0.830732 42:0.354214 43:-0.540091 44:-0.626356 45:-0.180262 46:0.460060 47:-2.061268 48:-0.940955 49:-1.135543 50:1.008689 51:-0.183653 52:1.443490 53:0.192865 54:0.488289 55:0.998727 56:1.189928 57:0.087005 58:-0.029657 59:0.441099 60:-0.732390
-1 1:-2.150447 2:0.297265 3:-0.777785 4:-0.496910 5:-0.384544 6:0.550454 7:-1.079180 8:0.090074 9:0.079629 10:1.100903 11:1.052206 12:-0.245163 13:-0.839299 14:0.527496 15:-0.895631 16:0.564940 17:0.514559 18:-1.793158 19:0.434727 20:0.193155 21:-2.287235 22:-0.822166 23:-0.186591 24:-2.445015 25:-0.024519 26:-1.003161 27:1.350497 28:0.113291 29:-0.850717 30:2.628867 31:-0.218327 32:0.678885 33:-1.110384 34:0.381532 35:1.365825 36:1.397322 37:0.096276 38:-1.678435 39:0.457549 40:2.196611 41:0.622827 42:0.299111 43:0.545434 44:0.772401 45:0.481393 46:-0.075205 47:0.597309 48:-0.151524 49:1.376343 50:-0.854312 51:-0.508619 52:-0.776909 53:-1.784484 54:0.112138 55:0.482962 56:-0.090658 57:0.224330 58:0.699387 59:-1.229451 60:-0.094784
-1 1:-1.464371 2:0.012825 3:-0.879262 4:1.361689 5:-1.235610 6:0.758394 7:0.306335 8:0.610752 9:-0.294670 10:-0.882286 11:-0.390022 12:0.881022 13:1.314275 14:1.332075 15:1.158727 16:-0.553674 17:-1.556573 18:-1.949124 19:0.397700 20:0.584899 21:0.200490 22:-0.478142 23:-0.477592 24:-0.035899 25:0.296338 26:-1.842435 27:1.445064 28:-0.146852 29:-0.587681 30:0.425087 31:0.416549 32:0.650620 33:0.884872 34:0.212569 35:1.688482 36:-0.398495 37:0.366316 38:1.376114 39:0.436576 40:0.321668 41:0.790863 42:-0.309979 43:0.732588 44:0.330321 45:0.164956 46:1.632099 47:2.258544 48:0.337697 49:-0.113331 50:-0.129929 51:-0.329283 52:1.720086 53:-0.309271 54:-0.647030 55:-0.463327 56:-0.643087 57:-0.102096 58:0.146554 59:-0.844344 60:-0.187562
-1 1:0.066032 2:-0.815273 3:-1.174305 4:-0.871060 5:-1.747971 6:-0.521769 7:-1.632982 8:-1.321206 9:0.574820 10:0.354451 11:-1.368994 12:0.689352 13:0.486461 14:-0.127524 15:0.285473 16:-0.618461 17:-0.000235 18:-0.687968 19:-0.599657 20:-0.892840 21:-1.529836 22:-0.086868 23:0.077797 24:1.141480 25:-0.795491 26:1.249224 27:0.820496 28:0.202073 29:-0.449066 30:-1.448447 31:-1.278746 32:-0.458787 33:-0.740225 34:0.046750 35:-0.817635 36:-1.209266 37:-1.099925 38:0.063314 39:0.420881 40:-0.945415 41:0.404784 42:1.952381 43:-0.270398 44:-1.073817 45:-0.569726 46:-0.012312 47:0.759226 48:0.673825 49:-0.832976 50:-1.203815 51:-0.437820 52:0.081031 53:1.615223 54:0.525383 55:-0.422103 56:1.188722 57:1.089491 58:-0.655552 59:0.583607 60:-0.616028
-1 1:1.219374 2:-1.007877 3:0.191661 4:-0.793240 5:-0.969762 6:0.458081 7:1.163438 8:0.173553 9:0.307271 10:0.018221 11:0.516179 12:0.253625 13:-0.824828 14:0.175131 15:-1.169804 16:-2.013882 17:-0.482168 18:0.178182 19:-0.387028 20:1.575055 21:-0.726561 22:1.525401 23:-1.129179 24:-1.294716 25:0.320537 26:-2.571387 27:-0.589126 28:-0.564112 29:0.012338 30:0.952583 31:-0.333119 32:-0.387581 33:-0.723243 34:1.282103 35:0.028165 36:0.776986 37:0.751701 38:-0.225360 39:-2.199612 40:-0.065638 41:0.668896 42:-0.281092 43:-0.595189 44:-0.242586 45:-0.681939 46:0.516312 47:-0.860023 48:-1.946247 49:0.415257 50:0.721725 51:-1.535791 52:-2.113438 53:-0.782647 54:1.641568 55:-0.269953 56:1.030246 57:0.931606 58:0.432640 59:0.989056 60:-1.492124
-1 1:1.449891 2:0.619135 3:-1.104429 4:-0.418667 5:-1.104969 6:0.946378 7:2.217046 8:-1.813106 9:-2.075175 10:-0.284098 11:-0.107328 12:-1.083059 13:2.464446 14:1.263380 15:-1.147299 16:0.563771 17:-1.085999 18:1.556650 19:1.325328 20:-0.901707 21:0.722477 22:1.187822 23:0.228250 24:-0.798006 25:0.787199 26:-1.734058 27:-0.653095 28:-0.991505 29:1.449403 30:-2.647706 31:-0.385060 32:1.122558 33:1.402064 34:-1.735866 35:-0.421321 36:-1.306171 37:-2.251599 38:-0.360005 39:1.133551 40:-0.304402 41:-1.936704 42:-0.599294 43:0.909216 44:-0.752390 45:0.420675 46:-2.485321 47:0.384729 48:-0.137880 49:-2.103180 50:0.849898 51:0.846997 52:0.418534 53:0.716415 54:2.206204 55:0.217787 56:0.875521 57:-3.129166 58:-0.165054 59:-0.033400 60:0.265465
-1 1:-0.926677 2:-0.020691 3:-0.806563 4:-0.789116 5:-0.746776 6:0.825170 7:-0.542200 8:1.284561 9:-0.654939 10:-0.692012 11:-1.612616 12:-0.570027 13:0.770660 14:1.827818 15:-0.088733 16:1.160528 17:0.812104 18:1.474329 19:-0.077282 20:-0.379469 21:0.170876 22:0.678464 23:0.567264 24:-0.576264 25:0.534333 26:0.045844 27:0.364372 28:-0.385543 29:0.432384 30:0.159788 31:-0.338819 32:-0.544953 33:0.020505 34:-0.299241 35:-0.981258 36:1.923417 37:-2.649550 38:-1.546553 39:1.006637 40:-0.738738 41:0.550722 42:1.764044 43:-0.487396 44:-0.445216 45:0.164242 46:1.809153 47:0.510438 48:0.104367 49:-2.061997 50:-1.836574 51:1.175180 52:-0.880016 53:-1.816743 54:0.710542 55:0.346010 56:0.367198 57:-0.642931 58:2.137566 59:-0.209725 60:0.870094
-1 1:1.459842 2:2.179712 3:-0.083933 4:-0.357630 5:-0.149319 6:-1.130541 7:-0.718952 8:0.963236 9:0.121067 10:0.754528 11:-1.684379 12:0.518925 13:-1.555379 14:0.190384 15:0.379146 16:0.556928 17:-0.116545 18:-1.200510 19:0.051576 20:1.719789 21:-0.732138 22:0.182200 23:0.062701 24:0.589851 25:-1.256888 26:0.924924 27:0.874992 28:0.083209 29:2.172993 30:-0.728873 31:1.359708 32:0.288142 33:1.465013 34:1.726532 35:0.967202 36:-1.945035 37:-0.912297 38:0.569946 39:-0.155956 40:0.936345 41:1.094540 42:-0.658175 43:-0.322413 44:-2.192223 45:0.007118 46:2.001320 47:1.307322 48:-2.307057 49:-0.368829 50:-1.055418 51:0.084010 52:0.522839 53:0.776215 54:-0.286472 55:0.063999 56:1.034581 57:2.015865 58:0.362252 59:-0.823993 60:-1.193493
-1 1:-0.136081 2:-0.316070 3:-0.023225 4:1.539177 5:-0.334300 6:1.138405 7:-0.090662 8:0.702528 9:0.492622 10:0.561045 11:2.411413 12:0.289830 13:-1.037451 14:0.134621 15:0.223425 16:-0.357844 17:1.020753 18:-1.650558 19:0.345986 20:-0.493448 21:-0.794293 22:0.980280 23:1.110643 24:-0.809739 25:1.253651 26:0.254678 27:1.184368 28:0.195080 29:-0.784648 30:-0.774994 31:2.048371 32:1.146634 33:0.179841 34:-1.091749 35:-1.386212 36:1.272205 37:0.028640 38:-1.398548 39:-0.640801 40:-1.039296 41:1.138101 42:1.446090 43:-0.665130 44:-0.316811 45:-1.987128 46:-0.908533 47:-0.841139 48:2.068592 49:-0.468541 50:1.035243 51:-0.279077 52:-1.322304 53:0.742527 54:1.289486 55:-0.167403 56:-0.811034 57:-0.249948 58:-0.458085 59:1.423580 60:1.630305
-1 1:0.547720 2:0.104097 3:-0.843656 4:-0.027289 5:0.850574 6:1.427527 7:0.299016 8:-0.917365 9:1.260571 10:-0.479701 11:0.626702 12:1.129772 13:0.105119 14:-0.277915 15:0.386558 16:0.097450 17:0.942884 18:-0.661831 19:2.413048 20:1.260446 21:1.327139 22:-0.163162 23:-1.386564 24:-0.091366 25:0.620944 26:0.676754 27:-0.236084 28:1.032883 29:0.493298 30:-0.131916 31:0.425452 32:0.611541 33:0.472871 34:-1.353332 35:1.479589 36:1.261875 37:-0.987106 38:0.897912 39:-1.227570 40:-2.004775 41:-0.394410 42:0.369280 43:-0.724324 44:-0.684579 45:1.900368 46:0.047643 47:2.181802 48:0.354897 49:0.450047 50:-0.445599 51:0.951352 52:1.898318 53:-1.022300 54:-0.922566 55:0.461165 56:-0.335927 57:1.763660 58:0.210669 59:-1.316039 60:0.062882
-1 1:1.622167 2:0.904566 3:-0.149200 4:0.523303 5:-0.774598 6:2.098120 7:-0.678594 8:-0.270551 9:-0.278321 10:-0.499435 11:-1.609457 12:-0.389686 13:-0.090279 14:0.729376 15:0.020920 16:2.275544 17:-0.107543 18:0.185428 19:0.819959 20:0.844630 21:0.629635 22:-0.534859 23:-1.216989 24:1.738115 25:-0.850104 26:-0.315620 27:-1.076871 28:0.760900 29:0.644936 30:-0.377383 31:0.958743 32:-1.234836 33:1.709887 34:-0.737419 35:1.162407 36:1.788567 37:0.675152 38:-0.879850 39:1.107860 40:0.576363 41:0.544981 42:-0.407985 43:-1.161937 44:1.290623 45:-1.132602 46:-0.480080 47:-0.535504 48:-0.450702 49:0.359558 50:-0.740292 51:-0.338931 52:-0.044848 53:0.272843 54:-1.421718 55:-0.817024 56:-0.392374 57:0.388824 58:0.257331 59:1.754361 60:-0.209401
-1 1:-1.778960 2:-0.813939 3:0.763794 4:1.330068 5:1.024937 6:-0.597652 7:-1.253562 8:-0.700824 9:0.689016 10:-0.534828 11:-1.363995 12:-1.371288 13:0.058672 14:0.646987 15:0.109030 16:-0.006709 17:-0.584119 18:-0.171464 19:0.748018 20:1.993932 21:1.371975 22:-0.275314 23:1.237002 24:-0.654534 25:-1.899548 26:0.035157 27:1.878446 28:1.135530 29:-0.165580 30:0.065504 31:1.962437 32:-0.791746 33:1.627665 34:1.357261 35:0.840980 36:1.288020 37:-0.591212 38:0.424346 39:0.799952 40:-1.604354 41:0.639069 42:-1.328281 43:0.274051 44:0.015709 45:0.105338 46:-0.894533 47:0.818935 48:1.173028 49:-0.249883 50:0.273753 51:1.015174 52:-0.447139 53:0.342695 54:-0.726797 55:0.789123 56:-0.638406 57:-1.010239 58:0.363006 59:0.020951 60:0.512497
-1 1:0.154266 2:0.728640 3:-1.305316 4:-0.008474 5:0.972609 6:0.985764 7:-0.423470 8:0.623245 9:-0.735355 10:-0.478861 11:0.994275 12:-0.833502 13:-0.122732 14:0.608856 15:-0.494643 16:-0.683144 17:0.072419 18:1.409839 19:1.721643 20:0.323902 21:-1.101839 22:-0.835888 23:0.774963 24:-0.111874 25:-0.118351 26:0.605266 27:-1.111165 28:-0.954690 29:-0.287536 30:0.788319 31:-0.383839 32:1.055573 33:1.171408 34:-0.980717 35:-1.110638 36:1.411490 37:-1.195170 38:-0.813681 39:-0.508793 40:0.134926 41:0.348096 42:0.382321 43:0.824566 44:-0.358772 45:0.755871 46:-1.608202 47:0.574817 48:0.454493 49:0.601025 50:0.190812 51:-1.016751 52:-0.478217 53:0.414436 54:0.523407 55:0.464369 56:-0.971699 57:0.363255 58:-0.285612 59:-1.338197 60:-0.138262
-1 1:-1.526812 2:-0.606653 3:1.048789 4:0.054690 5:-2.051119 6:-1.527208 7:0.228822 8:-0.770524 9:-0.603733 10:-0.946355 11:0.326460 12:0.930730 13:0.024488 14:0.008628 15:-0.263685 16:1.177250 17:0.510202 18:0.303718 19:-1.624616 20:0.568830 21:-0.111120 22:-1.342728 23:0.550807 24:1.092742 25:-0.191069 26:-0.767967 27:-2.250960 28:-1.051633 29:1.771057 30:-1.635094 31:-0.837570 32:-0.137060 33:-1.680214 34:-0.992361 35:1.200162 36:0.595775 37:0.179137 38:-1.439103 39:0.192263 40:1.210485 41:-0.681792 42:0.744017 43:0.767776 44:-0.592395 45:0.592442 46:-2.584941 47:1.217961 48:-1.319168 49:0.055186 50:0.100945 51:-1.820817 52:-1.053877 53:-0.423193 54:-0.054501 55:0.925558 56:1.433296 57:-0.592134 58:2.181762 59:0.564627 60:-0.833366
-1 1:-1.166447 2:0.399704 3:0.528132 4:-0.235787 5:-0.900095 6:-1.033468 7:2.026212 8:-1.472978 9:0.633281 10:0.555927 11:-1.000102 12:-0.533983 13:-0.995826 14:0.940842 15:0.922864 16:-1.436596 17:1.095933 18:-0.591497 19:-0.504834 20:-0.791272 21:-0.579062 22:-0.450850 23:0.008951 24:-1.035651 25:-0.062034 26:-0.857764 27:0.748731 28:-0.366424 29:0.038646 30:-0.243199 31:0.761358 32:-0.185680 33:-0.018028 34:-1.727983 35:-0.511036 36:2.044202 37:1.044075 38:0.491445 39:-0.183981 40:0.962616 41:0.486588 42:-0.134757 43:-0.461943 44:-0.418978 45:0.038456 46:-0.569421 47:0.877953 48:-1.120730 49:0.927905 50:-0.592284 51:-0.958212 52:0.931498 53:-0.767785 54:-0.660162 55:1.330997 56:0.390988 57:-1.167906 58:-0.240112 59:0.863059 60:-0.421909
-1 1:-0.433979 2:-0.004938 3:-0.048626 4:-0.549297 5:-0.710887 6:0.095131 7:1.701463 8:-0.005473 9:-0.874093 10:-0.622653 11:1.093079 12:-0.512815 13:-0.296757 14:-1.972802 15:1.124421 16:1.373429 17:0.463281 18:-2.296663 19:-0.894844 20:1.503922 21:0.711699 22:1.518907 23:0.579421 24:0.986196 25:1.199669 26:0.154926 27:1.673190 28:-1.153318 29:0.750604 30:-0.637299 31:0.486549 32:0.616493 33:3.142845 34:-0.992635 35:-0.122892 36:-0.871870 37:0.471486 38:0.907237 39:-0.459788 40:-0.008577 41:0.693081 42:0.556730 43:-1.081577 44:1.328546 45:-0.148195 46:-1.554875 47:1.658774 48:-1.276431 49:0.878309 50:-1.732222 51:-1.167651 52:-1.508070 53:-1.195361 54:-0.213670 55:2.335728 56:0.651999 57:0.151818 58:-0.606014 59:0.706621 60:0.111393
-1 1:1.143408 2:-0.594914 3:-1.415998 4:-0.205029 5:-0.979018 6:0.173867 7:-0.069698 8:-0.369230 9:-1.126731 10:-0.454793 11:-1.526882 12:-0.012504 13:-0.881079 14:2.513970 15:0.618624 16:-1.408275 17:-0.923399 18:-0.902561 19:-0.958468 20:0.882609 21:-0.675470 22:-1.577670 23:-0.057200 24:-0.370501 25:-0.342759 26:1.833635 27:0.553922 28:0.494026 29:-0.492956 30:-0.964541 31:-1.925355 32:-0.341932 33:0.386676 34:2.173103 35:-1.831751 36:0.687859 37:-1.551938 38:-0.344622 39:0.672730 40:0.468321 41:-0.099835 42:0.469027 43:-0.891991 44:-2.101230 45:-0.420917 46:-0.935420 47:1.205534 48:-0.945252 49:-2.306055 50:2.057764 51:1.520525 52:0.774248 53:0.560770 54:-0.556026 55:-1.972606 56:-1.213246 57:-1.058969 58:0.294388 59:0.154607 60:-0.912330
-1 1:1.747946 2:0.623002 3:0.266587 4:0.019691 5:-1.295401 6:0.611567 7:-0.216115 8:-1.827290 9:-0.327530 10:-0.236629 11:-0.146186 12:0.023560 13:0.287847 14:-0.367327 15:-0.163881 16:-0.005091 17:0.116264 18:-0.612155 19:0.857084 20:-0.324519 21:0.721428 22:-0.622841 23:1.313653 24:-0.456753 25:-1.306941 26:1.666344 27:0.947331 28:1.107635 29:0.707511 30:-1.924715 31:-0.187904 32:0.195232 33:-0.236032 34:0.343895 35:-0.727797 36:0.691323 37:-0.010767 38:0.364410 39:-0.648824 40:-1.827841 41:-0.639419 42:-1.606062 43:-0.549621 44:-1.649326 45:0.240585 46:-0.711332 47:-1.063641 48:0.144972 49:-1.121447 50:0.455114 51:-0.607708 52:0.652437 53:-0.353233 54:1.131967 55:0.771886 56:0.178914 57:-1.000647 58:1.298484 59:0.995196 60:-0.757327
-1 1:2.013640 2:0.357290 3:-0.250549 4:0.840908 5:0.008339 6:0.261074 7:0.257727 8:2.050946 9:-0.041246 10:-0.651333 11:0.983610 12:-0.751384 13:1.425079 14:-0.265824 15:-0.151176 16:0.224672 17:2.108456 18:0.631126 19:-0.458228 20:-1.696370 21:0.299488 22:0.089309 23:-0.325116 24:0.039934 25:1.223375 26:0.117709 27:0.568133 28:-0.209064 29:-0.257870 30:0.699296 31:-0.785753 32:1.018100 33:-1.671640 34:-1.192702 35:0.961254 36:0.700245 37:-0.122803 38:-0.218336 39:-0.240852 40:0.223453 41:-0.635008 42:-0.249065 43:-0.349147 44:-1.032369 45:-0.371061 46:-0.504764 47:-0.959827 48:0.083910 49:1.172495 50:1.536218 51:0.029211 52:-0.263361 53:-1.495465 54:-0.187471 55:0.828589 56:-1.423510 57:-1.415649 58:1.577268 59:1.574900 60:-0.162831
-1 1:-0.162107 2:0.896883 3:0.231242 4:-0.060767 5:1.264984 6:1.801292 7:-0.691609 8:-2.699132 9:1.105414 10:2.195174 11:1.349727 12:0.187905 13:0.353834 14:1.460416 15:-1.343350 16:-0.793873 17:-0.042783 18:1.716364 19:0.036440 20:0.060032 21:-1.535156 22:0.208722 23:-0.282887 24:-0.006185 25:0.173515 26:2.317958 27:-1.735797 28:0.058397 29:-0.960319 30:-0.114864 31:-0.123252 32:1.153069 33:-2.078376 34:0.095265 35:-0.197622 36:1.481536 37:1.244881 38:0.780977 39:0.119193 40:-0.719415 41:-0.757971 42:-1.400848 43:-0.510045 44:-0.050686 45:1.414169 46:0.033089 47:-1.020038 48:-0.157022 49:1.484128 50:-0.103254 51:0.459015 52:-0.667136 53:1.215828 54:0.524386 55:-1.183267 56:0.902594 57:-0.578542 58:-0.065219 59:1.083358 60:-0.807041
-1 1:-0.878779 2:0.284957 3:-0.101210 4:-1.385356 5:-1.178957 6:-2.729085 7:0.693785 8:-0.835572 9:0.069125 10:-1.253536 11:1.539480 12:-1.972673 13:-0.956239 14:0.149918 15:0.241495 16:-0.984930 17:0.931443 18:0.205618 19:-0.484222 20:-0.831566 21:-1.319623 22:-1.023971 23:-1.174159 24:-0.784697 25:-0.236412 26:-1.468603 27:0.472229 28:-0.810453 29:-1.673897 30:-0.437167 31:-0.260745 32:0.065094 33:-0.408114 34:-1.667130 35:0.080966 36:0.806886 37:0.657478 38:-1.384035 39:1.244498 40:-2.023700 41:-0.043997 42:1.212159 43:0.932311 44:-0.975804 45:1.101376 46:1.162689 47:-0.229524 48:-2.853824 49:-0.310266 50:-0.117429 51:0.424996 52:-0.133082 53:0.347568 54:2.909961 55:-1.140487 56:1.978657 57:1.626399 58:-0.558491 59:-1.285169 60:1.370911
-1 1:0.187765 2:-0.695387 3:0.323664 4:0.520764 5:1.327202 6:-0.912246 7:0.036394 8:-0.990176 9:0.733938 10:-0.003267 11:1.294635 12:-0.043085 13:-0.056632 14:0.187510 15:0.569045 16:-0.547512 17:2.491592 18:0.495293 19:-0.683369 20:-1.392913 21:-0.578008 22:2.088421 23:0.704547 24:-0.860438 25:0.008798 26:-1.094142 27:-1.317915 28:0.408733 29:2.196499 30:0.582478 31:2.152881 32:-2.200113 33:-0.099624 34:1.103252 35:0.019149 36:0.816425 37:0.470052 38:-0.248923 39:-0.496060 40:1.197860 41:1.020823 42:-0.560713 43:1.766023 44:0.341345 45:-0.632315 46:0.699224 47:-1.945777 48:0.501493 49:1.763891 50:0.199916 51:0.711413 52:1.636257 53:-1.712760 54:1.941247 55:0.601088 56:-0.607203 57:-1.131363 58:1.467061 59:0.396746 60:-2.315956
-1 1:-1.264909 2:-1.688951 3:1.647022 4:0.920474 5:0.835264 6:-1.221947 7:0.918651 8:-0.383977 9:-0.291103 10:0.138472 11:1.523769 12:1.279639 13:1.708793 14:-0.372083 15:-0.161121 16:1.462181 17:0.543381 18:-0.146913 19:-0.725165 20:0.741678 21:0.322831 22:-0.079344 23:0.391531 24:-1.350104 25:-0.927816 26:-0.317786 27:-0.740247 28:0.188497 29:-1.445040 30:-1.393213 31:-1.281608 32:-0.296984 33:-0.945748 34:-0.694476 35:-0.452646 36:-0.955750 37:0.807121 38:0.588031 39:0.077420 40:0.075215 41:0.761597 42:1.771406 43:-1.738796 44:0.750286 45:-1.501494 46:-0.330908 47:-0.363623 48:-0.968851 49:-0.373338 50:-0.950894 51:2.406321 52:1.093287 53:-0.558775 54:-1.076070 55:-1.273336 56:0.914968 57:0.601588 58:-0.190412 59:0.530600 60:-0.527726
-1 1:-0.723040 2:-0.060817 3:-0.290245 4:-0.305019 5:-0.200475 6:0.341755 7:-1.968656 8:0.564277 9:1.561138 10:-1.168000 11:0.546049 12:-0.580791 13:-0.562004 14:0.314441 15:-0.706943 16:-1.688093 17:-0.387480 18:1.158049 19:-0.751661 20:0.302874 21:0.564647 22:-0.165818 23:0.911852 24:0.336467 25:-0.048730 26:1.328807 27:-2.211917 28:0.002513 29:0.011943 30:0.819566 31:0.224935 32:-1.310646 33:-0.059067 34:1.252237 35:-1.101727 36:1.482243 37:1.696464 38:1.252012 39:0.417823 40:-0.783098 41:-0.284675 42:0.691899 43:0.336062 44:0.976145 45:-1.070596 46:0.630922 47:1.345155 48:-0.913762 49:1.274351 50:0.688851 51:-0.252308 52:0.314356 53:0.516649 54:-0.894769 55:-1.407433 56:-0.548075 57:-1.833283 58:0.008965 59:0.842229 60:0.752428
-1 1:-0.499646 2:-0.426241 3:-0.492258 4:-0.985374 5:1.328692 6:0.866611 7:0.185625 8:-1.084659 9:0.274742 10:-0.239095 11:0.002848 12:0.052506 13:0.219564 14:1.379036 15:-0.234620 16:-1.179492 17:-1.248262 18:0.636869 19:-0.453848 20:-1.522418 21:-1.472361 22:0.015232 23:0.562530 24:-1.102530 25:-0.144632 26:0.348125 27:0.688586 28:0.888345 29:-0.353205 30:-0.613384 31:-1.487302 32:1.141205 33:0.172042 34:0.377774 35:-1.913322 36:-1.822879 37:0.754662 38:0.510592 39:-1.853102 40:0.392758 41:-1.864684 42:1.467327 43:0.421421 44:0.279166 45:-1.261884 46:-0.072835 47:-0.476826 48:2.281576 49:0.276591 50:-0.856279 51:0.680321 52:0.546216 53:-0.577653 54:0.416540 55:0.228311 56:0.694943 57:1.468588 58:-0.066722 59:-0.471216 60:0.055152
-1 1:1.557618 2:-1.457525 3:-0.455407 4:-0.363338 5:-0.475024 6:-0.211593 7:-1.928976 8:-0.728856 9:-0.058783 10:2.085961 11:1.025500 12:-1.227344 13:-1.126033 14:1.121678 15:-1.861090 16:-0.804785 17:-1.723007 18:0.695720 19:-0.959414 20:-1.567169 21:-0.690826 22:-0.613418 23:-1.088830 24:0.540627 25:-0.236205 26:0.516565 27:-1.605372 28:-1.464316 29:0.318203 30:-0.245670 31:-0.734551 32:-0.798204 33:-0.645387 34:-0.120857 35:-0.883541 36:0.777315 37:-0.652681 38:-0.721026 39:0.487760 40:2.480527 41:-1.121366 42:0.383948 43:0.516473 44:-0.125125 45:-1.246356 46:-2.143470 47:-1.640774 48:-0.598154 49:0.794107 50:-0.136121 51:0.994317 52:0.463465 53:0.211535 54:-0.767819 55:-1.196825 56:-0.043568 57:-0.741657 58:-1.072431 59:1.896764 60:-0.272028
-1 1:-1.843474 2:2.061388 3:-0.984005 4:-0.258171 5:1.170663 6:1.604046 7:-0.349289 8:-1.548234 9:1.569545 10:1.470445 11:0.585325 12:-0.768544 13:-0.299258 14:0.959267 15:-0.657963 16:-1.005689 17:0.415547 18:0.769772 19:-0.038311 20:0.142324 21:1.341999 22:-0.158381 23:-0.287433 24:-0.398268 25:0.672675 26:0.373786 27:1.081684 28:0.975169 29:-1.309223 30:0.772253 31:-1.754060 32:-0.228392 33:-0.409654 34:-0.370606 35:0.404530 36:2.291862 37:0.979803 38:0.324975 39:-0.317502 40:-0.024711 41:0.163413 42:0.153620 43:-0.942580 44:-0.205795 45:1.088782 46:-1.924525 47:1.046669 48:-0.419021 49:-1.592067 50:0.330601 51:-0.976153 52:0.214517 53:-0.213721 54:2.100676 55:-0.320462 56:1.737074 57:-0.658274 58:-0.170641 59:0.635514 60:1.751114
-1 1:2.536989 2:-0.276277 3:1.040978 4:-1.381288 5:-0.058024 6:-0.387964 7:-0.407728 8:-0.779129 9:0.913733 10:0.676217 11:1.349965 12:0.170032 13:-1.676135 14:0.604041 15:-0.564910 16:1.101726 17:-1.356213 18:-0.692921 19:-1.170800 20:-0.227322 21:-1.999877 22:0.631074 23:-0.001514 24:0.241435 25:-0.253020 26:0.709004 27:0.172137 28:0.865007 29:0.762459 30:-1.007052 31:-0.874045 32:-1.419585 33:0.713807 34:-0.299531 35:0.849663 36:0.860981 37:0.629955 38:0.388631 39:-0.363285 40:2.229103 41:0.753582 42:0.694521 43:-0.788583 44:-0.743605 45:-0.531388 46:-1.854122 47:-0.672401 48:0.051558 49:-1.572452 50:0.598059 51:1.851497 52:-1.141753 53:-0.660834 54:-0.272315 55:-2.473438 56:0.003305 57:-0.121071 58:-2.128149 59:-0.789646 60:0.473015
-1 1:-0.096167 2:2.359168 3:0.812593 4:-0.000070 5:-2.360647 6:0.777599 7:-1.111575 8:-2.110512 9:-1.611108 10:0.591261 11:0.794053 12:-1.132526 13:0.163214 14:0.018455 15:0.037993 16:-1.690243 17:0.027066 18:0.293278 19:1.265788 20:-0.277313 21:1.315778 22:0.054127 23:1.318438 24:1.538519 25:1.289206 26:0.326213 27:-1.829476 28:-0.418447 29:-0.950065 30:0.220406 31:-0.023119 32:-0.495528 33:-0.783891 34:-0.081535 35:-0.002048 36:-0.962549 37:-0.048403 38:0.328612 39:0.731199 40:-0.240663 41:-0.784588 42:0.988084 43:-0.810900 44:-0.362854 45:-0.153927 46:0.136135 47:0.160797 48:-0.210985 49:-0.519583 50:0.205814 51:0.564101 52:-0.509130 53:0.038822 54:-0.800567 55:-0.152666 56:0.219453 57:-0.291092 58:-0.249970 59:1.246878 60:-0.389868
-1 1:0.809815 2:-0.214147 3:-0.676437 4:-0.181441 5:0.162344 6:0.091726 7:-0.006939 8:1.350649 9:0.843775 10:-0.802462 11:-0.735379 12:0.852282 13:-0.137012 14:1.107884 15:1.677997 16:-0.756405 17:-2.289727 18:-1.241599 19:1.202624 20:-1.446948 21:-1.066713 22:-0.944146 23:0.616863 24:0.848007 25:1.496601 26:-0.321735 27:1.171986 28:-1.806855 29:-0.391898 30:-0.235437 31:0.273494 32:-0.216471 33:1.125348 34:-0.222892 35:-0.420573 36:-1.174286 37:-0.120684 38:0.511397 39:-1.438829 40:-2.066349 41:0.307732 42:-1.755574 43:0.362527 44:-0.305762 45:-0.478712 46:-1.771935 47:0.227219 48:-0.344441 49:0.569847 50:-0.433458 51:0.420767 52:0.858153 53:-0.530713 54:-0.542132 55:1.533690 56:-0.108096 57:-1.561244 58:0.476297 59:-0.355821 60:0.830861
-1 1:0.399901 2:-1.854167 3:0.217239 4:0.988260 5:-0.484685 6:-1.827324 7:1.394097 8:-0.462453 9:-0.787698 10:-0.095377 11:-0.844806 12:-0.872384 13:-0.468475 14:-0.520243 15:-0.235920 16:0.402876 17:1.453649 18:0.521056 19:-0.742279 20:-0.022262 21:-0.779597 22:-0.344328 23:-0.456719 24:1.333283 25:0.188492 26:0.247571 27:-1.435838 28:-1.208169 29:-0.600869 30:0.372759 31:0.037953 32:-0.674604 33:2.236219 34:-1.013293 35:-1.212691 36:0.327374 37:1.877613 38:0.598126 39:-0.337759 40:1.344099 41:0.748182 42:0.081763 43:1.872543 44:1.108111 45:-0.925840 46:-0.057570 47:0.421813 48:0.604560 49:0.131227 50:-0.982567 51:-1.264742 52:-0.374416 53:-0.342841 54:0.580121 55:0.079908 56:0.776907 57:1.202933 58:-0.351648 59:0.810085 60:0.651162
-1 1:0.765066 2:-2.245202 3:-0.168136 4:0.810448 5:1.301941 6:0.248902 7:1.382415 8:0.764495 9:0.082279 10:-0.853491 11:0.278346 12:0.289734 13:-0.500121 14:-1.190778 15:0.267089 16:0.494681 17:-0.741227 18:0.295822 19:-1.325248 20:0.525058 21:-1.984066 22:0.812582 23:0.992718 24:0.748594 25:-0.322951 26:-1.767125 27:-0.056476 28:-0.068828 29:0.062327 30:-0.002426 31:0.544780 32:-0.589067 33:-0.822401 34:0.400717 35:0.416860 36:0.405199 37:-0.195472 38:1.307379 39:-0.146294 40:-1.636318 41:1.051265 42:-0.286297 43:-1.743670 44:-0.509250 45:0.425817 46:0.729462 47:0.326331 48:-0.334333 49:0.395241 50:0.398043 51:0.025331 52:-0.407716 53:-0.617796 54:0.517005 55:-0.719478 56:-2.001630 57:0.358278 58:-0.848874 59:-0.687505 60:-1.328733
-1 1:0.309337 2:-1.668811 3:-0.441325 4:1.003952 5:0.167174 6:-1.512188 7:0.054755 8:0.819154 9:1.809806 10:-0.251086 11:0.511084 12:-2.124760 13:0.494715 14:-0.803817 15:-0.555862 16:0.984865 17:1.128507 18:-0.418225 19:1.240082 20:0.093075 21:1.071557 22:-1.259631 23:1.093284 24:0.228326 25:0.905241 26:0.141971 27:0.720625 28:0.524774 29:0.005899 30:-1.131770 31:1.071572 32:1.264944 33:0.054510 34:0.378999 35:1.117367 36:0.643912 37:0.422612 38:0.761166 39:0.008180 40:-0.176173 41:-0.275448 42:1.584399 43:0.927533 44:-0.529007 45:0.061166 46:-0.032113 47:0.342073 48:-0.430925 49:-0.477835 50:-0.803209 51:-1.420582 52:-1.421673 53:0.308316 54:0.840916 55:0.119010 56:1.056298 57:-0.508973 58:1.881503 59:-1.130741 60:0.888073
-1 1:-0.169484 2:2.137720 3:-0.610190 4:0.435202 5:-0.932317 6:0.920466 7:-0.652571 8:-0.223656 9:1.075855 10:0.713468 11:-0.214509 12:0.526091 13:-1.550754 14:0.132102 15:-0.596626 16:-1.009503 17:0.107047 18:-1.603217 19:-0.371639 20:0.779831 21:0.371568 22:-0.180075 23:0.110321 24:-0.213381 25:1.261304 26:-2.322089 27:-2.994936 28:1.427733 29:0.575360 30:0.744903 31:2.106968 32:0.284301 33:-1.543202 34:0.559573 35:-0.501797 36:1.703422 37:-0.794984 38:0.601313 39:-0.261763 40:0.834925 41:-0.080215 42:0.148350 43:-1.764454 44:-0.451018 45:-0.673536 46:-1.459603 47:2.380947 48:-0.287093 49:0.091266 50:0.550302 51:0.631758 52:-0.361474 53:-1.699595 54:-0.808819 55:-1.763100 56:1.372162 57:-0.263323 58:2.754929 59:0.839633 60:-0.790752
-1 1:-0.817636 2:1.884925 3:0.399483 4:-0.492887 5:-0.430441 6:-1.343591 7:-1.393435 8:0.404615 9:3.148070 10:-0.218624 11:1.025444 12:-1.370536 13:-0.723616 14:0.842663 15:-0.260992 16:-2.379980 17:1.805449 18:-0.640791 19:1.853045 20:0.203796 21:0.995649 22:-0.576007 23:0.859368 24:0.959730 25:1.674942 26:0.332860 27:0.643655 28:-0.922380 29:-0.170967 30:-0.998885 31:-1.591968 32:-0.000026 33:0.930000 34:-0.640307 35:-0.979913 36:-0.435576 37:1.210749 38:-0.257137 39:-1.058561 40:0.510390 41:0.566148 42:1.706915 43:-0.586746 44:0.275238 45:1.815076 46:-0.325341 47:0.503203 48:1.771281 49:-2.817351 50:0.533589 51:1.029271 52:-0.059440 53:1.906752 54:0.658374 55:-0.047616 56:2.170369 57:0.765134 58:0.530328 59:1.736475 60:0.252380
-1 1:-0.822005 2:0.780524 3:-1.670477 4:0.289991 5:0.726879 6:0.343382 7:0.700055 8:-0.182803 9:-0.168057 10:1.028030 11:-0.853616 12:-0.836980 13:0.100520 14:1.518801 15:-1.411933 16:0.390581 17:0.466400 18:-0.939415 19:0.253594 20:-0.043096 21:-0.195349 22:-0.252969 23:0.717055 24:-0.231771 25:2.446233 26:-0.416795 27:0.714920 28:0.003068 29:0.103681 30:-0.035484 31:0.025766 32:0.264830 33:-0.068523 34:-0.275623 35:0.666335 36:-0.216733 37:-0.725812 38:0.802199 39:-0.380384 40:-0.903377 41:-1.039761 42:0.482781 43:-1.238316 44:1.386567 45:1.443693 46:0.574513 47:-1.644007 48:0.399436 49:-0.169186 50:-0.402731 51:-1.027912 52:1.550922 53:-0.223251 54:-0.744866 55:1.007315 56:-0.301378 57:0.497713 58:0.535219 59:0.575227 60:-0.076678
-1 1:-0.161196 2:1.489538 3:0.725582 4:1.660361 5:1.425595 6:1.025259 7:-0.708530 8:0.483784 9:1.094897 10:-0.893782 11:0.296424 12:-1.202153 13:-0.266936 14:-1.025328 15:0.586106 16:0.645870 17:0.151455 18:-1.626424 19:-0.895679 20:0.179190 21:1.028256 22:-1.111097 23:0.886405 24:-2.517388 25:-1.437630 26:-1.265842 27:-0.177834 28:1.181208 29:-0.435974 30:-0.679868 31:-0.149550 32:0.355190 33:1.349806 34:-0.161978 35:-0.942242 36:0.244506 37:-1.916677 38:1.119505 39:-1.870976 40:0.948234 41:-1.305644 42:0.888792 43:-0.149770 44:0.177888 45:0.416056 46:-1.073817 47:1.019927 48:0.576862 49:0.019771 50:-1.247828 51:0.883126 52:0.002227 53:-1.156291 54:-1.078944 55:1.671676 56:1.017639 57:2.319136 58:0.448959 59:-1.054411 60:0.994656
-1 1:-0.618743 2:0.215030 3:0.068183 4:1.528715 5:1.169349 6:0.287977 7:0.439806 8:-0.472234 9:0.134937 10:0.032001 11:-0.516913 12:-0.130112 13:1.207152 14:-0.395472 15:-0.350803 16:1.658964 17:0.487412 18:2.048401 19:-0.586864 20:1.299891 21:-0.500387 22:-0.432046 23:1.045547 24:0.282011 25:-1.567029 26:0.034555 27:-0.905516 28:-1.515108 29:0.691906 30:1.134254 31:-2.420589 32:-0.827781 33:-0.810524 34:-0.514266 35:-0.619853 36:1.054406 37:0.143691 38:-0.706123 39:-0.974821 40:-1.709892 41:2.265565 42:-1.126510 43:-0.699261 44:-0.456832 45:2.025898 46:-0.434670 47:0.924591 48:1.372240 49:0.990054 50:1.423829 51:-0.415390 52:0.124559 53:1.568326 54:0.024242 55:0.222780 56:0.714441 57:-0.374348 58:-0.843547 59:-0.335244 60:-1.807127
-1 1:-0.982117 2:-1.428018 3:-0.598048 4:-1.829891 5:0.325927 6:0.256193 7:0.110734 8:-1.399999 9:-1.129609 10:-0.272176 11:-1.071419 12:-2.636219 13:0.190799 14:-1.364146 15:-1.845692 16:1.460138 17:0.354684 18:-0.336766 19:-0.179985 20:2.591456 21:0.035641 22:-0.358736 23:0.003790 24:-0.194668 25:1.055180 26:2.339101 27:0.416480 28:0.558278 29:-1.209269 30:0.254958 31:-0.161277 32:-1.534372 33:0.672142 34:0.706667 35:-0.536183 36:0.201015 37:-1.350200 38:-0.976178 39:-0.851860 40:0.908418 41:0.797053 42:1.374038 43:1.123082 44:0.932223 45:1.232354 46:-0.768060 47:1.169550 48:-1.495790 49:0.574359 50:-2.072571 51:-0.495400 52:-0.777520 53:0.256391 54:0.531046 55:0.309228 56:0.013657 57:0.248868 58:0.204536 59:1.290739 60:-0.401471
-1 1:0.869576 2:-1.064300 3:0.251119 4:0.617317 5:0.673714 6:0.442505 7:0.359606 8:-1.597170 9:-2.323635 10:0.965479 11:-0.704440 12:-0.952937 13:-0.089566 14:-0.408708 15:-0.094442 16:-0.725258 17:0.795122 18:-0.571500 19:-0.436747 20:-0.156596 21:0.361636 22:-1.967759 23:-0.006435 24:0.928513 25:-0.138864 26:-2.142269 27:1.569653 28:0.257162 29:0.846540 30:-1.006699 31:0.384362 32:0.309537 33:0.370003 34:-0.504134 35:-1.170837 36:-1.045946 37:0.565653 38:-1.337872 39:-0.346833 40:-0.988772 41:-1.263917 42:-0.602333 43:1.599518 44:0.759724 45:-0.991609 46:-0.381249 47:-1.813954 48:-0.637030 49:-0.672037 50:0.307010 51:1.839163 52:0.626752 53:0.347419 54:-0.207929 55:1.215325 56:-0.468692 57:0.569053 58:-1.142483 59:1.183838 60:0.296476
-1 1:-1.039677 2:-0.495612 3:-1.450423 4:1.663621 5:-0.572622 6:-0.946572 7:0.756058 8:0.547073 9:-1.126009 10:-0.204317 11:1.146265 12:-0.490010 13:0.261016 14:1.143065 15:0.416004 16:0.709592 17:0.329080 18:-0.448326 19:0.848230 20:-0.996548 21:-0.622905 22:-0.106360 23:1.290418 24:1.219553 25:0.084307 26:0.536945 27:-0.587754 28:-1.251438 29:1.245473 30:-1.360421 31:-0.854203 32:1.303128 33:-1.138729 34:1.957988 35:0.232369 36:-0.646289 37:0.863851 38:2.796323 39:0.268297 40:-1.375546 41:-0.508360 42:-0.126771 43:2.111411 44:0.373915 45:1.443967 46:-2.011260 47:-0.980885 48:-0.612637 49:0.013348 50:0.177051 51:0.622917 52:0.587353 53:-1.417217 54:0.249262 55:0.290536 56:1.238880 57:0.719581 58:0.353751 59:1.064149 60:-1.576387
-1 1:-0.104646 2:1.210073 3:-1.027840 4:-0.051388 5:-0.836358 6:0.018587 7:0.251587 8:1.612387 9:0.828581 10:-0.219704 11:-1.173197 12:-0.475076 13:-0.028307 14:-0.150545 15:0.006106 16:0.785439 17:-1.406312 18:1.690587 19:-0.942148 20:-1.621622 21:-0.675254 22:-0.576309 23:-1.495862 24:0.432944 25:-1.268594 26:0.349515 27:-0.754200 28:0.161501 29:-0.398702 30:0.044324 31:1.625216 32:-0.705696 33:0.283959 34:-0.348073 35:-0.120265 36:1.318843 37:0.463776 38:-0.123480 39:-0.802545 40:-0.572737 41:1.072986 42:0.003266 43:0.292709 44:-0.648703 45:1.057064 46:-0.620860 47:-1.375294 48:0.088632 49:1.121952 50:0.040683 51:1.699799 52:1.624584 53:-0.041436 54:-0.720173 55:1.099206 56:-0.867517 57:0.994059 58:0.589772 59:-0.677313 60:-0.141806
-1 1:-0.669851 2:-0.588250 3:-1.111893 4:1.065023 5:-0.308435 6:0.894198 7:0.680716 8:0.945973 9:1.132624 10:-0.199565 11:0.014894 12:-0.747284 13:-0.601950 14:-1.206669 15:2.392163 16:-0.283741 17:-0.099308 18:-1.317414 19:0.850251 20:1.456537 21:-0.762829 22:0.147182 23:-0.836145 24:0.071094 25:-0.584768 26:-1.146099 27:0.068974 28:1.460263 29:-1.094638 30:-0.795409 31:-1.179154 32:-0.988557 33:-0.438579 34:0.128722 35:-0.115619 36:1.678992 37:0.548215 38:0.152013 39:-0.071085 40:0.044063 41:-1.530630 42:1.502063 43:1.477009 44:-0.101942 45:-0.443409 46:-0.285327 47:1.380913 48:-1.756276 49:0.127766 50:-0.509251 51:-2.168760 52:-1.356354 53:1.223102 54:0.398144 55:0.550996 56:-1.174092 57:0.472067 58:-0.521071 59:-0.580343 60:1.105426
-1 1:0.601217 2:1.072624 3:-0.200433 4:0.383552 5:-1.340806 6:0.943107 7:2.372096 8:0.935262 9:0.871342 10:-0.734751 11:0.601040 12:-0.833212 13:0.491361 14:0.495479 15:-1.300400 16:-0.984345 17:1.213732 18:-2.002428 19:0.019814 20:-0.375245 21:0.350497 22:1.006643 23:1.474805 24:0.672493 25:-0.444619 26:-0.014528 27:-0.364845 28:-0.322593 29:1.014852 30:0.145979 31:-1.622364 32:0.983219 33:0.880399 34:-0.151724 35:-0.697025 36:0.610724 37:1.095215 38:-0.158286 39:1.008397 40:0.673056 41:-0.733615 42:0.546770 43:-1.323180 44:0.170643 45:-1.492488 46:1.905189 47:0.878847 48:-0.489393 49:0.436985 50:-0.354279 51:0.085647 52:-1.877513 53:-1.552409 54:-0.257913 55:1.251983 56:0.144295 57:0.631906 58:0.156735 59:-0.768244 60:-0.221945
-1 1:-0.287909 2:-1.759275 3:-0.167788 4:1.650264 5:0.258548 6:1.105217 7:-0.510815 8:-0.633826 9:1.536259 10:0.292534 11:-1.154402 12:0.475488 13:0.010341 14:1.122784 15:0.653819 16:-0.297164 17:1.001143 18:-0.543332 19:-1.512249 20:-0.318195 21:0.696456 22:-1.118338 23:1.897478 24:2.282764 25:0.111379 26:0.109105 27:-0.817043 28:0.056114 29:0.695627 30:-0.126836 31:1.529709 32:-1.729146 33:0.265849 34:-1.278721 35:0.938296 36:-0.730701 37:0.163194 38:-0.695785 39:0.489311 40:0.501522 41:1.214251 42:0.554688 43:0.492467 44:-0.044653 45:-0.322119 46:0.000732 47:-2.780164 48:-2.819532 49:-0.458895 50:-0.194669 51:-0.821542 52:0.320602 53:-1.306340 54:0.485251 55:-1.341565 56:-0.886528 57:-0.290261 58:0.236529 59:0.788554 60:-0.163645
-1 1:0.641987 2:-0.977841 3:1.515408 4:-0.286619 5:-1.315217 6:-0.335406 7:-0.885398 8:0.360617 9:0.199408 10:1.751974 11:0.370954 12:-1.639322 13:-0.840926 14:0.446573 15:-0.819247 16:1.574862 17:-0.518851 18:0.568626 19:-0.128334 20:1.766990 21:0.631417 22:1.184688 23:0.924036 24:-0.540704 25:-0.132195 26:0.926363 27:-0.764815 28:0.704013 29:0.624539 30:1.672933 31:-0.557027 32:0.606724 33:1.025113 34:0.251163 35:1.606363 36:-0.199653 37:-0.429272 38:-0.849676 39:0.268256 40:-0.000950 41:0.489392 42:-0.200732 43:0.887524 44:-0.030612 45:0.683226 46:0.277149 47:-0.697537 48:-0.499113 49:0.060263 50:-1.492532 51:-0.659332 52:0.305516 53:-1.669793 54:-0.302351 55:-1.450112 56:-0.868668 57:0.529737 58:-0.793233 59:-1.735272 60:0.333171
-1 1:1.081750 2:0.438234 3:-1.558625 4:-1.645362 5:-1.697684 6:0.406473 7:-1.127042 8:-0.624791 9:0.434697 10:-0.380764 11:-0.167274 12:-0.212294 13:-0.877772 14:2.225688 15:0.846524 16:-0.816977 17:-1.103961 18:1.026748 19:-0.127600 20:-1.008540 21:0.208759 22:-0.341839 23:0.953632 24:-1.555135 25:1.677871 26:0.642319 27:-1.379746 28:-0.529571 29:0.506852 30:1.412628 31:-0.254879 32:-0.443627 33:1.384736 34:0.018249 35:0.315128 36:-0.916481 37:-0.372179 38:0.046669 39:-1.170015 40:-0.379488 41:2.198015 42:1.763183 43:-0.069651 44:1.388368 45:0.537654 46:0.971607 47:-0.506052 48:0.360017 49:-0.257914 50:-0.765609 51:-0.801082 52:0.081523 53:1.180849 54:-0.200957 55:1.667046 56:2.306191 57:0.181636 58:2.055218 59:0.812337 60:-0.747452
-1 1:-2.394692 2:0.311276 3:-1.013956 4:1.336294 5:-0.113970 6:-0.464020 7:-0.553839 8:1.675765 9:-1.765182 10:-0.273641 11:-0.002566 12:0.120795 13:0.347243 14:-0.075110 15:-0.567042 16:-0.310168 17:0.320626 18:0.463989 19:-0.694969 20:0.379828 21:-1.019285 22:0.273473 23:2.116946 24:-1.525146 25:1.123048 26:-0.193937 27:-0.297376 28:0.528935 29:-0.045448 30:1.060051 31:-0.970872 32:-0.022560 33:-1.998244 34:-1.642576 35:1.733068 36:0.023784 37:-0.467547 38:-1.545382 39:0.458679 40:0.589482 41:-0.000301 42:-1.500433 43:-0.036315 44:0.030344 45:0.163799 46:-0.519520 47:1.546836 48:0.174526 49:1.571365 50:0.751268 51:-0.675045 52:0.002643 53:-0.459264 54:-0.747871 55:-0.386278 56:0.323855 57:-0.942758 58:-1.113693 59:-0.546015 60:-0.826697
-1 1:1.172230 2:-0.862687 3:1.383830 4:1.394576 5:-1.328533 6:-0.165202 7:-0.829359 8:0.123978 9:-0.403679 10:0.799178 11:-0.455051 12:0.384944 13:1.317834 14:0.941320 15:-0.998673 16:1.625966 17:-0.702739 18:-0.391105 19:0.326514 20:0.138806 21:1.255724 22:-0.603419 23:2.034917 24:-0.896590 25:0.625837 26:-1.238936 27:-1.310491 28:-0.045667 29:0.173225 30:-0.607087 31:1.133335 32:-0.788500 33:0.439958 34:0.422237 35:-0.227139 36:1.724054 37:-0.763630 38:0.737645 39:1.040305 40:2.275356 41:-0.264783 42:-0.774509 43:-0.182244 44:1.170050 45:0.193098 46:0.089807 47:-1.325388 48:0.303929 49:-0.131858 50:0.115561 51:-0.357914 52:0.544657 53:0.085219 54:0.760653 55:-0.131134 56:0.509597 57:0.638681 58:-1.036243 59:-1.077391 60:-0.868694
-1 1:-0.031456 2:0.082238 3:0.093715 4:0.693550 5:-0.179383 6:-0.362520 7:0.843127 8:1.338425 9:-0.598892 10:1.768965 11:-0.660995 12:0.064615 13:-1.423568 14:1.394811 15:-0.690910 16:1.076971 17:-1.784592 18:-0.566384 19:-0.391837 20:-2.049259 21:0.217716 22:-0.981257 23:2.938832 24:0.088994 25:-2.220720 26:-0.633336 27:-1.664293 28:0.138970 29:0.412456 30:1.550921 31:-1.486246 32:0.330979 33:1.704991 34:0.345865 35:-0.413780 36:-0.605147 37:2.063132 38:0.851684 39:-0.950417 40:-0.090727 41:1.322820 42:0.694899 43:-1.124175 44:1.151033 45:1.354526 46:0.256621 47:0.090114 48:0.434497 49:-0.307764 50:0.172887 51:1.181578 52:1.705859 53:-1.781367 54:0.750269 55:-0.606281 56:-1.330549 57:-0.679018 58:0.226892 59:0.079980 60:0.224076
-1 1:0.923205 2:-0.463487 3:-0.396792 4:0.076462 5:0.566987 6:-0.920851 7:1.173164 8:-0.385349 9:-0.152025 10:1.247177 11:1.650934 12:-1.075749 13:-0.683334 14:1.073518 15:0.253287 16:1.455298 17:-0.142798 18:-0.701334 19:-0.666953 20:-2.830713 21:0.739405 22:-1.140832 23:1.650196 24:0.061173 25:0.575223 26:0.728210 27:-1.594013 28:0.840135 29:-0.024658 30:0.537220 31:1.034753 32:-1.544207 33:0.263870 34:-1.218001 35:-2.307495 36:0.349833 37:-1.312771 38:-0.053200 39:-0.691972 40:-1.825872 41:-0.671747 42:-0.534639 43:0.340754 44:-0.957821 45:-0.931456 46:-0.042893 47:-0.660402 48:0.532488 49:-0.717421 50:-0.142070 51:-0.895458 52:1.129484 53:-0.162734 54:-0.547878 55:-2.194245 56:0.769216 57:-1.303241 58:0.309166 59:0.969455 60:0.622397
-1 1:1.138932 2:1.721275 3:0.414901 4:-0.614209 5:0.157423 6:0.281833 7:1.015338 8:0.751132 9:-0.665902 10:0.502202 11:1.162322 12:0.337353 13:1.497192 14:-1.381540 15:0.044816 16:-0.991333 17:-0.261981 18:0.181030 19:-0.085125 20:1.608062 21:-0.101089 22:0.680297 23:1.292592 24:-0.943438 25:2.884714 26:-1.417221 27:2.109465 28:0.228757 29:-0.338147 30:1.394545 31:-0.079203 32:-1.128795 33:2.631216 34:0.051690 35:-0.233004 36:-1.488746 37:0.625207 38:0.422376 39:-1.097225 40:0.342825 41:0.410610 42:-0.693688 43:0.528679 44:-0.036768 45:-1.320072 46:-1.804629 47:-1.321378 48:0.899168 49:-1.856549 50:0.107074 51:1.179019 52:-1.141784 53:1.005136 54:1.293584 55:0.091481 56:-1.281892 57:-0.936984 58:0.966525 59:0.074530 60:0.833448
-1 1:-0.026362 2:-1.283513 3:2.324239 4:-0.337283 5:-0.633394 6:-1.486847 7:-1.265811 8:-1.162038 9:0.144084 10:-0.463857 11:-0.837869 12:-0.623876 13:0.024043 14:-0.441860 15:0.827904 16:0.056738 17:0.566494 18:-0.137685 19:-1.306052 20:-0.825908 21:0.076457 22:-0.619922 23:1.367840 24:1.249923 25:-2.211454 26:-0.184560 27:0.164956 28:-0.647103 29:0.098224 30:-0.170462 31:0.497948 32:0.321553 33:-1.481984 34:1.897769 35:0.755438 36:-0.235787 37:0.259744 38:0.725591 39:0.918070 40:0.374702 41:-0.748823 42:-0.473285 43:0.309640 44:-0.444080 45:0.506976 46:-1.073902 47:0.653162 48:-0.709036 49:-0.096460 50:-0.420499 51:0.820423 52:0.036780 53:-0.250265 54:-1.368621 55:1.059441 56:-1.247123 57:-0.979725 58:0.615100 59:0.821005 60:0.338421
-1 1:0.541458 2:0.505234 3:-0.018868 4:-0.410413 5:-1.534185 6:0.480745 7:-0.940568 8:-0.135772 9:0.281487 10:-0.195298 11:-1.218279 12:-1.218557 13:-1.706702 14:-1.455661 15:-0.213975 16:0.975704 17:2.620240 18:-0.806120 19:1.526349 20:0.406596 21:-1.042239 22:0.922879 23:-1.978407 24:-0.622363 25:0.029693 26:0.128431 27:1.164036 28:0.754520 29:-0.717601 30:-0.405687 31:-0.792138 32:-1.344331 33:-0.896399 34:0.352004 35:1.963291 36:-0.469954 37:-0.237117 38:-1.406186 39:-0.352787 40:0.290714 41:0.158478 42:-1.474156 43:0.502847 44:2.138465 45:-0.328344 46:0.851996 47:0.264290 48:0.223462 49:-0.293962 50:0.254555 51:-0.958925 52:-0.767947 53:0.535160 54:-2.062418 55:-1.014132 56:-1.170784 57:-1.065375 58:1.041075 59:0.098957 60:-2.361164
-1 1:-0.852098 2:0.335995 3:-2.368966 4:0.483818 5:0.660230 6:0.115334 7:-0.558974 8:-1.635920 9:0.603762 10:-1.573195 11:-0.079035 12:-0.686757 13:-0.888469 14:-0.456059 15:0.390073 16:-0.875844 17:-0.051506 18:-0.127142 19:-1.046615 20:0.129042 21:1.283605 22:-0.624266 23:0.353984 24:-1.157406 25:1.195166 26:0.319325 27:-1.379070 28:0.393932 29:0.379340 30:0.243854 31:-0.232290 32:1.746747 33:0.592133 34:-1.014625 35:0.888326 36:-1.337924 37:-0.025329 38:0.611676 39:-1.878096 40:-0.051180 41:0.088099 42:-0.889942 43:0.848065 44:0.451318 45:-1.730689 46:-0.926636 47:-0.055908 48:1.300267 49:-0.563911 50:-0.056680 51:-1.037777 52:-0.203590 53:-1.172519 54:0.824269 55:-1.224738 56:0.717317 57:0.396530 58:-1.306885 59:-1.396731 60:-0.523136
-1 1:-1.052840 2:0.741026 3:1.052752 4:1.453744 5:-0.264083 6:1.148735 7:-1.205278 8:1.611758 9:-0.274487 10:1.327860 11:1.103634 12:0.537565 13:0.537926 14:0.882135 15:0.628923 16:1.892983 17:0.539893 18:0.648706 19:-0.410087 20:0.403213 21:0.966972 22:0.137721 23:-0.185804 24:1.154781 25:0.421937 26:0.652960 27:0.757747 28:-1.088792 29:-1.397690 30:-0.245106 31:-0.555661 32:-0.027205 33:-0.359118 34:-1.632921 35:0.352977 36:-0.995918 37:-0.082499 38:0.033241 39:-1.387086 40:-0.306951 41:-1.354956 42:0.651822 43:0.001772 44:-0.729262 45:-0.953536 46:1.827357 47:-0.357936 48:1.205478 49:-0.824500 50:-0.891472 51:0.669650 52:-1.429965 53:-2.008306 54:-1.222651 55:-0.120582 56:-3.119933 57:-0.120827 58:0.320076 59:-0.209558 60:-0.879475
-1 1:-0.679494 2:0.453562 3:-1.424373 4:-0.017056 5:-1.786955 6:-1.386652 7:0.562669 8:1.067061 9:-1.611244 10:1.134753 11:0.309007 12:0.833710 13:0.011693 14:0.428079 15:1.362975 16:-1.394167 17:0.155357 18:0.516047 19:1.796803 20:0.020198 21:-1.244821 22:-0.676447 23:-0.683823 24:-0.069011 25:-0.210551 26:0.990477 27:-0.522907 28:0.673434 29:-2.089475 30:-0.378196 31:0.563667 32:-0.212573 33:0.565663 34:-0.424052 35:0.410132 36:-2.057362 37:-0.589141 38:-0.888396 39:-0.439968 40:0.525958 41:-0.810932 42:1.098154 43:-0.889332 44:-3.027189 45:-1.048756 46:0.227716 47:1.545499 48:-0.302141 49:0.137309 50:0.780183 51:-0.371245 52:1.889251 53:-2.147180 54:0.297410 55:0.366551 56:-1.024398 57:0.664321 58:-0.666897 59:1.169804 60:-1.283882
-1 1:0.357392 2:-2.471420 3:-0.623000 4:1.623920 5:0.086596 6:0.318425 7:-1.302160 8:-0.648656 9:0.659790 10:0.975951 11:0.847456 12:0.125207 13:-0.086368 14:0.501607 15:-0.077361 16:0.963529 17:-0.233968 18:0.107251 19:0.121390 20:-1.975387 21:-0.105008 22:-1.004446 23:-0.789764 24:-0.065947 25:0.903508 26:-1.948130 27:-1.089382 28:0.011922 29:-0.545530 30:-0.459956 31:-1.916571 32:1.446360 33:-0.061258 34:0.296526 35:-0.177464 36:-0.688443 37:0.430525 38:-0.764833 39:-2.374508 40:-0.140217 41:-0.176235 42:1.382033 43:-0.524078 44:-0.471433 45:0.874697 46:-1.047223 47:2.449259 48:-1.636422 49:0.377044 50:1.092514 51:-1.647195 52:-1.488518 53:0.082216 54:0.093384 55:-1.873704 56:0.212428 57:1.030538 58:-0.071343 59:1.320263 60:0.365407
-1 1:-0.850685 2:0.778460 3:2.383925 4:2.127788 5:0.500832 6:1.709549 7:-0.970545 8:0.289684 9:-0.246330 10:0.534851 11:-0.091973 12:-0.451803 13:-0.708135 14:1.080204 15:0.526740 16:1.501934 17:-0.869177 18:-1.118980 19:-0.914987 20:-1.187955 21:-0.245939 22:-1.398891 23:0.000155 24:1.061966 25:-0.414415 26:0.156710 27:0.995471 28:-0.407832 29:-0.066288 30:0.573251 31:0.835882 32:-2.339593 33:-0.241686 34:-0.394131 35:-0.802867 36:-2.015544 37:0.326097 38:-1.177640 39:-1.444266 40:1.169709 41:-0.687001 42:1.009838 43:-0.506729 44:1.954316 45:0.832481 46:0.720867 47:-0.424792 48:-0.729124 49:0.054715 50:0.806821 51:-0.340042 52:0.264360 53:-1.915270 54:0.480953 55:0.736416 56:-1.090088 57:-2.221529 58:0.797251 59:-2.708486 60:1.142024
-1 1:-0.676426 2:-1.614309 3:0.086595 4:-0.564420 5:-0.536986 6:-0.910515 7:0.778029 8:0.958417 9:0.247585 10:0.327509 11:-0.819546 12:0.321641 13:0.903849 14:-0.855282 15:-1.692442 16:-0.522081 17:1.697828 18:-0.630567 19:-0.636448 20:-0.104389 21:1.762189 22:1.082120 23:0.057997 24:-0.412946 25:-1.381382 26:1.048730 27:0.148279 28:0.935185 29:-0.194958 30:-1.694911 31:-0.340705 32:-0.541082 33:2.190978 34:0.021895 35:0.949601 36:-0.370226 37:2.225591 38:-1.278730 39:-0.913674 40:-0.466985 41:0.461280 42:0.376607 43:1.732791 44:-1.049030 45:0.086865 46:-0.302954 47:-0.159069 48:-1.472259 49:-0.004124 50:-0.134374 51:1.355462 52:0.392408 53:1.915780 54:0.030167 55:0.766712 56:0.718361 57:-0.789269 58:0.097120 59:-0.605476 60:0.039248
-1 1:0.750414 2:-0.549575 3:-1.083761 4:-0.978607 5:-0.977764 6:-0.504443 7:0.452773 8:0.333634 9:0.251253 10:0.593764 11:-0.886944 12:1.306234 13:1.618373 14:-0.926747 15:-0.637827 16:-0.506779 17:0.119878 18:0.482600 19:2.488546 20:-0.888150 21:-1.571837 22:0.308500 23:-0.205695 24:-0.236370 25:-0.631260 26:-0.061633 27:0.224006 28:2.283541 29:-0.248114 30:-1.780665 31:0.250091 32:-1.397080 33:-0.367917 34:-1.284059 35:-0.738465 36:2.032895 37:0.058913 38:1.159355 39:-0.297258 40:1.388576 41:0.512356 42:0.368622 43:0.635976 44:0.301705 45:0.212803 46:-0.049094 47:1.089258 48:1.775899 49:0.738863 50:-1.815423 51:-1.246809 52:-0.283609 53:0.248889 54:-0.330361 55:1.296034 56:1.199057 57:2.043497 58:-1.046453 59:0.893227 60:0.221816
-1 1:0.734260 2:-2.114667 3:0.660570 4:-0.804888 5:-0.337353 6:-0.627931 7:-0.056556 8:-1.743451 9:0.136932 10:0.858377 11:-0.015434 12:-0.660748 13:-0.807831 14:1.914119 15:-1.765046 16:0.821729 17:-1.996886 18:0.377799 19:-1.171889 20:-0.669079 21:0.964074 22:0.810245 23:1.553002 24:0.302943 25:-2.073046 26:-0.486449 27:0.623508 28:1.501834 29:-0.385493 30:-0.406967 31:1.803882 32:1.615688 33:0.532120 34:0.170100 35:-1.030197 36:0.089306 37:-2.427475 38:0.307767 39:1.343504 40:-0.445227 41:0.734686 42:0.071839 43:1.293268 44:-1.600778 45:0.665157 46:1.528616 47:-0.898428 48:1.076229 49:1.951235 50:0.576954 51:1.406243 52:-0.703863 53:-0.590922 54:-1.452383 55:-0.709954 56:-0.999656 57:2.054326 58:-0.871406 59:-0.556074 60:-0.633493
-1 1:1.764141 2:1.396959 3:0.178508 4:0.505984 5:-0.786752 6:-1.723114 7:0.805698 8:1.131304 9:-0.515391 10:0.700602 11:-0.434974 12:-0.814997 13:0.625966 14:0.117098 15:0.086949 16:-0.291647 17:-0.410674 18:2.066298 19:0.090027 20:-0.126619 21:0.095128 22:1.247940 23:1.040688 24:0.343507 25:0.947086 26:0.873825 27:-1.123011 28:-0.345087 29:1.054178 30:-0.909140 31:-0.064249 32:-1.013832 33:0.494336 34:0.301192 35:0.701897 36:0.147134 37:0.860726 38:1.356181 39:-0.907102 40:0.067898 41:0.749484 42:0.166238 43:-2.058904 44:0.397765 45:1.177420 46:0.999962 47:-0.891843 48:-0.958940 49:-0.658663 50:1.585777 51:0.317482 52:-1.499087 53:-0.292572 54:-0.692233 55:0.783408 56:0.510095 57:-0.951580 58:-0.463330 59:-1.008286 60:0.046222
-1 1:0.994489 2:0.175630 3:-0.683355 4:1.049290 5:0.294638 6:0.407881 7:0.717349 8:1.447983 9:-1.470752 10:-0.197046 11:0.851637 12:0.455036 13:0.263077 14:2.548258 15:0.665018 16:-0.171475 17:-0.069386 18:2.066677 19:-0.734604 20:1.327306 21:1.253476 22:0.972886 23:0.868980 24:0.933384 25:1.086376 26:-1.475483 27:0.507460 28:-0.193650 29:-0.223668 30:0.492010 31:1.547327 32:-0.415650 33:-0.948463 34:-0.797797 35:0.934126 36:1.090752 37:0.527139 38:0.986604 39:-0.920642 40:-0.882807 41:0.727745 42:-2.056085 43:-2.198338 44:0.899594 45:-0.117606 46:-2.301099 47:-0.975601 48:-0.008080 49:-1.122576 50:0.634104 51:-2.206922 52:-0.187382 53:-1.711527 54:-0.373245 55:-0.325299 56:0.821234 57:-0.267988 58:2.237828 59:1.146429 60:0.094211
-1 1:0.600297 2:-1.654076 3:-0.917011 4:-0.198839 5:-0.963540 6:0.224157 7:-0.886361 8:1.008988 9:-0.371758 10:0.612217 11:-0.950346 12:0.707330 13:0.015310 14:-0.178130 15:1.113015 16:-0.162772 17:0.064148 18:-0.297230 19:-1.359413 20:-2.346530 21:-1.375980 22:-1.037295 23:-0.082375 24:-2.181061 25:-1.254329 26:-1.333450 27:-0.660766 28:0.680492 29:-1.319272 30:-0.019920 31:-1.043404 32:-0.788545 33:0.456911 34:-0.362106 35:-0.410769 36:-0.107495 37:-0.248042 38:-2.258114 39:0.274824 40:0.591299 41:-0.485883 42:0.074510 43:-0.887975 44:1.624817 45:-0.914164 46:0.790289 47:-0.332043 48:-1.041959 49:-2.121359 50:1.414854 51:0.126787 52:-1.390553 53:-0.956331 54:1.764372 55:-1.321535 56:1.118765 57:1.340798 58:0.211866 59:-0.106405 60:-0.235557
-1 1:1.517778 2:-0.603047 3:0.136415 4:-1.512006 5:-0.223586 6:1.564587 7:-1.514318 8:-2.255329 9:-1.566033 10:1.523020 11:-1.397829 12:-0.522309 13:1.077240 14:1.446406 15:0.151995 16:0.932843 17:-0.421447 18:-1.751992 19:-0.990105 20:0.793618 21:-0.549299 22:-0.433446 23:-0.259206 24:-0.986921 25:2.445528 26:-1.198154 27:0.618575 28:-0.766127 29:-1.670328 30:1.476548 31:0.354938 32:-0.964987 33:-1.212788 34:-0.138659 35:-0.327594 36:-0.547356 37:-0.193583 38:1.092491 39:-1.639811 40:-0.467973 41:0.935635 42:-0.151007 43:1.489219 44:0.420035 45:0.702807 46:2.591134 47:-1.033493 48:-0.301486 49:0.668026 50:1.772337 51:-0.824431 52:0.245624 53:-0.133059 54:0.320667 55:-1.223855 56:0.494871 57:0.069671 58:0.857685 59:-0.239981 60:0.088666
-1 1:-0.820738 2:-1.321547 3:-0.379427 4:-1.003901 5:0.993202 6:0.980247 7:-0.935277 8:-0.594755 9:0.218892 10:0.691901 11:2.370275 12:0.054036 13:0.937827 14:1.970764 15:-1.314530 16:0.749797 17:-1.056568 18:1.150544 19:0.595103 20:0.676874 21:-0.628891 22:-0.481334 23:0.838128 24:0.217966 25:-2.152080 26:2.383206 27:-0.364321 28:-0.206578 29:1.105716 30:-2.719664 31:-1.570226 32:0.149499 33:0.605664 34:-1.065930 35:-1.958525 36:1.236384 37:-1.420931 38:0.637048 39:1.322107 40:1.061710 41:0.523267 42:1.283793 43:2.041848 44:0.743193 45:-0.285976 46:1.382823 47:0.090765 48:-1.044552 49:0.274451 50:0.493720 51:1.133034 52:1.147526 53:-1.507747 54:1.634764 55:0.522384 56:0.109764 57:-0.001293 58:1.571403 59:-0.036409 60:-0.722329
-1 1:1.296681 2:-1.199627 3:-0.364574 4:1.739956 5:1.126335 6:0.172700 7:-0.357897 8:0.425329 9:0.710201 10:-1.036279 11:-1.350295 12:-0.924066 13:1.185771 14:1.646498 15:-1.174507 16:-0.816479 17:0.424986 18:-1.608162 19:0.132452 20:0.613844 21:-0.265972 22:0.623999 23:0.004175 24:-0.648002 25:0.561627 26:0.335365 27:0.944490 28:0.826347 29:0.880001 30:-1.141957 31:-0.087863 32:0.825193 33:1.481387 34:0.153628 35:0.844359 36:-1.098373 37:2.059772 38:-1.033534 39:-1.008831 40:1.260757 41:0.998250 42:0.077143 43:0.422218 44:0.255401 45:1.419261 46:-0.805240 47:-0.970354 48:-0.366687 49:0.220226 50:1.632746 51:-0.891057 52:1.179792 53:1.361207 54:0.389182 55:-0.006220 56:0.019726 57:-1.896126 58:-0.595803 59:0.055435 60:1.151055
-1 1:-0.861103 2:3.150470 3:-0.922050 4:-0.239026 5:-1.150306 6:-0.043497 7:0.252622 8:-0.617510 9:0.975012 10:-0.071998 11:1.095363 12:-1.649031 13:1.061357 14:-0.521383 15:1.642447 16:0.233470 17:-1.333449 18:2.011282 19:0.995503 20:-1.488098 21:-0.346610 22:-0.351244 23:0.736448 24:1.019397 25:0.167059 26:2.647365 27:0.614501 28:-0.563210 29:1.529821 30:-0.949062 31:1.032339 32:1.812461 33:-1.638892 34:1.254381 35:1.477457 36:0.695636 37:-1.542297 38:-1.028704 39:-1.199348 40:0.519069 41:-0.109009 42:0.799374 43:0.550104 44:0.975478 45:0.511439 46:-1.654117 47:0.577878 48:-1.059154 49:0.859434 50:-0.071812 51:0.478413 52:0.815831 53:0.304801 54:-1.226017 55:-0.311106 56:0.805595 57:2.324966 58:0.067649 59:0.417582 60:0.248291
-1 1:-0.290162 2:-1.780357 3:1.597997 4:-0.803825 5:-2.182498 6:1.368724 7:-0.391378 8:1.749415 9:0.903209 10:0.258697 11:1.734199 12:-0.925834 13:0.091179 14:-0.249811 15:-0.541371 16:0.485747 17:0.432769 18:0.695785 19:-0.346966 20:0.079918 21:0.154300 22:-0.549705 23:-1.865885 24:0.285779 25:0.948802 26:1.432332 27:-0.898989 28:-0.390913 29:0.872122 30:0.273698 31:-0.241121 32:-1.135530 33:-1.378781 34:-0.946927 35:-2.245809 36:0.266869 37:-0.147756 38:-0.911237 39:0.383575 40:-0.185791 41:0.031971 42:0.211978 43:0.582436 44:-0.866879 45:-0.323407 46:0.383255 47:-2.191192 48:-1.491156 49:0.245293 50:0.589491 51:1.022602 52:0.605626 53:0.312113 54:0.184710 55:-0.609889 56:0.804455 57:-0.746698 58:-0.287576 59:-2.319159 60:-0.654970
-1 1:0.838447 2:-0.501614 3:-1.265862 4:0.544966 5:-0.137623 6:0.772868 7:1.692416 8:-1.268243 9:-0.706479 10:-0.384341 11:-0.129065 12:-0.446343 13:-0.512735 14:-0.395196 15:0.469717 16:1.265079 17:0.183886 18:-0.386675 19:-0.764519 20:-0.717679 21:-0.121848 22:0.258375 23:0.409031 24:-2.072575 25:-0.230633 26:-1.606112 27:1.048820 28:-0.350449 29:-0.489622 30:-1.893450 31:-0.105246 32:0.564015 33:0.912442 34:0.911236 35:0.584887 36:0.157157 37:-1.046706 38:-0.499737 39:0.681472 40:-0.397631 41:-1.289235 42:1.768631 43:-1.141058 44:-0.865049 45:-1.211054 46:-0.186996 47:-1.013450 48:0.778748 49:-0.528084 50:-0.372412 51:-0.101030 52:-0.523312 53:-0.631753 54:-1.109430 55:0.128173 56:0.127381 57:-0.543002 58:0.502598 59:-1.224217 60:-0.072513
-1 1:0.295195 2:0.557009 3:-1.610306 4:0.304846 5:0.345665 6:0.056929 7:0.084937 8:0.373392 9:0.270230 10:0.870849 11:-0.664693 12:0.293999 13:0.056862 14:-0.034004 15:0.136144 16:-1.194568 17:0.343002 18:0.667258 19:0.770159 20:0.510774 21:-1.071360 22:1.032901 23:0.633922 24:0.012157 25:1.399856 26:-0.347707 27:-0.016371 28:-1.070788 29:0.115653 30:-1.762339 31:-0.059403 32:-0.308908 33:-0.362764 34:-1.827998 35:1.126609 36:0.117980 37:0.138340 38:1.172673 39:-1.257703 40:-0.425453 41:-1.002573 42:0.231602 43:0.387427 44:-0.613612 45:-2.243972 46:0.431345 47:-1.136252 48:-0.651979 49:-2.123848 50:-0.007691 51:0.613154 52:0.326381 53:1.707906 54:-0.206280 55:-0.064482 56:-0.578606 57:-2.443162 58:-0.563294 59:0.246987 60:-1.444562
-1 1:-0.113115 2:0.072346 3:-0.049669 4:-0.164556 5:0.327480 6:1.088516 7:0.610124 8:0.071955 9:0.241624 10:0.515847 11:-0.380784 12:-1.346021 13:-1.032039 14:-2.083506 15:1.090798 16:1.531134 17:0.392438 18:-1.668696 19:0.530089 20:0.093813 21:-0.713526 22:-1.909872 23:0.242995 24:-0.050059 25:-0.331959 26:0.056892 27:-2.413024 28:1.236981 29:-1.528694 30:0.516321 31:0.033086 32:0.170259 33:1.963358 34:-1.128776 35:2.374643 36:-1.330678 37:-1.642107 38:0.401967 39:0.132606 40:0.344636 41:-0.096366 42:1.149488 43:-1.306653 44:-0.042616 45:1.180129 46:0.850165 47:2.240145 48:-0.563383 49:1.402361 50:0.230180 51:-0.890140 52:-0.750352 53:0.118570 54:-0.917011 55:0.006524 56:-0.411701 57:-0.552578 58:0.354255 59:-0.266621 60:1.604377
-1 1:-0.358529 2:-0.042633 3:0.704944 4:0.921253 5:0.995405 6:0.780030 7:1.156683 8:-1.609645 9:-0.042833 10:0.480922 11:0.821086 12:-0.204579 13:-0.477752 14:-0.773257 15:1.343505 16:-0.437633 17:0.112296 18:0.709222 19:-0.020472 20:0.838186 21:-0.216651 22:0.148762 23:0.388098 24:-0.721754 25:0.188429 26:-0.307681 27:-1.153683 28:1.554212 29:-0.574930 30:-1.285617 31:-0.073974 32:-1.563248 33:0.943168 34:-0.484599 35:-1.602600 36:0.093131 37:0.178784 38:0.588627 39:-0.128585 40:0.774442 41:0.065730 42:0.686758 43:-2.043324 44:0.952875 45:-0.166655 46:-0.650277 47:0.492351 48:0.154505 49:-0.798029 50:-0.194622 51:-1.443306 52:-0.777370 53:0.313421 54:-0.237200 55:0.106676 56:-0.240746 57:0.844255 58:0.363560 59:-0.087051 60:1.032073
-1 1:-1.352245 2:0.355594 3:0.471867 4:0.100717 5:-1.384132 6:-1.119883 7:-0.445575 8:-0.214158 9:-0.051318 10:-0.792230 11:0.729639 12:-0.979785 13:0.610348 14:-0.889229 15:-0.318449 16:-0.049539 17:1.099771 18:0.214028 19:1.168293 20:-1.080379 21:0.718669 22:0.735213 23:-0.648555 24:0.729609 25:-0.354764 26:0.884127 27:-0.788142 28:-0.098799 29:-0.210751 30:0.955253 31:0.291281 32:-1.266117 33:0.635529 34:-0.181420 35:-0.435691 36:2.183476 37:-0.252123 38:-0.849034 39:1.011857 40:0.890234 41:-1.720591 42:-1.444252 43:-0.314517 44:-1.355272 45:1.334796 46:0.277910 47:-1.609305 48:-0.987383 49:0.642459 50:0.337000 51:-1.086653 52:1.118819 53:0.570420 54:-0.328386 55:-0.235534 56:0.015091 57:0.936203 58:0.537998 59:0.832198 60:-0.473875
-1 1:-0.257309 2:0.035623 3:0.638535 4:-0.939707 5:0.345996 6:-0.065504 7:0.875869 8:-0.098814 9:0.920881 10:0.500053 11:-0.486050 12:-1.850772 13:0.261295 14:-0.037688 15:0.358311 16:-0.104997 17:1.394023 18:-1.913069 19:-0.182960 20:0.843303 21:0.165305 22:-0.090278 23:1.004683 24:1.556607 25:0.633804 26:0.820965 27:0.141809 28:-0.027552 29:0.130464 30:-0.671086 31:-1.775519 32:0.697264 33:1.725340 34:0.129824 35:-0.089691 36:0.908726 37:-0.005643 38:0.269429 39:-0.374238 40:-0.108202 41:-0.206973 42:-0.743445 43:-0.283809 44:-0.818881 45:-0.172623 46:0.854528 47:-0.385789 48:0.699387 49:0.883265 50:-0.272398 51:0.689881 52:-0.454752 53:-0.529661 54:-0.669720 55:1.204376 56:-1.320525 57:1.598383 58:-0.524518 59:-0.939481 60:0.724612
-1 1:0.183141 2:1.213469 3:-0.368699 4:1.957228 5:-1.854360 6:1.582553 7:0.772556 8:0.424843 9:0.337450 10:0.791787 11:-0.680491 12:-0.852892 13:0.753668 14:-0.943677 15:0.644308 16:0.729445 17:0.403371 18:0.570428 19:2.233364 20:1.103940 21:0.401593 22:0.098099 23:0.057620 24:0.175705 25:0.184703 26:-0.063922 27:-1.125139 28:-0.229755 29:-0.512061 30:-1.514451 31:0.343624 32:0.212337 33:-0.171505 34:0.965083 35:-0.312833 36:0.573265 37:0.752878 38:0.518839 39:0.688664 40:-2.559642 41:-0.789081 42:0.733102 43:-1.497882 44:1.726087 45:-0.546483 46:0.858494 47:0.520523 48:0.683429 49:0.509446 50:-0.180615 51:0.062315 52:-0.083130 53:-0.633314 54:0.580537 55:1.607220 56:0.407892 57:1.114923 58:-0.280733 59:1.123640 60:0.170478
-1 1:-0.674096 2:-0.230393 3:-1.427754 4:-0.633576 5:1.686607 6:0.155372 7:1.590498 8:0.482640 9:-0.091238 10:2.199780 11:0.140251 12:-0.610103 13:0.400901 14:-0.189387 15:-0.623547 16:0.089678 17:0.153435 18:-2.754546 19:-1.513129 20:0.109579 21:-1.631776 22:-1.664146 23:-0.702027 24:-0.319295 25:0.338472 26:0.001052 27:-1.202761 28:-0.789072 29:-0.007482 30:0.260863 31:0.636528 32:-1.067568 33:-0.584285 34:1.926795 35:-1.161821 36:1.455976 37:0.945659 38:0.171993 39:0.732233 40:1.451563 41:1.374768 42:0.003140 43:-0.559047 44:-0.275679 45:-0.015366 46:-2.447387 47:0.761815 48:0.515498 49:-0.651117 50:-1.575872 51:0.074397 52:-0.187042 53:-0.152152 54:-0.096026 55:2.284208 56:0.822509 57:-1.757884 58:-0.878779 59:0.410833 60:-0.040039
-1 1:1.066208 2:-0.239972 3:1.429804 4:-0.454462 5:0.593927 6:0.442192 7:0.797456 8:0.971164 9:0.224588 10:0.700668 11:0.218571 12:-1.058701 13:0.636918 14:0.106584 15:-0.485322 16:-0.910142 17:-2.075306 18:0.653527 19:0.191504 20:-0.945990 21:0.252486 22:0.199604 23:-0.011594 24:-0.039852 25:-0.916753 26:-1.188745 27:0.021389 28:-0.804431 29:1.589793 30:-0.901911 31:-1.275368 32:0.896770 33:0.461964 34:-0.271208 35:1.842026 36:-1.470476 37:-1.269243 38:0.089215 39:-0.934428 40:-0.962004 41:0.206930 42:-0.645406 43:-0.594029 44:0.996108 45:1.214103 46:1.754848 47:0.865465 48:0.815923 49:-1.424775 50:0.256164 51:1.407911 52:-0.314561 53:1.605215 54:-0.907825 55:0.177675 56:0.500602 57:2.424098 58:0.511961 59:0.647556 60:-0.820924
-1 1:-0.064672 2:-0.454441 3:0.698565 4:1.571114 5:0.367183 6:-0.331830 7:-0.574716 8:0.239755 9:-0.618687 10:1.593612 11:1.101313 12:-1.065795 13:1.067724 14:-0.892155 15:1.331851 16:-0.737292 17:-0.831695 18:2.053955 19:0.915217 20:0.773977 21:0.034200 22:0.432697 23:-0.241706 24:1.152837 25:-0.779912 26:0.020195 27:-1.173640 28:1.812994 29:-0.488245 30:-1.033217 31:-0.916920 32:0.197397 33:1.306371 34:-0.068977 35:-0.017821 36:0.724172 37:1.096287 38:-0.245435 39:-1.721068 40:-2.506759 41:-0.104998 42:-0.169447 43:-0.727098 44:0.482590 45:-0.324762 46:-1.634043 47:0.226656 48:-0.167338 49:0.204063 50:0.379418 51:0.778141 52:1.310179 53:0.281459 54:0.510541 55:-0.192231 56:1.560989 57:0.077032 58:-0.809020 59:0.613564 60:0.825731
-1 1:-1.496042 2:0.874682 3:-0.570499 4:-0.022912 5:0.055131 6:0.336219 7:-1.346858 8:-0.891862 9:0.056615 10:-0.279934 11:-0.937692 12:0.553684 13:-0.013398 14:0.568473 15:-1.306912 16:-1.139210 17:0.909582 18:-0.105566 19:0.962891 20:-1.045213 21:1.445645 22:1.608389 23:0.197859 24:-0.115298 25:0.150462 26:0.192716 27:-0.267217 28:-0.534407 29:-0.492594 30:-1.595057 31:-0.385988 32:0.003835 33:-0.929216 34:-0.472728 35:0.759051 36:0.816910 37:-0.902998 38:1.843041 39:1.154976 40:-0.505361 41:0.581522 42:1.183552 43:-1.131127 44:0.068110 45:0.067894 46:-0.418831 47:2.202945 48:-0.596579 49:-0.114843 50:0.387613 51:-0.341258 52:0.431096 53:0.731078 54:-1.589580 55:-0.915302 56:0.148696 57:-0.935008 58:-0.891480 59:1.228218 60:0.199796
-1 1:1.398573 2:-0.900681 3:0.772841 4:-0.111266 5:0.699497 6:-1.319652 7:0.555888 8:0.355742 9:-0.379704 10:-0.586500 11:0.207651 12:1.018905 13:0.621922 14:-1.330890 15:-0.056590 16:0.049254 17:0.906188 18:-0.311521 19:-1.206914 20:0.798641 21:-1.462462 22:-1.078279 23:-0.209583 24:-0.010114 25:-0.412347 26:1.211950 27:1.763468 28:-0.422858 29:0.196101 30:-0.852307 31:-0.723733 32:-0.175847 33:0.823394 34:0.847531 35:-2.043571 36:-0.782846 37:-0.073353 38:-0.477323 39:-0.559139 40:0.570567 41:1.676835 42:0.813634 43:0.419715 44:-1.004036 45:-0.147236 46:-1.585353 47:-0.752260 48:0.580876 49:-0.972243 50:0.324540 51:1.025180 52:0.536683 53:-0.130833 54:-0.790621 55:-1.556403 56:-0.759827 57:0.180381 58:-0.089758 59:1.214779 60:0.334980
-1 1:0.329810 2:0.775372 3:-1.514574 4:-0.527216 5:0.649054 6:0.167850 7:-0.655428 8:0.326855 9:0.544754 10:-0.284975 11:1.121290 12:0.477807 13:-0.278853 14:0.281234 15:-1.312168 16:-0.051324 17:0.553727 18:-0.293993 19:-1.750267 20:0.116354 21:1.102512 22:0.356689 23:0.614078 24:-0.152717 25:1.534134 26:-1.527328 27:1.140545 28:-0.728246 29:-0.337468 30:0.456856 31:-1.222539 32:0.512602 33:-0.850808 34:1.993792 35:0.933379 36:0.955796 37:0.958703 38:-0.612737 39:0.322039 40:0.780476 41:0.844288 42:-0.079047 43:-0.109594 44:0.464672 45:-1.024846 46:1.435552 47:1.459711 48:0.118573 49:0.907084 50:-2.046761 51:-2.055547 52:0.229068 53:-0.536385 54:0.137019 55:0.235955 56:1.182553 57:-0.794276 58:0.350235 59:-0.468257 60:0.909471
-1 1:-0.609606 2:0.086275 3:0.734792 4:-0.485617 5:-0.507104 6:-1.205606 7:0.744735 8:-1.583958 9:0.022976 10:0.806100 11:-0.762034 12:0.293803 13:0.739838 14:0.918741 15:-1.265667 16:0.064246 17:0.329378 18:-0.684808 19:0.066178 20:0.426745 21:1.642067 22:-0.788010 23:-0.144361 24:-0.723341 25:0.722869 26:0.243682 27:-0.337420 28:-2.576338 29:-0.393060 30:-0.749010 31:0.333232 32:0.323991 33:-0.213255 34:0.040910 35:0.608156 36:0.737440 37:0.160774 38:0.878400 39:1.317462 40:0.148190 41:1.428855 42:0.587067 43:0.142046 44:-0.006729 45:0.591066 46:0.466722 47:0.598726 48:-1.140025 49:0.535337 50:1.015852 51:1.831246 52:-0.781196 53:0.360696 54:-0.687248 55:-0.001323 56:-1.652379 57:-1.191780 58:0.000217 59:-0.501803 60:-1.179124
-1 1:-1.253890 2:0.919920 3:-0.220015 4:-0.317050 5:0.626737 6:-1.269425 7:0.794436 8:1.246689 9:-1.970255 10:0.307309 11:0.075103 12:-0.200797 13:0.030831 14:1.759454 15:-0.026747 16:-0.979632 17:1.241701 18:0.690687 19:0.044182 20:1.201703 21:0.234022 22:0.036984 23:0.255749 24:-0.684222 25:-1.187960 26:-0.123418 27:-1.069349 28:-0.255083 29:0.962032 30:-1.051049 31:-2.082418 32:-0.382224 33:0.005891 34:-1.286201 35:-0.408575 36:0.418768 37:-0.373445 38:-0.540023 39:1.086366 40:-1.110259 41:0.123739 42:0.265804 43:-0.265746 44:0.491522 45:-0.142367 46:1.248390 47:0.002527 48:-1.226722 49:-0.458568 50:-0.003641 51:-0.037761 52:0.596629 53:-1.978922 54:1.002906 55:0.656481 56:-1.485393 57:0.023371 58:1.486497 59:-0.026094 60:-0.113968
-1 1:-0.820731 2:-0.413025 3:0.594542 4:-1.561518 5:-0.294876 6:0.448394 7:1.631608 8:-0.152599 9:1.273424 10:0.118089 11:-0.078032 12:1.101523 13:0.820045 14:-0.604461 15:1.085146 16:1.351578 17:-0.665650 18:-1.022595 19:0.637426 20:-1.024648 21:0.015366 22:-0.473709 23:-0.866757 24:-2.274266 25:0.188478 26:-1.280615 27:0.019517 28:0.723025 29:-0.338526 30:-0.416045 31:1.562233 32:0.130607 33:-0.158959 34:-0.617665 35:0.198755 36:-3.019007 37:0.212256 38:-1.899020 39:-0.352072 40:0.080235 41:-0.722280 42:-0.783174 43:0.809633 44:-0.568543 45:0.048453 46:0.148555 47:-0.289918 48:0.744938 49:-1.040247 50:-0.492885 51:1.751485 52:-0.627146 53:-0.012942 54:0.608179 55:-0.150897 56:-0.643506 57:-0.407551 58:-2.225720 59:0.944886 60:-0.945499
-1 1:1.262956 2:0.551238 3:-2.140538 4:1.028288 5:-1.696444 6:-2.439860 7:-1.717967 8:-1.014599 9:0.380666 10:-0.559470 11:-0.934909 12:-0.825043 13:0.426952 14:-0.096244 15:-0.844367 16:-1.799221 17:1.011066 18:0.864926 19:-1.742745 20:-0.208815 21:-0.732459 22:0.775559 23:-0.646569 24:-1.526661 25:0.374030 26:0.919868 27:-0.347881 28:1.024595 29:1.347589 30:-0.606581 31:-0.790694 32:-0.841388 33:-0.541512 34:0.724076 35:-1.725429 36:-1.088947 37:0.915964 38:-0.247597 39:-1.324396 40:-0.621563 41:-2.258200 42:-0.747337 43:0.205549 44:-0.653775 45:-2.317568 46:-0.853093 47:0.110275 48:0.178708 49:-0.730815 50:-0.936152 51:0.166267 52:-1.800275 53:0.599035 54:0.819526 55:0.255490 56:-0.406961 57:0.164007 58:-0.088060 59:1.470656 60:0.079265
-1 1:0.842733 2:0.297221 3:0.646253 4:-1.001548 5:0.400401 6:0.140171 7:-0.191990 8:0.228332 9:1.278043 10:-0.870558 11:0.024330 12:-0.562582 13:-1.985027 14:-1.421155 15:0.666024 16:-1.618220 17:1.498916 18:-0.123037 19:0.515731 20:0.625307 21:2.226274 22:-0.655480 23:-0.436328 24:0.515996 25:0.038414 26:-1.586384 27:-0.562805 28:-0.683880 29:-1.032502 30:-0.295306 31:-0.709454 32:-0.315910 33:-0.447697 34:0.002487 35:0.277831 36:0.184026 37:0.377348 38:-0.950151 39:-1.604594 40:0.486022 41:1.120382 42:0.367234 43:0.473593 44:0.367872 45:0.715748 46:0.253995 47:0.290559 48:1.756582 49:0.750751 50:-0.529552 51:0.943353 52:0.211430 53:0.689222 54:0.219947 55:0.861428 56:0.810337 57:-0.015174 58:-0.731521 59:0.030476 60:-1.951941
-1 1:-0.724875 2:-0.172930 3:-0.883323 4:0.651303 5:0.316730 6:0.577308 7:-0.861158 8:-1.149556 9:0.212960 10:0.978310 11:2.704649 12:1.767344 13:-0.555984 14:-0.977372 15:-1.736997 16:0.309661 17:-0.617131 18:-1.405533 19:-0.615072 20:-0.327574 21:-0.607392 22:1.118742 23:-1.136808 24:-0.965387 25:-0.573463 26:-0.019387 27:1.577765 28:-0.509229 29:0.487591 30:0.769405 31:-0.112687 32:-1.387463 33:-0.970443 34:-0.197699 35:-1.366917 36:2.917336 37:1.158868 38:0.189540 39:-1.503252 40:-0.123220 41:2.290555 42:-0.609983 43:0.692216 44:-0.291824 45:-1.426049 46:-2.090916 47:-0.127692 48:-0.047159 49:1.424766 50:0.128526 51:-0.109673 52:-1.252391 53:1.757192 54:0.469444 55:-0.394680 56:-1.501931 57:-0.341342 58:0.218829 59:1.405208 60:-0.465500
-1 1:-1.341995 2:1.671878 3:0.887261 4:-0.142793 5:0.238975 6:0.681140 7:0.262470 8:-0.927273 9:0.469978 10:0.586482 11:-0.433389 12:-0.286027 13:0.024192 14:-2.455792 15:1.163496 16:0.656470 17:0.321589 18:-0.320575 19:0.850964 20:-0.381529 21:0.738387 22:-0.342165 23:-0.188260 24:-0.313520 25:-1.094096 26:0.362632 27:-0.790485 28:0.652052 29:-1.129148 30:-0.957031 31:-0.489339 32:1.678866 33:-0.519571 34:-0.814088 35:-0.767619 36:-0.879395 37:-0.794579 38:-1.304300 39:0.221741 40:0.115327 41:-0.342503 42:0.865299 43:-1.308263 44:-1.218937 45:1.041728 46:-0.347799 47:-0.602500 48:0.116439 49:1.774226 50:2.321634 51:0.263828 52:-0.437724 53:0.750384 54:0.712981 55:0.084807 56:0.816735 57:-0.108906 58:-1.143672 59:0.719297 60:-1.919576
-1 1:-0.750375 2:-2.115828 3:0.033538 4:-0.308055 5:0.305933 6:0.353080 7:-0.481341 8:0.588980 9:-0.311157 10:1.297495 11:-0.430192 12:-0.774689 13:0.287725 14:-0.227364 15:0.053194 16:1.236954 17:-0.513424 18:-1.708584 19:0.287205 20:-0.820134 21:-0.176101 22:-0.575525 23:0.414294 24:-0.978451 25:0.944405 26:-0.000472 27:1.276831 28:-0.638854 29:-0.247646 30:-0.118272 31:1.396299 32:0.678751 33:0.129101 34:0.198776 35:-1.097865 36:-0.824421 37:-1.263605 38:-0.666740 39:0.074574 40:0.128409 41:-0.453861 42:-2.882345 43:0.431354 44:0.454116 45:0.454629 46:0.590424 47:0.546962 48:1.297945 49:-0.622199 50:0.218289 51:-0.094776 52:1.038141 53:0.006761 54:-1.311591 55:1.687512 56:-0.488293 57:-0.977390 58:-0.195434 59:-1.454186 60:0.792267
-1 1:-1.870114 2:0.575906 3:1.318339 4:-0.072653 5:0.959189 6:0.489502 7:1.349933 8:-0.699235 9:-1.426365 10:0.560228 11:0.293105 12:1.675878 13:-0.816707 14:-0.647751 15:-0.217464 16:-2.657261 17:-1.597701 18:-2.042296 19:0.191626 20:-0.776976 21:-0.907871 22:0.702893 23:0.853067 24:-0.831514 25:-0.284082 26:-1.055401 27:0.183952 28:0.384999 29:-0.277535 30:-1.135089 31:-0.525569 32:0.846696 33:0.257774 34:-0.679943 35:-0.617817 36:-1.733597 37:-0.063123 38:-0.470956 39:-1.129768 40:0.718286 41:-0.134953 42:0.390227 43:-0.635718 44:0.979014 45:0.640284 46:-0.693613 47:-0.135049 48:-1.420886 49:-0.902574 50:1.342762 51:-0.673369 52:0.921439 53:-1.673691 54:0.954371 55:0.158434 56:0.235326 57:-0.216261 58:-0.665573 59:-0.115614 60:0.300017
-1 1:0.170236 2:-0.351770 3:-0.629190 4:0.583581 5:-0.176456 6:-0.020449 7:-0.352880 8:-0.357046 9:0.506060 10:-0.263432 11:-0.054447 12:-0.374840 13:1.136879 14:-1.145803 15:0.486162 16:0.298658 17:0.201576 18:-1.445327 19:1.599264 20:1.478456 21:-0.558937 22:0.613140 23:0.815175 24:0.148615 25:0.251354 26:0.682239 27:1.066909 28:0.667166 29:0.361463 30:-0.028695 31:0.403830 32:0.859740 33:-0.539960 34:0.166240 35:0.895867 36:-0.566693 37:-0.004145 38:0.607496 39:-0.456823 40:1.539302 41:-0.583891 42:0.421897 43:-2.001624 44:0.257023 45:0.150882 46:1.339709 47:-0.154053 48:-1.011990 49:-1.297868 50:0.265599 51:-1.699326 52:-0.195411 53:-0.017548 54:0.311606 55:0.448351 56:-0.121795 57:0.150935 58:-1.122562 59:-1.134443 60:-0.767228
-1 1:-1.098228 2:0.008579 3:1.213725 4:-0.192459 5:0.472986 6:1.660230 7:-0.495740 8:-0.638085 9:0.021143 10:2.986115 11:1.162949 12:0.087952 13:0.522042 14:0.433662 15:1.747313 16:-0.607175 17:2.870242 18:-0.950591 19:1.573462 20:1.143924 21:1.679045 22:1.005056 23:0.966941 24:0.872729 25:-0.633509 26:1.038392 27:0.845738 28:0.536249 29:-0.125159 30:-0.478479 31:1.347369 32:2.364661 33:-0.147097 34:-0.030467 35:-0.035722 36:1.624824 37:0.990127 38:-2.077135 39:0.046808 40:1.007038 41:0.019138 42:0.682521 43:0.546509 44:1.392449 45:-0.563895 46:0.831131 47:0.311024 48:0.743092 49:1.565591 50:2.237354 51:0.781978 52:0.052775 53:-0.222815 54:-0.499270 55:1.134480 56:0.393832 57:1.436020 58:-0.309617 59:-0.498257 60:1.723536
-1 1:-0.304404 2:0.390635 3:-1.245067 4:1.878713 5:0.622456 6:0.734071 7:0.248467 8:0.409303 9:-0.802813 10:-0.774491 11:0.267387 12:-0.289000 13:-0.859557 14:0.341563 15:0.019404 16:-0.440710 17:0.793254 18:2.078863 19:2.193402 20:0.338777 21:-0.989081 22:0.041260 23:0.245129 24:2.551415 25:-2.324572 26:1.126068 27:-0.298533 28:2.654980 29:0.829789 30:0.892507 31:0.976633 32:-0.959671 33:0.131101 34:1.519256 35:-0.168268 36:1.770017 37:0.588317 38:-0.708184 39:0.220779 40:-1.148314 41:-0.244287 42:-1.109264 43:1.249522 44:1.516201 45:1.513153 46:-0.729674 47:-0.288659 48:-1.650414 49:-0.066687 50:2.068443 51:-0.533336 52:0.897191 53:0.469606 54:0.735699 55:2.042915 56:-0.094759 57:-0.272218 58:-1.672749 59:-0.605207 60:0.223951
-1 1:-0.743068 2:-0.856338 3:-1.830638 4:-0.271046 5:0.175178 6:1.744041 7:-1.478863 8:-0.298981 9:-1.747123 10:0.000820 11:1.046649 12:1.087140 13:-0.104089 14:1.547462 15:-1.191644 16:0.055236 17:1.331309 18:2.343847 19:-0.259104 20:-0.558456 21:-1.139645 22:-0.237060 23:-0.801467 24:-0.197815 25:-0.344564 26:-0.419743 27:1.330241 28:0.721726 29:-1.816478 30:-1.370130 31:0.960770 32:1.215144 33:0.415269 34:1.978243 35:-0.592124 36:0.200759 37:1.097537 38:0.177368 39:1.493576 40:0.996536 41:-0.034798 42:0.450213 43:0.068841 44:0.803529 45:0.724916 46:0.217868 47:0.287020 48:0.568154 49:1.003693 50:-0.043084 51:-0.509023 52:-0.545928 53:-1.295572 54:0.669906 55:-0.507320 56:-0.401997 57:-2.109155 58:-0.528126 59:-0.469229 60:-1.350583
-1 1:0.189583 2:-0.270457 3:-1.563973 4:1.129721 5:-0.250163 6:0.044115 7:0.533277 8:-0.265855 9:1.268779 10:0.511793 11:0.292800 12:-1.709657 13:0.773525 14:-2.157212 15:-1.975427 16:0.578898 17:-0.214439 18:0.211307 19:1.227746 20:-1.550429 21:1.048457 22:-0.233064 23:0.831350 24:-0.542752 25:-0.395440 26:1.926281 27:0.705910 28:-0.676262 29:-0.252554 30:-0.374607 31:-0.931984 32:1.475811 33:-0.283047 34:-0.013526 35:-0.184662 36:2.209285 37:0.474345 38:3.442549 39:1.200909 40:-0.715495 41:-1.897106 42:0.252908 43:-0.904307 44:-0.188295 45:1.118487 46:-0.079433 47:0.334000 48:1.508513 49:-1.558236 50:-0.224008 51:0.826785 52:-2.360692 53:1.065295 54:0.935830 55:0.480788 56:0.010138 57:-2.859228 58:-0.574952 59:1.335424 60:0.234419
-1 1:0.973916 2:0.763072 3:1.669095 4:-0.856672 5:1.003573 6:0.826497 7:-0.467510 8:-0.057311 9:-0.135099 10:0.250787 11:-1.057163 12:-0.188813 13:-0.781197 14:-1.747074 15:-1.276959 16:1.128971 17:-0.301516 18:-0.460671 19:0.003733 20:2.041163 21:-0.445160 22:1.595674 23:0.211019 24:-0.141532 25:2.523299 26:0.091634 27:-0.112616 28:0.198712 29:0.460459 30:1.792816 31:-2.019199 32:0.672681 33:0.820116 34:0.118627 35:-0.928648 36:-1.463360 37:1.291710 38:2.426673 39:-0.312466 40:0.152327 41:-1.694473 42:-0.026202 43:-1.179874 44:0.051611 45:-0.072728 46:2.383457 47:-0.854927 48:-1.232796 49:-1.904493 50:0.996964 51:0.461762 52:0.358867 53:-0.799895 54:-0.587657 55:-0.021728 56:-0.957784 57:-1.007823 58:-0.673776 59:-0.679310 60:-1.240430
-1 1:-0.902108 2:-0.152061 3:0.871862 4:0.944910 5:0.604242 6:-1.597520 7:-0.915373 8:-1.761049 9:-1.679195 10:1.468430 11:-0.284835 12:-0.597709 13:0.453082 14:1.795658 15:-1.993781 16:0.455200 17:2.305275 18:-1.331086 19:0.652760 20:0.474783 21:-0.138142 22:0.385761 23:0.381700 24:-0.597548 25:0.537798 26:-0.455408 27:-0.257657 28:1.056672 29:-1.164017 30:1.137765 31:-0.358259 32:0.411145 33:-1.304167 34:1.496586 35:-0.415651 36:-0.747165 37:0.811603 38:0.181429 39:-0.055714 40:1.093424 41:-1.168962 42:0.418186 43:0.150375 44:0.320076 45:1.310553 46:-2.170269 47:-0.052790 48:2.248107 49:1.763998 50:2.113462 51:0.997970 52:1.750015 53:1.088058 54:-1.031326 55:-1.064152 56:0.350754 57:1.019374 58:0.273161 59:-1.052732 60:0.467181
-1 1:0.343516 2:-1.560146 3:1.252891 4:-1.382937 5:-0.950076 6:0.035483 7:-1.683874 8:-1.049115 9:0.619790 10:-0.561600 11:-1.009083 12:-0.753555 13:-0.182109 14:-1.732817 15:-0.219749 16:-0.265399 17:-1.493749 18:0.454197 19:0.198983 20:0.799702 21:0.750200 22:-0.932702 23:0.226356 24:-0.057184 25:-0.160351 26:0.084140 27:-0.940034 28:-0.070466 29:-0.731993 30:0.185848 31:-2.749494 32:-0.941391 33:-0.451429 34:0.833551 35:0.179788 36:0.115354 37:-0.697257 38:0.060589 39:1.597637 40:0.132897 41:-0.099466 42:0.902314 43:0.532984 44:0.387160 45:0.204447 46:1.896496 47:0.774192 48:0.319489 49:-0.463958 50:-0.706630 51:-0.272973 52:0.392181 53:-0.463362 54:-0.286945 55:-0.878588 56:-0.237509 57:-0.460030 58:1.331972 59:-0.130996 60:0.016377
-1 1:1.341871 2:-0.939379 3:0.033076 4:0.878565 5:-1.111897 6:0.091368 7:-0.380272 8:-0.149266 9:1.297385 10:-0.673478 11:0.229624 12:0.337391 13:0.466405 14:0.629140 15:-1.092270 16:-0.016771 17:0.950702 18:1.831123 19:0.756634 20:-0.905419 21:-1.592024 22:-1.743432 23:-1.434742 24:-0.264250 25:-0.097623 26:-0.002860 27:0.264504 28:-0.104946 29:0.516561 30:-0.659080 31:-1.277861 32:-1.375735 33:-0.509493 34:1.356887 35:0.076662 36:0.401885 37:-0.092782 38:-0.247656 39:0.191651 40:-0.024205 41:-0.486982 42:-0.036866 43:0.277020 44:-0.113494 45:-1.087619 46:-1.079964 47:1.651221 48:-1.848405 49:0.044534 50:-0.281236 51:-0.975112 52:-0.068055 53:0.026766 54:-0.509976 55:1.825382 56:0.477230 57:0.216607 58:-1.957169 59:-0.754294 60:0.598597
-1 1:0.123857 2:-0.339393 3:-0.191366 4:-1.152527 5:-1.074716 6:-1.583496 7:-0.701329 8:-0.721269 9:-0.624296 10:-1.093167 11:0.268843 12:-0.087866 13:-2.048556 14:1.773186 15:-0.415587 16:-0.111235 17:-0.315217 18:0.072660 19:0.009648 20:1.008144 21:-0.545903 22:0.512635 23:-0.525144 24:-1.537343 25:-1.249543 26:0.415715 27:0.671188 28:0.941600 29:-0.133655 30:1.228105 31:0.582320 32:1.280092 33:-0.256485 34:0.488999 35:-0.540606 36:1.182806 37:0.140898 38:0.191105 39:-0.989345 40:-1.007817 41:0.069299 42:-0.115512 43:0.641462 44:1.547765 45:0.205846 46:-0.675140 47:0.085611 48:-1.395046 49:-1.460925 50:1.564798 51:0.114754 52:0.402958 53:-1.207979 54:-2.061347 55:-0.584910 56:-0.721127 57:-0.825191 58:1.501110 59:-0.773827 60:0.020312
-1 1:0.770118 2:0.012645 3:-0.926301 4:0.101818 5:1.330035 6:0.689480 7:1.135649 8:-0.952734 9:0.629242 10:-0.919209 11:0.265111 12:-0.493158 13:-1.212124 14:0.122274 15:-0.834889 16:-0.312841 17:0.605614 18:0.073764 19:-0.642954 20:-1.891603 21:1.705843 22:0.733681 23:-1.368567 24:-0.507377 25:0.130493 26:2.414103 27:0.040273 28:1.062356 29:0.698368 30:1.013667 31:1.295357 32:-0.479921 33:-1.681376 34:2.150574 35:-0.643725 36:-0.546777 37:-0.581717 38:1.648872 39:0.864242 40:-0.369820 41:0.756341 42:0.141680 43:-1.018704 44:1.111567 45:-1.167175 46:-0.084093 47:0.164484 48:0.376676 49:-0.824934 50:1.301861 51:0.546661 52:-0.761238 53:1.457208 54:-0.433598 55:0.755804 56:1.549471 57:0.147429 58:-0.081354 59:0.828218 60:-0.541888
-1 1:-1.089877 2:-0.866184 3:-0.229614 4:0.206382 5:0.560145 6:-0.183490 7:0.173411 8:1.383013 9:0.283228 10:-0.093237 11:0.256635 12:0.299386 13:0.130857 14:0.671759 15:1.375034 16:1.274737 17:0.753338 18:-0.013785 19:0.217283 20:-1.808699 21:-1.806232 22:-2.753521 23:0.127204 24:-1.586461 25:1.455732 26:-0.446321 27:-0.352743 28:-2.429298 29:1.615894 30:-0.509444 31:0.238233 32:-0.183351 33:-0.768778 34:-1.674843 35:0.181401 36:0.967753 37:0.421748 38:0.360866 39:1.230237 40:-0.177892 41:0.498642 42:-2.045804 43:0.619202 44:0.620846 45:0.457575 46:-0.894692 47:-0.583915 48:-0.362223 49:-0.469987 50:-0.106456 51:0.528051 52:0.451451 53:-2.024722 54:-1.133919 55:-0.421428 56:-1.011001 57:1.169166 58:-0.063412 59:0.798350 60:0.627044
-1 1:0.347386 2:-1.258131 3:0.626321 4:0.054121 5:0.214937 6:-0.118913 7:1.465829 8:-0.387388 9:-0.916236 10:-0.347611 11:-0.208824 12:-0.156737 13:1.466735 14:-1.905256 15:0.823361 16:-1.134707 17:0.182112 18:0.796844 19:0.587959 20:-0.689694 21:0.333657 22:-0.938045 23:0.200106 24:1.600320 25:-2.023977 26:-0.861009 27:1.320992 28:1.853700 29:0.518169 30:-0.835865 31:0.425171 32:-0.713996 33:1.283078 34:1.411518 35:0.888492 36:-1.390816 37:-0.968598 38:0.807458 39:0.213981 40:-0.449318 41:-0.783317 42:-0.437996 43:-1.617307 44:-1.216108 45:-0.460213 46:0.072171 47:-1.313106 48:0.688458 49:0.307617 50:-1.043913 51:-0.817731 52:-0.748087 53:-0.687189 54:1.037331 55:-0.996707 56:-0.426698 57:-0.921593 58:-0.166514 59:0.659592 60:-0.201488
-1 1:-0.153122 2:0.180407 3:-0.664727 4:-0.435086 5:0.188609 6:1.561592 7:-0.019055 8:0.299488 9:-0.291495 10:-2.320169 11:1.279808 12:-0.876470 13:-0.176985 14:0.997436 15:0.424667 16:0.022390 17:-0.713853 18:0.606997 19:0.304584 20:0.110192 21:-1.132655 22:-0.364280 23:-0.043479 24:0.392093 25:-1.228672 26:-0.063550 27:-0.393911 28:-0.405184 29:-0.552565 30:-0.817136 31:0.334999 32:-0.303806 33:-0.587407 34:1.678305 35:-1.341136 36:-0.090652 37:-0.231906 38:0.404181 39:1.542956 40:-0.956716 41:-0.391412 42:-0.066327 43:0.278310 44:-0.693210 45:-0.065702 46:0.866382 47:0.222761 48:-0.067798 49:0.713192 50:1.211835 51:1.221159 52:0.650451 53:0.579520 54:-1.599808 55:-0.128274 56:-0.557608 57:0.570987 58:0.377185 59:0.160000 60:-1.058402
-1 1:1.114521 2:-0.369904 3:-0.433046 4:0.717992 5:0.048581 6:0.528571 7:0.953090 8:-2.731437 9:1.696895 10:-1.038525 11:-1.345438 12:0.202936 13:0.160898 14:1.821180 15:2.140221 16:-0.932824 17:0.350926 18:0.341670 19:0.348764 20:0.790783 21:0.427628 22:0.481002 23:-1.443214 24:0.076685 25:0.177354 26:1.113603 27:-0.035685 28:0.117202 29:-0.806624 30:-0.985883 31:0.050678 32:-0.912603 33:-1.833809 34:-0.280518 35:-0.628493 36:0.504838 37:2.326395 38:-1.561070 39:0.829952 40:0.732211 41:0.227997 42:0.370444 43:0.058617 44:-0.646299 45:-0.431975 46:-1.360609 47:0.481382 48:0.600486 49:-0.228257 50:1.075644 51:1.809478 52:-0.433746 53:0.621748 54:1.141097 55:-0.622984 56:0.052274 57:-0.136613 58:-1.107022 59:-1.227745 60:0.811051
-1 1:-0.300956 2:-0.221143 3:0.194219 4:2.185348 5:-0.705863 6:-0.153477 7:0.206581 8:-1.015866 9:-1.138032 10:1.712803 11:-1.537649 12:-0.588569 13:0.418211 14:-0.236013 15:-1.985324 16:-1.196278 17:-1.945797 18:0.622931 19:0.599892 20:1.554913 21:0.397606 22:0.367668 23:-0.048526 24:0.056298 25:0.444970 26:-0.094131 27:-1.518514 28:-1.268661 29:-0.475876 30:0.361833 31:-0.346938 32:0.475095 33:-1.544293 34:0.999037 35:0.040065 36:0.055235 37:0.003836 38:0.416621 39:-1.676508 40:-0.006311 41:0.720329 42:0.591986 43:-1.750536 44:0.216989 45:1.317391 46:0.825328 47:-1.098380 48:0.725578 49:-1.670079 50:-0.932111 51:-0.377275 52:-0.090070 53:0.495318 54:-1.339915 55:0.045242 56:2.441769 57:0.133422 58:-0.097043 59:0.962196 60:0.121084
-1 1:-0.102792 2:1.197555 3:0.097578 4:0.497686 5:-1.227390 6:-0.103300 7:0.949790 8:0.343532 9:1.320703 10:-0.251924 11:-0.871194 12:-0.261933 13:1.096935 14:0.336466 15:1.025501 16:0.714752 17:0.538608 18:0.072968 19:1.126100 20:-1.641590 21:1.628660 22:-2.489552 23:-1.742368 24:-0.473187 25:1.042710 26:-0.667861 27:-0.257583 28:-0.179812 29:1.023204 30:2.086179 31:-0.660471 32:0.125241 33:-1.593227 34:0.987662 35:-0.836176 36:1.727349 37:-1.624423 38:-0.070110 39:0.403119 40:1.639926 41:1.672635 42:-0.030050 43:0.600402 44:0.885080 45:-0.671761 46:0.676969 47:-0.158947 48:-1.128834 49:-0.662966 50:-0.455508 51:1.449888 52:-0.038729 53:0.871584 54:-1.816227 55:0.010917 56:-0.722672 57:-0.726324 58:-0.035556 59:0.009340 60:0.411092
-1 1:-0.626141 2:0.273815 3:0.839029 4:1.024238 5:-0.842457 6:-0.539164 7:0.473612 8:-0.915859 9:-0.362304 10:1.196871 11:0.174619 12:0.646127 13:0.441115 14:0.116140 15:-0.345497 16:-0.958582 17:0.297247 18:2.220872 19:1.726060 20:-0.386916 21:1.493777 22:-1.222076 23:-1.295610 24:-1.084315 25:1.695456 26:1.336695 27:0.087714 28:-1.700006 29:-0.404727 30:-0.077686 31:1.875183 32:1.054100 33:-0.796316 34:0.014816 35:-1.354260 36:0.959983 37:1.105547 38:0.462956 39:0.418638 40:0.667658 41:-0.641751 42:0.735965 43:0.292725 44:0.529072 45:-2.403989 46:-0.013419 47:-1.615326 48:0.920675 49:-0.016787 50:1.853837 51:1.332343 52:-1.393246 53:0.166394 54:0.680253 55:0.149399 56:-0.168372 57:0.615540 58:-0.915019 59:-1.493795 60:2.132024
-1 1:-0.484100 2:1.971353 3:-0.574515 4:-0.787537 5:-0.205334 6:1.162996 7:-0.414370 8:-1.411303 9:0.707214 10:-1.127118 11:1.361020 12:-0.694959 13:-1.373589 14:-1.033332 15:0.005460 16:-1.130841 17:0.070025 18:-0.056783 19:0.197119 20:0.140993 21:-0.843408 22:-0.765638 23:0.042372 24:-0.419064 25:0.532519 26:0.119792 27:-1.040142 28:-1.317578 29:0.770014 30:-0.151887 31:-0.115704 32:-0.181619 33:0.756529 34:0.025381 35:2.269834 36:0.687892 37:1.173746 38:0.542254 39:0.723137 40:-0.185271 41:-0.294229 42:0.519149 43:-0.558883 44:-0.498882 45:-1.088480 46:-0.156567 47:0.786179 48:-0.546109 49:-0.264161 50:-1.419836 51:0.163611 52:-1.116555 53:0.314274 54:1.044263 55:0.955075 56:-0.898241 57:-0.610707 58:-0.707739 59:-0.041485 60:-0.114295
-1 1:-0.337462 2:0.222696 3:-0.309837 4:1.762203 5:-0.048442 6:1.038906 7:-0.209962 8:-0.205518 9:-0.198927 10:-1.229745 11:0.011589 12:0.490055 13:-1.966634 14:-0.660429 15:-0.251482 16:-0.379830 17:0.390746 18:1.817562 19:0.348566 20:-0.461604 21:0.235556 22:0.557879 23:-0.673825 24:-0.008358 25:1.531696 26:1.057110 27:-0.910662 28:-0.882265 29:0.365919 30:0.201398 31:-0.739387 32:0.968832 33:0.177669 34:0.449104 35:-0.050788 36:0.777978 37:-1.137751 38:1.848014 39:-1.371591 40:-0.674881 41:0.960524 42:0.695716 43:0.169271 44:-1.972453 45:-0.856567 46:0.264423 47:-0.693069 48:-0.620813 49:0.884597 50:-0.860758 51:-0.327196 52:1.217127 53:-0.961210 54:0.470118 55:-0.307836 56:0.730404 57:-1.499262 58:-0.546731 59:1.099079 60:-0.843659
-1 1:2.018396 2:0.665492 3:0.306689 4:-0.641965 5:-0.648713 6:0.136148 7:1.660361 8:-0.507397 9:0.063088 10:0.143236 11:0.736200 12:0.428320 13:-1.419137 14:0.486766 15:1.054118 16:0.792625 17:0.230551 18:-0.263051 19:-0.032702 20:0.048785 21:1.395804 22:1.140603 23:0.685407 24:1.133078 25:0.550799 26:1.206641 27:0.218805 28:0.624181 29:0.590800 30:1.215550 31:-1.473686 32:0.367859 33:0.535737 34:0.207231 35:0.051724 36:0.472875 37:0.503238 38:-0.842996 39:1.272416 40:0.856287 41:1.239910 42:-0.831416 43:0.432929 44:-0.503823 45:-1.785372 46:-0.823039 47:-0.603871 48:0.474931 49:0.970308 50:0.146297 51:-0.066711 52:-0.069805 53:-1.393922 54:-1.382618 55:-1.481462 56:-1.737485 57:-0.589006 58:-2.465095 59:1.390878 60:-1.344449
-1 1:-0.134547 2:-1.035804 3:-0.439941 4:-2.306795 5:0.701727 6:-1.375449 7:0.793167 8:-0.869441 9:0.455692 10:-1.169348 11:-0.135070 12:-1.104796 13:-0.236852 14:-1.492200 15:2.538840 16:1.060192 17:0.737787 18:-1.049560 19:-1.311005 20:-0.550939 21:-1.487912 22:1.181334 23:0.549130 24:0.165904 25:-1.096398 26:0.485922 27:-1.603876 28:1.102393 29:-0.287597 30:-1.654917 31:0.249316 32:-0.449432 33:-0.632627 34:0.137869 35:0.607502 36:-0.974084 37:0.526269 38:0.291590 39:-1.399186 40:0.311348 41:0.240884 42:0.573619 43:-0.722614 44:0.406152 45:-0.210090 46:-0.443710 47:-0.030234 48:-1.127281 49:-1.312358 50:0.814209 51:0.989782 52:1.119344 53:-1.499088 54:-1.074150 55:-0.339674 56:0.307245 57:0.645760 58:-0.676284 59:-0.602964 60:0.786089
-1 1:-0.515549 2:1.560977 3:-0.542263 4:1.996428 5:0.259501 6:-0.809620 7:0.380255 8:-0.884753 9:-1.637586 10:-0.640443 11:1.305293 12:-0.852871 13:-0.479987 14:2.291989 15:0.452731 16:-1.729944 17:-1.423438 18:-0.161494 19:0.547874 20:-1.383885 21:-0.570004 22:0.437008 23:0.593458 24:-0.784008 25:0.785960 26:0.132494 27:-0.677124 28:-0.861531 29:0.604795 30:1.310928 31:0.509394 32:-3.033729 33:-1.668910 34:1.589275 35:1.370241 36:0.740880 37:-1.233734 38:-0.460400 39:0.804866 40:-0.061022 41:-0.827606 42:-1.199836 43:-0.169009 44:1.945103 45:-1.151740 46:1.318474 47:1.737917 48:0.573210 49:1.843979 50:-0.627391 51:0.973308 52:0.667111 53:0.881864 54:1.319622 55:-2.254587 56:-0.828190 57:1.019941 58:1.990731 59:1.131089 60:1.118279
-1 1:0.029561 2:-0.993662 3:-1.116184 4:-0.518282 5:-2.223751 6:0.203758 7:-1.031215 8:1.539586 9:0.181612 10:0.296274 11:0.251752 12:-0.077390 13:0.845791 14:1.082284 15:0.085775 16:0.104221 17:-2.277897 18:-0.386107 19:-0.764552 20:0.486303 21:1.315525 22:-2.205295 23:-1.695858 24:-1.032824 25:-1.199345 26:-1.231585 27:-0.816792 28:-0.888687 29:0.322857 30:-0.051115 31:-0.870462 32:0.246792 33:1.294487 34:-0.065656 35:-0.655588 36:1.707682 37:0.181152 38:0.140778 39:1.193483 40:-1.077448 41:0.996862 42:-0.312512 43:1.296377 44:-1.185044 45:0.225376 46:-1.447001 47:0.298978 48:0.041247 49:1.381027 50:-1.040406 51:1.326953 52:0.106261 53:0.267607 54:1.316623 55:-0.989959 56:-1.191720 57:-0.312938 58:3.185694 59:1.737623 60:0.617358
-1 1:-1.226733 2:-1.021748 3:-1.261454 4:-0.537189 5:-0.676057 6:-0.845472 7:-0.018260 8:-0.052662 9:0.451460 10:-0.038670 11:-1.488375 12:-0.347722 13:-0.279397 14:-0.611662 15:0.557561 16:-1.970768 17:-1.930388 18:0.342825 19:-0.963138 20:0.196288 21:-1.441635 22:-0.234660 23:0.205639 24:-0.611032 25:0.829146 26:1.560897 27:-0.719753 28:-0.703876 29:0.341228 30:1.263282 31:0.817462 32:-0.079494 33:-0.575917 34:0.625512 35:0.491612 36:-0.075038 37:-0.126208 38:1.183123 39:1.117296 40:-0.750017 41:-0.788366 42:0.203986 43:0.667569 44:-0.251516 45:0.059494 46:0.107340 47:1.520150 48:0.432490 49:1.110512 50:-0.587811 51:1.041809 52:-0.760762 53:-0.562383 54:0.265670 55:0.447904 56:1.379041 57:-0.268121 58:0.058808 59:-0.527548 60:0.411793
-1 1:0.989177 2:-2.117613 3:0.378250 4:1.141634 5:-1.982775 6:0.728320 7:-0.146390 8:-0.391355 9:-0.354202 10:0.291465 11:-0.884693 12:1.561922 13:-0.298524 14:-0.347892 15:0.409150 16:-2.484164 17:-0.725725 18:0.095612 19:-0.708917 20:-0.514521 21:1.718278 22:-1.064583 23:-0.052630 24:-0.770504 25:1.149954 26:0.329453 27:-0.448780 28:-0.311734 29:1.376712 30:-0.042236 31:-2.556949 32:0.612069 33:-1.085844 34:-0.020118 35:-0.616692 36:-0.283361 37:-0.365539 38:-0.329173 39:0.470977 40:-0.179077 41:-0.220846 42:0.268456 43:1.512362 44:0.909544 45:0.552285 46:0.756932 47:0.028412 48:1.773230 49:1.802055 50:1.550934 51:1.119323 52:0.958697 53:0.177134 54:-0.091250 55:-0.214643 56:0.810261 57:-0.339549 58:-1.865510 59:1.284776 60:-0.471492
-1 1:-0.106447 2:-1.122198 3:-0.954358 4:1.728526 5:-0.917170 6:1.173160 7:0.302336 8:1.018289 9:-0.689650 10:-2.639319 11:2.244763 12:-0.151785 13:-0.380354 14:-1.454064 15:0.138798 16:-0.813404 17:0.604352 18:-0.808570 19:2.256136 20:-1.042135 21:-0.212978 22:-0.208982 23:0.658409 24:-1.270609 25:0.077391 26:1.406635 27:0.082012 28:-0.178865 29:-0.658825 30:1.012016 31:-0.889653 32:0.291476 33:-0.594467 34:-1.631375 35:-0.483299 36:1.627592 37:-0.666102 38:0.647033 39:-0.164195 40:-0.096861 41:0.393733 42:-0.829644 43:0.925250 44:1.116304 45:0.019841 46:1.415268 47:1.395381 48:-0.067557 49:1.475309 50:0.455947 51:0.788238 52:-0.606422 53:-1.098115 54:-1.210276 55:-0.449410 56:1.398566 57:-1.733619 58:0.715179 59:0.053987 60:0.078962
-1 1:0.283956 2:2.415439 3:0.327673 4:2.166388 5:-0.732566 6:-0.525683 7:-0.342226 8:-0.883735 9:-0.327356 10:0.686468 11:0.691685 12:-1.076134 13:-0.569734 14:-0.719091 15:0.511696 16:-0.991398 17:-0.152333 18:0.166163 19:0.758237 20:-0.895142 21:0.269372 22:1.061767 23:-1.215405 24:0.649820 25:0.414763 26:-0.024672 27:0.739305 28:-0.492891 29:0.977775 30:0.913845 31:0.242096 32:0.256975 33:0.594236 34:0.484136 35:-0.538241 36:-0.875166 37:-1.092740 38:0.204608 39:0.436489 40:-0.606055 41:0.063086 42:-0.114097 43:-0.114550 44:-0.323349 45:-0.377906 46:-0.453347 47:-0.868572 48:-1.215287 49:1.780127 50:-0.613610 51:-1.009638 52:0.734378 53:-1.066250 54:-0.273878 55:0.361041 56:-1.190490 57:0.326963 58:1.450015 59:-0.634739 60:0.914390
-1 1:-0.465456 2:-0.348573 3:-0.561998 4:0.514557 5:0.199255 6:1.225967 7:-0.980151 8:0.062611 9:0.812353 10:-0.067929 11:1.065888 12:2.241169 13:-0.673383 14:-0.001297 15:-0.833689 16:-1.037844 17:1.240555 18:0.585343 19:-0.487641 20:-0.937576 21:0.962491 22:0.323221 23:1.321927 24:0.053018 25:0.062679 26:0.599000 27:0.867268 28:-1.137943 29:-1.748335 30:0.538744 31:-0.389073 32:1.017085 33:-0.485918 34:0.031940 35:-2.465679 36:-0.912226 37:-1.252087 38:-0.666422 39:0.099436 40:0.530081 41:1.796207 42:1.782503 43:0.616703 44:0.273319 45:-0.380026 46:-0.013725 47:0.738235 48:0.341254 49:-0.161666 50:0.819105 51:1.474450 52:-0.273091 53:0.966212 54:-0.004775 55:-1.910137 56:0.646781 57:-2.257506 58:-0.757958 59:0.431544 60:-0.112166
-1 1:0.553259 2:-0.243195 3:2.070570 4:-0.337539 5:1.889234 6:0.534638 7:-1.764805 8:-1.342516 9:0.466677 10:-0.567538 11:1.103031 12:-0.140020 13:0.696594 14:-0.566637 15:-1.971895 16:-0.247638 17:0.598645 18:-0.666372 19:-0.454073 20:-0.007655 21:0.034615 22:-0.851684 23:0.473352 24:0.601058 25:0.105586 26:-0.488652 27:1.994684 28:-0.707747 29:0.124591 30:-1.902415 31:0.121710 32:1.446429 33:-0.372675 34:0.416898 35:-1.695033 36:0.048861 37:-1.100309 38:-0.079760 39:0.675747 40:0.266524 41:-0.524859 42:0.857000 43:-1.560369 44:0.667050 45:-1.437582 46:1.016283 47:-0.816229 48:-0.408775 49:-1.094956 50:-0.608391 51:-0.659912 52:-0.160521 53:-1.139817 54:-0.074485 55:0.174867 56:0.539018 57:-0.590610 58:-0.848028 59:0.645792 60:1.135850
-1 1:0.053498 2:-0.211915 3:-1.422688 4:1.131845 5:-0.811761 6:1.228361 7:0.328784 8:1.153409 9:-1.447092 10:-0.159862 11:0.979301 12:1.865762 13:-0.178718 14:-0.208979 15:0.892135 16:-0.380251 17:-0.879106 18:-0.503462 19:-1.516190 20:-0.380156 21:-1.531617 22:-0.390144 23:-2.100144 24:0.415781 25:0.210795 26:-0.520514 27:0.343832 28:-1.739478 29:0.966787 30:0.068146 31:1.179355 32:-0.617716 33:0.569268 34:-0.240335 35:0.512429 36:2.579974 37:0.383032 38:-0.673741 39:0.006330 40:0.050203 41:-0.392094 42:1.232125 43:1.113601 44:-0.584158 45:1.019222 46:-0.701067 47:0.402046 48:-2.028300 49:-0.051194 50:0.982026 51:-1.444297 52:-0.136406 53:-1.678607 54:-0.877494 55:0.254972 56:-0.648926 57:2.064147 58:-1.058665 59:0.612012 60:-1.864090
-1 1:1.176247 2:0.211561 3:0.401592 4:-1.383344 5:0.311860 6:0.083793 7:-0.607960 8:0.217613 9:0.182057 10:0.674806 11:-0.001922 12:1.050242 13:0.074257 14:-0.927333 15:-0.407539 16:0.821442 17:-1.351447 18:-0.183652 19:1.262055 20:-0.768083 21:1.299879 22:0.950256 23:1.985035 24:-0.595360 25:-0.626776 26:0.099831 27:0.468747 28:-1.056412 29:-0.752144 30:-0.711287 31:-0.211929 32:-0.107791 33:0.248649 34:-0.128394 35:-0.308586 36:1.367484 37:-1.257792 38:-0.065597 39:-0.593628 40:-0.793856 41:0.246108 42:1.470367 43:0.794349 44:-0.710061 45:1.911621 46:-0.399103 47:2.614667 48:-0.961984 49:-0.651108 50:-1.163133 51:-0.450606 52:0.606476 53:-0.262318 54:-1.813992 55:1.772135 56:1.540773 57:-1.071944 58:0.160931 59:-0.822686 60:-0.799060
-1 1:-0.087568 2:0.884882 3:-0.771226 4:-0.730245 5:-1.104853 6:2.653727 7:0.383629 8:-0.000550 9:-0.585026 10:0.915750 11:-0.388940 12:0.332650 13:-0.782345 14:0.139424 15:1.703875 16:0.503413 17:-0.137567 18:-0.658263 19:-0.639255 20:1.878878 21:-2.143941 22:0.681413 23:-0.550155 24:-0.243461 25:-1.098361 26:-0.147002 27:-1.026107 28:1.416507 29:2.917529 30:0.023304 31:-1.046881 32:0.666636 33:-0.047404 34:-1.325471 35:-0.519412 36:-0.127169 37:1.054968 38:-0.688889 39:-0.454186 40:0.827419 41:-0.621925 42:-0.399047 43:1.164159 44:1.600348 45:0.201469 46:0.372353 47:-0.339155 48:-0.036665 49:-1.318626 50:-1.428501 51:-0.430072 52:1.470921 53:-0.119085 54:-0.663629 55:0.098932 56:-0.022089 57:-1.075082 58:0.063393 59:-1.415090 60:-1.138107
-1 1:0.116065 2:-0.513061 3:-0.431552 4:-0.145102 5:-0.620995 6:0.408549 7:-1.748533 8:-0.044476 9:-0.828675 10:0.613362 11:-0.411216 12:-0.187289 13:0.253691 14:0.905526 15:0.178332 16:-1.628809 17:2.080693 18:-1.200003 19:1.187076 20:-1.043867 21:2.382792 22:-2.025315 23:0.881650 24:0.862964 25:-1.291722 26:0.827371 27:-1.054432 28:-1.040060 29:-0.298855 30:-0.587321 31:0.096160 32:0.044732 33:0.665955 34:0.949807 35:-0.520814 36:0.445410 37:2.207477 38:0.723800 39:0.348658 40:-2.642195 41:0.332212 42:0.207152 43:0.453588 44:0.168763 45:-0.491443 46:-0.499483 47:-0.845044 48:0.202311 49:-0.538225 50:1.021328 51:-0.083291 52:-0.286936 53:-0.709763 54:0.400192 55:-0.506512 56:1.067329 57:-1.166104 58:0.799104 59:1.194615 60:-0.713738
-1 1:1.695952 2:0.372806 3:0.904144 4:-0.474975 5:-0.160421 6:-1.279215 7:0.175982 8:-1.950213 9:-0.687519 10:-0.312878 11:0.645372 12:0.224365 13:0.809908 14:-1.369053 15:-0.966126 16:-0.229425 17:0.450709 18:-1.292563 19:-0.899244 20:0.603204 21:-0.602904 22:-1.888316 23:0.467949 24:2.594137 25:-0.849426 26:-0.045751 27:0.423900 28:-1.402584 29:-0.566045 30:2.754523 31:-0.631768 32:0.393016 33:0.311396 34:-1.301618 35:0.787272 36:0.393086 37:1.167648 38:0.955346 39:-0.720210 40:-0.323288 41:-0.728562 42:1.443903 43:0.749428 44:-0.726916 45:-0.595755 46:-2.706331 47:1.144374 48:-2.321411 49:-1.097449 50:1.381751 51:-1.620042 52:0.630052 53:0.409364 54:1.170451 55:1.567276 56:0.019294 57:-1.841236 58:0.237704 59:-0.027711 60:-2.077275
-1 1:1.965482 2:-0.287450 3:-0.382134 4:-2.736644 5:0.187217 6:-0.258977 7:-0.306824 8:-0.313694 9:0.910091 10:0.793502 11:0.123194 12:-1.327248 13:-1.414689 14:-1.246726 15:1.032172 16:0.347387 17:0.442350 18:1.046421 19:1.470083 20:-1.333768 21:-0.597138 22:0.137026 23:-3.086426 24:0.267797 25:1.260468 26:-0.721743 27:-0.691481 28:-0.198149 29:0.778650 30:-0.565986 31:0.193799 32:0.801942 33:-0.261876 34:-0.298714 35:-0.373292 36:0.449787 37:0.964859 38:0.193584 39:2.722569 40:-0.291754 41:0.304365 42:-0.524992 43:1.288064 44:-1.687863 45:-0.569782 46:1.133963 47:-1.385577 48:1.020153 49:-2.844358 50:-0.331267 51:0.432574 52:-0.769363 53:1.290333 54:0.644322 55:0.164236 56:0.741354 57:0.038620 58:-1.167050 59:0.575214 60:-0.312632
-1 1:1.916566 2:1.779308 3:0.631634 4:-0.590826 5:3.080076 6:0.602231 7:0.120817 8:0.256350 9:-0.645866 10:0.178539 11:0.453644 12:-0.341956 13:0.217569 14:2.821011 15:-1.937420 16:-1.932007 17:-0.676037 18:-0.720151 19:-1.148313 20:2.065267 21:-0.272581 22:-0.398241 23:1.128994 24:1.514796 25:-0.822808 26:0.591228 27:2.258152 28:0.315996 29:1.377677 30:-1.525682 31:-0.083976 32:2.447701 33:1.793953 34:0.975404 35:0.086775 36:0.956839 37:-0.729110 38:-0.328135 39:1.717404 40:-0.799517 41:-0.215067 42:0.428297 43:1.344144 44:-0.774435 45:-0.229445 46:0.527014 47:-0.618309 48:1.087071 49:-0.659549 50:1.405611 51:0.523345 52:1.615209 53:-0.417457 54:-1.893914 55:0.213175 56:-1.050060 57:-0.324157 58:-0.715747 59:0.121919 60:-0.073476
-1 1:-0.857298 2:1.844981 3:1.266929 4:-1.370859 5:-1.394595 6:0.589923 7:-0.235398 8:-1.403230 9:-0.967288 10:0.016253 11:-0.330673 12:1.065822 13:1.139764 14:0.289825 15:-3.503691 16:-0.604081 17:0.297471 18:0.010248 19:0.055569 20:-0.369723 21:1.891968 22:-0.265427 23:0.670304 24:0.239802 25:0.637515 26:0.418603 27:-0.112033 28:0.573637 29:0.032848 30:2.154025 31:-0.885092 32:0.955092 33:-1.346370 34:0.326764 35:0.221222 36:-0.559648 37:-0.350985 38:1.217241 39:-0.256091 40:-1.332224 41:0.052997 42:0.449609 43:-1.639342 44:0.805565 45:-2.979724 46:1.558958 47:-0.666599 48:0.356188 49:0.526143 50:0.208703 51:0.460039 52:0.200070 53:0.530086 54:-0.471364 55:0.791793 56:-0.668541 57:-1.411703 58:0.620368 59:-0.210950 60:-1.409854
-1 1:0.659850 2:0.125313 3:0.830993 4:1.071158 5:-1.374242 6:1.467953 7:1.552828 8:0.307568 9:0.684886 10:-0.030110 11:0.718495 12:0.257565 13:-0.122881 14:-0.377563 15:0.016059 16:-0.072407 17:-1.409542 18:0.858806 19:-1.761753 20:0.117053 21:0.026076 22:1.034719 23:-1.018179 24:-3.126853 25:-0.421639 26:-0.990456 27:1.147713 28:-0.827408 29:1.429042 30:-0.228750 31:3.244934 32:0.115285 33:0.398865 34:1.535414 35:2.236439 36:0.388848 37:0.656758 38:0.081108 39:-1.943866 40:0.019768 41:-1.262120 42:-0.303903 43:-0.368708 44:-1.709836 45:-0.902134 46:-0.532384 47:-0.004474 48:0.796072 49:2.157507 50:0.980194 51:0.862193 52:1.084501 53:1.585993 54:-0.523004 55:-0.573875 56:-0.840695 57:1.251564 58:1.148333 59:2.154231 60:-0.326515
-1 1:0.183197 2:0.226910 3:1.208054 4:0.256994 5:-0.759493 6:0.318096 7:0.037915 8:0.334527 9:-0.130876 10:-3.688297 11:0.231308 12:-1.687937 13:-1.758212 14:-0.833665 15:-0.486315 16:-0.080816 17:-0.199659 18:0.287478 19:-2.086524 20:-0.212604 21:-0.482883 22:-0.100548 23:-0.506983 24:1.391265 25:-0.783624 26:1.371077 27:0.923892 28:0.119493 29:0.246032 30:0.715164 31:-0.514800 32:1.580534 33:1.583052 34:-0.523232 35:-0.157305 36:0.395888 37:-1.249904 38:0.985465 39:-1.433746 40:0.349149 41:-0.416402 42:-2.256546 43:1.313642 44:0.924893 45:-1.114545 46:0.231374 47:-0.316968 48:0.739520 49:0.891942 50:-0.538361 51:-0.765067 52:-1.612569 53:-0.548383 54:0.908584 55:-0.374525 56:-0.551102 57:-0.253956 58:-1.529849 59:-1.668265 60:-0.492620
-1 1:0.362231 2:-1.683997 3:-0.562617 4:-0.689328 5:-1.093021 6:0.355414 7:-2.263670 8:-1.154405 9:-0.515449 10:0.884658 11:1.017460 12:-0.741056 13:0.399709 14:1.296858 15:0.814405 16:0.643417 17:0.716890 18:-1.073863 19:-0.719984 20:0.394992 21:0.259718 22:-0.117770 23:-0.937181 24:0.522107 25:0.573430 26:0.590192 27:-0.501825 28:0.419469 29:1.650768 30:0.777604 31:-0.259897 32:-2.137643 33:0.185701 34:-0.222579 35:-0.105825 36:0.863543 37:0.044332 38:1.076265 39:0.025458 40:-0.468966 41:1.741385 42:-1.218314 43:1.617355 44:0.323994 45:-0.825048 46:-0.275159 47:0.856386 48:-0.986590 49:-0.782565 50:0.684330 51:-1.337373 52:-0.993643 53:0.415483 54:-1.512602 55:-0.495429 56:-0.877155 57:-1.519574 58:-1.807052 59:-0.566389 60:0.304947
-1 1:1.450641 2:-0.479946 3:-0.814749 4:1.405491 5:0.162548 6:-0.823691 7:-1.265542 8:-0.097260 9:0.860112 10:0.537095 11:-1.654321 12:0.151557 13:-0.215773 14:3.198346 15:-2.608131 16:-0.776657 17:0.590670 18:0.548014 19:0.105957 20:-1.568382 21:1.785955 22:-0.519484 23:-1.102874 24:0.605162 25:0.306572 26:0.915466 27:-0.674060 28:-0.163162 29:0.668420 30:0.471100 31:-0.191429 32:-0.846223 33:-0.132728 34:1.066264 35:0.319324 36:-0.150250 37:0.949056 38:-1.761080 39:-0.676806 40:0.766003 41:-0.122741 42:0.163644 43:-1.661348 44:1.308654 45:-0.475552 46:-2.040756 47:-0.368092 48:-1.270717 49:0.369734 50:0.895445 51:-1.887226 52:-0.427614 53:0.449562 54:1.253952 55:-0.186958 56:0.113267 57:1.697138 58:0.747450 59:1.645372 60:0.487964
-1 1:1.361852 2:1.194292 3:0.443796 4:1.366404 5:0.439366 6:-0.665561 7:0.416911 8:0.777739 9:-0.711900 10:-1.392814 11:-1.121935 12:0.430577 13:-2.849928 14:0.223250 15:0.069766 16:0.507008 17:1.205210 18:1.452395 19:0.347309 20:-0.484282 21:-0.271544 22:-0.375371 23:0.196112 24:1.178530 25:-1.199277 26:0.169430 27:0.862742 28:0.663872 29:-0.853211 30:1.267169 31:-0.928699 32:1.387307 33:-0.484790 34:-0.520683 35:0.026109 36:-0.291120 37:-1.413561 38:0.698620 39:0.979231 40:0.813152 41:-0.246792 42:-0.024114 43:-1.117524 44:-0.764491 45:-0.431789 46:-1.178177 47:1.425989 48:-0.694438 49:0.043446 50:-0.748606 51:0.550303 52:-1.008023 53:1.852872 54:1.117741 55:-0.204881 56:-0.099979 57:-1.261776 58:0.172951 59:-0.433499 60:-0.522149
-1 1:0.462877 2:-0.654713 3:-0.301083 4:-1.044045 5:0.204202 6:-0.995295 7:0.109840 8:1.251740 9:1.926410 10:-0.394943 11:0.898430 12:2.095545 13:-1.091427 14:-1.283100 15:0.001265 16:-0.015095 17:-1.311528 18:-1.336323 19:-0.245720 20:-2.649305 21:0.596936 22:-2.318402 23:-1.243107 24:1.199892 25:0.230255 26:-0.167169 27:0.608800 28:-1.153863 29:0.038295 30:0.158520 31:0.526354 32:0.983586 33:0.086127 34:-0.325006 35:0.590762 36:1.791408 37:0.346501 38:1.222893 39:0.831108 40:-0.537329 41:0.496902 42:1.182752 43:-0.207426 44:-0.396369 45:1.442830 46:-1.013756 47:0.000174 48:0.942879 49:-0.876201 50:-0.235871 51:0.942512 52:0.776952 53:1.182403 54:-0.410739 55:-0.451520 56:0.644172 57:0.216972 58:1.117513 59:-1.022306 60:-0.951275
-1 1:-1.432452 2:-0.943031 3:-0.215017 4:-1.312861 5:1.416226 6:0.345423 7:-0.457542 8:0.852003 9:-0.531472 10:-0.949101 11:-0.724887 12:1.174582 13:-0.379411 14:-0.212239 15:-1.315332 16:-0.451467 17:-0.543206 18:-0.808467 19:1.056619 20:0.626500 21:-0.718148 22:-0.698922 23:-0.908959 24:-0.249331 25:-0.241180 26:-0.462871 27:-0.287634 28:-0.533404 29:-0.332524 30:0.286108 31:3.032801 32:-1.039015 33:0.441979 34:0.768264 35:-0.762227 36:-1.164302 37:-1.204017 38:2.318129 39:-0.058209 40:-0.654982 41:-1.781836 42:-1.670586 43:0.917915 44:-0.141626 45:-0.147379 46:0.974470 47:-1.991485 48:0.680763 49:-2.430890 50:-0.367094 51:-0.813522 52:-0.039245 53:0.238866 54:-1.027043 55:-0.845118 56:-0.758944 57:-0.092955 58:-1.730633 59:-0.352830 60:0.487259
-1 1:0.446805 2:1.258755 3:0.698863 4:-1.463463 5:-0.222261 6:-0.164825 7:0.421726 8:1.262518 9:0.230061 10:0.767586 11:-1.113379 12:1.505671 13:-0.240359 14:1.155821 15:-0.369127 16:0.375422 17:-0.246910 18:0.125383 19:2.355276 20:-1.560498 21:0.773688 22:-0.111734 23:-0.793533 24:0.006840 25:-0.907165 26:0.237873 27:0.638563 28:-0.704597 29:1.609690 30:0.691343 31:0.663134 32:-0.600914 33:0.378082 34:0.881176 35:-0.609773 36:0.947086 37:0.617627 38:-0.866964 39:-0.606290 40:0.404984 41:-0.808732 42:-0.603510 43:0.878612 44:-1.076809 45:1.933590 46:-0.038494 47:-2.089172 48:0.668587 49:0.367438 50:-0.559649 51:0.265843 52:-0.488322 53:1.388047 54:-0.070666 55:0.371736 56:-0.490989 57:0.483099 58:0.520258 59:0.717918 60:-0.371158
-1 1:0.922743 2:-0.101205 3:-0.054433 4:-0.077520 5:-0.246584 6:-0.088151 7:1.966774 8:1.387657 9:2.781522 10:-0.047893 11:0.743741 12:-1.545350 13:1.481847 14:-2.668954 15:0.046339 16:-1.015624 17:0.916453 18:-1.278896 19:0.024656 20:1.584280 21:0.344137 22:-0.458948 23:-0.528818 24:1.363993 25:-1.014085 26:-0.710251 27:-1.358716 28:0.367971 29:-1.800055 30:0.680867 31:-0.090699 32:0.731077 33:0.344270 34:-0.006251 35:-1.646884 36:0.764661 37:1.878549 38:-0.062496 39:-0.823470 40:-0.900081 41:-0.082094 42:-1.001526 43:-0.132728 44:-0.600422 45:-0.813661 46:1.026085 47:1.608009 48:-0.654710 49:-0.189520 50:0.640192 51:0.672720 52:-0.170364 53:1.258183 54:-0.046199 55:0.482769 56:0.497274 57:-0.904062 58:0.405083 59:0.355426 60:1.013336
-1 1:0.937091 2:-0.052961 3:-0.570089 4:0.087566 5:-0.897723 6:3.593594 7:0.027630 8:-1.017993 9:0.530086 10:0.233014 11:-0.966061 12:-0.754004 13:-1.414977 14:0.330815 15:-0.722689 16:0.592332 17:-2.452733 18:0.852008 19:-0.399242 20:0.315590 21:1.209661 22:0.067715 23:0.537388 24:0.448241 25:0.612246 26:-0.255922 27:-0.265711 28:1.399601 29:2.080570 30:0.266905 31:-1.640970 32:-0.748001 33:-0.726034 34:-0.940014 35:0.935480 36:0.142312 37:0.101682 38:-0.904921 39:-0.842499 40:-1.516336 41:2.127796 42:0.957664 43:-0.118482 44:-0.295304 45:1.261736 46:0.676247 47:-0.088958 48:0.852547 49:-0.154169 50:1.475792 51:0.565650 52:-0.544345 53:0.398933 54:-1.203904 55:1.141151 56:-0.687327 57:1.952823 58:-0.573430 59:0.094656 60:0.136112
-1 1:-2.292665 2:-0.643718 3:-0.706186 4:1.134158 5:0.581497 6:0.333059 7:0.142418 8:0.900670 9:1.315999 10:1.089328 11:-0.547786 12:1.453832 13:0.068854 14:-1.068440 15:1.315798 16:1.741122 17:0.088036 18:-0.415276 19:-1.422416 20:-0.196840 21:-0.617813 22:-2.017885 23:0.288591 24:-0.696373 25:-1.213852 26:1.107553 27:-1.017861 28:-0.472166 29:-2.159670 30:1.104310 31:-0.800290 32:1.524222 33:1.121582 34:-0.226163 35:2.339596 36:-0.370475 37:-0.597238 38:-0.340195 39:0.779731 40:-3.143738 41:-1.543769 42:-1.585970 43:1.880441 44:1.996172 45:1.341961 46:0.245661 47:0.560653 48:-0.857291 49:0.213009 50:0.050218 51:0.534868 52:-2.004943 53:0.004720 54:0.478379 55:-0.030886 56:-0.781270 57:-1.736530 58:1.247903 59:-1.092307 60:-0.194147
-1 1:0.888355 2:0.599021 3:0.676286 4:0.835210 5:-0.688165 6:-1.276216 7:0.771055 8:0.864321 9:-1.515489 10:-0.707830 11:4.200029 12:-0.617668 13:-0.588663 14:-3.024516 15:1.089623 16:-0.932858 17:1.243805 18:2.080977 19:-1.117948 20:1.124660 21:1.621199 22:-0.786238 23:-0.204389 24:-0.830088 25:3.180894 26:-0.629691 27:-0.995619 28:-0.597446 29:0.762001 30:-0.272424 31:-0.373829 32:-0.442005 33:1.459790 34:-0.996902 35:-1.477342 36:1.299612 37:0.689175 38:-0.272799 39:-1.001967 40:0.694744 41:-0.051180 42:-0.267042 43:-0.903109 44:1.161008 45:0.366699 46:1.201469 47:1.394869 48:-1.289348 49:0.069306 50:0.336586 51:1.513236 52:-0.861115 53:1.235694 54:-0.070000 55:1.587816 56:1.568141 57:0.022912 58:-2.264031 59:-1.411562 60:-0.749067
-1 1:0.249714 2:-0.034740 3:-0.385014 4:-0.145168 5:0.578588 6:-1.066745 7:0.108857 8:0.444297 9:0.717025 10:-0.050004 11:-2.558657 12:0.272180 13:0.908486 14:0.493500 15:-0.185538 16:0.789756 17:0.234669 18:1.418078 19:-0.850288 20:0.476942 21:0.778147 22:0.874696 23:-0.796322 24:1.754049 25:1.630280 26:0.477624 27:-1.214595 28:-0.155522 29:1.212632 30:0.785040 31:-0.539216 32:-0.603108 33:0.320462 34:-0.903354 35:-1.263542 36:-1.022256 37:-0.526791 38:1.439442 39:1.159994 40:-0.438476 41:-0.205881 42:0.382417 43:-0.057751 44:0.409928 45:0.374603 46:-1.186251 47:0.663501 48:-0.007456 49:1.300152 50:0.162482 51:-0.892527 52:0.208421 53:0.182009 54:-0.154290 55:1.017333 56:-1.677948 57:-1.275272 58:0.224234 59:1.410358 60:0.907303
-1 1:0.218978 2:1.102523 3:-0.566695 4:-1.153226 5:-0.020683 6:0.772103 7:-0.447598 8:0.029339 9:-0.067676 10:-0.060722 11:0.205787 12:-0.424575 13:-0.412598 14:-0.225010 15:0.031922 16:-0.236361 17:-0.964475 18:-0.038758 19:-0.870024 20:-0.851683 21:-1.589136 22:0.434947 23:-1.075350 24:0.065409 25:2.685101 26:1.658764 27:-0.869034 28:-1.356409 29:0.670693 30:-0.694452 31:-0.147290 32:1.109135 33:-2.084364 34:0.404341 35:0.561091 36:0.452072 37:1.531471 38:0.488332 39:0.809011 40:0.226271 41:-0.666553 42:0.859316 43:0.087079 44:1.467494 45:0.316291 46:0.451818 47:-0.120731 48:-0.310585 49:-0.261118 50:0.318614 51:0.380009 52:-0.542882 53:0.453107 54:0.078146 55:1.800881 56:-0.593322 57:1.500198 58:-0.402496 59:-0.529539 60:0.254187
-1 1:0.716408 2:-0.606678 3:-1.451278 4:0.385883 5:0.971267 6:0.449094 7:-0.170776 8:-1.946050 9:-1.407901 10:-1.076338 11:0.935612 12:-0.707299 13:-0.443702 14:0.319442 15:0.012214 16:0.475474 17:0.019589 18:0.277049 19:0.474362 20:-0.067602 21:-0.351385 22:0.465299 23:-0.972278 24:1.090754 25:-0.483100 26:0.811162 27:1.205457 28:-0.888986 29:0.148051 30:-0.580802 31:0.051950 32:-1.871851 33:-1.083919 34:1.421316 35:1.146868 36:-0.662364 37:-1.712171 38:0.333367 39:-0.639758 40:-2.364069 41:0.301849 42:1.556398 43:-1.676837 44:-2.175669 45:0.440569 46:1.147608 47:0.949551 48:0.305267 49:1.305335 50:-0.253188 51:2.135148 52:-0.863891 53:-1.281264 54:0.686731 55:-0.722110 56:0.242774 57:-0.504940 58:-0.013697 59:0.506394 60:-2.326223
-1 1:0.678586 2:0.874830 3:0.211541 4:0.470644 5:0.537188 6:0.486943 7:0.038234 8:-1.033660 9:1.439782 10:-0.368449 11:-0.285587 12:0.064009 13:-2.124340 14:1.724464 15:-0.262983 16:-0.399382 17:-0.405794 18:0.239061 19:-1.294126 20:0.166312 21:1.281973 22:2.372813 23:1.715290 24:0.371631 25:0.138135 26:0.451574 27:-0.114832 28:0.264114 29:0.562038 30:1.603310 31:-0.018364 32:-1.842603 33:0.338052 34:-1.258658 35:0.336892 36:-1.658649 37:-1.464597 38:-0.869725 39:0.510239 40:-1.603664 41:0.804813 42:-0.161889 43:-1.185243 44:0.006054 45:1.619799 46:-2.011828 47:0.422697 48:0.372646 49:-0.599065 50:0.402402 51:0.271842 52:0.261434 53:0.062078 54:-0.943820 55:2.063033 56:1.070382 57:0.319758 58:-0.492664 59:-0.055821 60:0.278861
-1 1:0.230011 2:-2.432782 3:-0.377808 4:-0.391645 5:-0.313952 6:0.151950 7:0.087255 8:-0.541448 9:1.288190 10:0.123007 11:0.531818 12:-0.355447 13:-1.044408 14:0.369457 15:0.483132 16:-0.150115 17:-0.143140 18:0.928695 19:-1.456128 20:0.709375 21:0.833402 22:0.180004 23:-1.259907 24:-1.665536 25:-1.631485 26:1.625113 27:0.915733 28:0.653598 29:-0.099062 30:-0.708420 31:-0.302610 32:-0.142111 33:1.217820 34:0.583583 35:1.021171 36:0.059848 37:-0.592864 38:-0.636688 39:0.083196 40:0.432286 41:-0.216053 42:0.203608 43:-1.383665 44:0.618390 45:0.145964 46:-0.892423 47:1.015061 48:-1.141725 49:0.946827 50:0.709609 51:0.165933 52:-1.713507 53:0.306149 54:-0.961960 55:0.471895 56:-1.104803 57:0.494193 58:0.399959 59:-1.513586 60:0.507826
-1 1:-0.462601 2:-0.111567 3:-0.141751 4:-2.907863 5:-0.446996 6:1.462265 7:-0.314822 8:-0.520782 9:0.310368 10:0.721297 11:0.984900 12:-0.836072 13:-1.510927 14:-1.223176 15:0.095741 16:1.022718 17:-1.366807 18:0.630956 19:-0.575891 20:-2.223852 21:-0.923324 22:-1.517969 23:-0.431260 24:-0.209444 25:-0.434989 26:1.293697 27:-0.359752 28:1.445865 29:0.181524 30:0.127767 31:-1.437474 32:-1.355390 33:1.544931 34:0.312729 35:-0.423011 36:-0.317154 37:1.582006 38:1.405973 39:-0.889531 40:1.158339 41:0.028461 42:0.023842 43:-0.666424 44:-0.352434 45:-1.711188 46:0.709943 47:-1.172974 48:-0.568139 49:-0.138812 50:1.201021 51:-0.836028 52:1.177827 53:-0.861927 54:-1.439357 55:-0.375106 56:0.575289 57:0.831248 58:0.653539 59:0.708172 60:0.443207
-1 1:0.331728 2:0.927789 3:0.906400 4:-0.786161 5:-1.348911 6:0.327102 7:-0.025496 8:0.061138 9:-0.201353 10:0.818047 11:0.989298 12:-0.888707 13:0.885894 14:0.024685 15:0.662861 16:-0.395943 17:-2.377074 18:-0.734655 19:0.825160 20:-0.937064 21:0.174666 22:-0.536426 23:0.010778 24:-0.041287 25:0.575122 26:-0.007649 27:-0.653930 28:-0.263728 29:-0.207276 30:-0.258334 31:-0.755726 32:0.039641 33:0.347715 34:-0.093025 35:0.603965 36:-1.185887 37:0.359505 38:-0.135393 39:-0.216445 40:-1.619212 41:0.288212 42:1.670551 43:0.972908 44:1.610860 45:-0.791466 46:-0.630553 47:0.160684 48:-1.791684 49:-0.269580 50:0.612450 51:-0.641530 52:0.816243 53:0.820626 54:-0.452705 55:-0.942521 56:0.387796 57:-1.190001 58:0.740285 59:-0.806624 60:0.951713
-1 1:-2.247564 2:0.335344 3:0.481547 4:0.208143 5:0.527433 6:-1.283537 7:0.081768 8:0.730455 9:0.263430 10:-1.042921 11:-2.348384 12:0.710525 13:0.745324 14:-0.046557 15:1.844034 16:0.303882 17:-2.157362 18:-1.786109 19:-1.752985 20:2.466536 21:-0.662139 22:-0.431323 23:-1.301976 24:-0.107564 25:0.025650 26:-0.975495 27:-0.298839 28:0.596242 29:0.049415 30:0.852882 31:0.504211 32:0.094910 33:0.327109 34:0.716855 35:0.853331 36:-0.034451 37:-1.828190 38:-0.874469 39:0.861016 40:-1.237268 41:-0.122998 42:-0.764523 43:1.745909 44:-0.224441 45:1.266520 46:1.113820 47:0.869800 48:1.186754 49:-2.389491 50:-0.192728 51:-0.455358 52:0.244537 53:-1.046205 54:0.170566 55:1.278781 56:0.181581 57:-0.589347 58:-0.602209 59:1.158450 60:0.248069
-1 1:-1.773606 2:-2.110768 3:0.104339 4:0.727875 5:-1.331147 6:-1.640243 7:0.536436 8:0.643858 9:0.160215 10:1.114263 11:0.508364 12:-1.015629 13:-1.924613 14:0.645848 15:-0.958204 16:0.330601 17:1.114027 18:0.901212 19:1.336742 20:0.376371 21:-0.632789 22:-0.856489 23:0.330697 24:-1.354873 25:1.333424 26:0.642371 27:-0.720577 28:-1.777341 29:-0.362813 30:0.618270 31:0.067652 32:-0.843130 33:-0.470447 34:0.469631 35:-0.005982 36:0.986386 37:-1.113368 38:-0.833387 39:1.516174 40:1.134185 41:-0.630547 42:0.195602 43:-1.558627 44:0.123130 45:0.412777 46:0.810670 47:-0.081944 48:1.008359 49:1.659773 50:-0.418274 51:-0.646492 52:-1.801932 53:0.246078 54:1.094035 55:-0.175946 56:-0.514460 57:0.535925 58:-1.626979 59:-1.775219 60:-1.683876
-1 1:1.420085 2:-0.574404 3:1.558714 4:-0.162157 5:-0.016122 6:1.448959 7:-0.481200 8:-1.275123 9:0.618559 10:-0.288477 11:2.028443 12:0.594360 13:-0.181809 14:-0.076624 15:0.621428 16:-0.207350 17:0.874472 18:0.355368 19:0.527255 20:-2.380135 21:0.271170 22:-0.176778 23:-0.657635 24:-0.544028 25:-0.062043 26:-0.132733 27:0.685608 28:-1.317050 29:1.645648 30:0.445515 31:2.590269 32:0.348974 33:0.132643 34:-0.941071 35:-1.220777 36:-0.754786 37:0.433894 38:-0.154415 39:-0.702683 40:-1.210029 41:0.517716 42:-0.247717 43:-0.502553 44:1.831026 45:-0.816642 46:-1.392989 47:0.604157 48:-3.824491 49:-0.472970 50:-0.557269 51:-0.292007 52:0.895499 53:1.349764 54:-1.659082 55:-0.259683 56:-0.645218 57:0.121805 58:-0.017686 59:-1.080325 60:0.365003
-1 1:-0.959858 2:1.186742 3:-0.120849 4:0.662166 5:-2.119009 6:1.259379 7:0.378876 8:0.907251 9:0.245840 10:-0.393829 11:-0.376942 12:-0.369787 13:-0.322244 14:0.436693 15:-0.515966 16:0.823022 17:0.139557 18:0.099856 19:-0.002783 20:-0.441943 21:1.269905 22:0.987079 23:0.415989 24:-0.985132 25:-0.089528 26:-2.583895 27:-1.450889 28:-0.912182 29:-0.424644 30:-1.983616 31:1.198604 32:-0.737752 33:-0.361428 34:-1.170300 35:-0.259919 36:1.845879 37:-0.044863 38:1.072385 39:-0.097083 40:1.959534 41:1.787956 42:-0.140325 43:-0.216223 44:0.730600 45:1.942677 46:-0.328793 47:-1.354063 48:1.834076 49:-0.869756 50:-0.826163 51:0.069968 52:0.714815 53:0.258343 54:-0.214899 55:-0.243361 56:0.117534 57:-1.436586 58:-0.459423 59:0.798225 60:-1.979685
-1 1:0.964943 2:-0.459526 3:1.121790 4:-0.134834 5:-1.620871 6:-0.731382 7:1.517157 8:-1.428837 9:-0.376425 10:-0.728684 11:-0.706703 12:-0.870489 13:-3.605420 14:-0.297843 15:0.272480 16:0.776485 17:-0.396855 18:-0.394290 19:-1.453084 20:0.378915 21:0.225253 22:0.304852 23:1.264205 24:-0.367413 25:0.163990 26:2.258071 27:-1.660989 28:-0.650928 29:-0.074215 30:-1.448485 31:-1.421347 32:-1.070032 33:-1.901294 34:-1.085355 35:0.984276 36:-0.540170 37:1.063058 38:1.007913 39:0.290188 40:-0.116547 41:1.185278 42:-1.455606 43:-0.562761 44:0.341693 45:-1.407769 46:-2.738380 47:-0.454505 48:0.198891 49:0.200877 50:-0.761520 51:0.439146 52:0.172922 53:0.777903 54:-1.171499 55:0.997513 56:0.156938 57:1.128677 58:1.947284 59:-0.491486 60:-0.431485
-1 1:-1.468719 2:1.358568 3:1.519277 4:0.530410 5:-1.185274 6:0.697780 7:1.420693 8:0.419285 9:-0.290039 10:0.669250 11:-1.213210 12:-1.302871 13:-1.808841 14:0.321706 15:1.733149 16:-1.614076 17:0.527481 18:1.658744 19:-1.081177 20:1.648148 21:2.183250 22:1.621420 23:-2.081476 24:0.079268 25:0.645090 26:-0.668370 27:0.692212 28:1.571969 29:0.625791 30:0.704965 31:0.727746 32:0.394742 33:-1.740776 34:-0.598759 35:0.625990 36:-0.024705 37:0.047212 38:0.060479 39:1.353552 40:-0.498705 41:-1.999809 42:0.104326 43:0.415376 44:0.317936 45:-0.746628 46:0.856541 47:0.438286 48:0.869073 49:-1.702131 50:-0.136562 51:-0.583413 52:0.919303 53:0.193182 54:-1.390744 55:-2.281771 56:-0.098117 57:-1.356131 58:1.390135 59:-0.718453 60:-0.383695
-1 1:-0.189917 2:-0.579030 3:0.100295 4:-0.488624 5:0.306091 6:-0.061199 7:-1.290981 8:1.477369 9:-0.985665 10:0.132380 11:-0.607181 12:0.378988 13:-0.835506 14:-0.770615 15:-1.094347 16:-0.392326 17:1.443424 18:-0.163335 19:1.238029 20:0.491747 21:1.448783 22:0.020054 23:0.349434 24:-2.291157 25:-0.419121 26:0.609881 27:0.019358 28:0.814107 29:-0.458744 30:-0.946458 31:-1.328237 32:-0.875110 33:0.024964 34:-0.251760 35:-0.138950 36:-0.760189 37:-0.752383 38:-0.302295 39:1.004320 40:-1.165388 41:0.319658 42:-0.148841 43:0.575949 44:-0.443462 45:-2.248967 46:-0.137629 47:-0.848046 48:1.065944 49:0.726771 50:-0.207640 51:-3.013580 52:-1.213705 53:-1.437622 54:-0.109611 55:1.032640 56:-1.770120 57:-1.443586 58:0.190038 59:0.002896 60:0.296483
-1 1:0.031466 2:0.781646 3:0.566840 4:-2.178477 5:-1.593874 6:-0.553491 7:-1.778048 8:1.893082 9:0.712588 10:-0.620070 11:0.244051 12:-0.975130 13:0.674118 14:-0.557292 15:-0.227593 16:0.458475 17:2.488271 18:0.061711 19:0.073234 20:-1.212473 21:-1.155721 22:-0.908840 23:1.647924 24:0.622747 25:-0.706496 26:-0.026488 27:-0.281534 28:1.629770 29:0.503826 30:-1.156487 31:-1.452388 32:1.479400 33:0.189668 34:-0.532401 35:0.487871 36:-0.207989 37:-1.121007 38:1.155238 39:-0.943191 40:0.590405 41:0.068733 42:0.942983 43:-0.717891 44:0.489451 45:-1.423726 46:0.102703 47:-0.773845 48:-1.255942 49:0.222965 50:2.276768 51:0.095400 52:-0.247810 53:0.818474 54:1.139135 55:-1.034217 56:1.313204 57:-1.734255 58:0.067972 59:0.124694 60:1.249295
-1 1:-0.368925 2:-0.253959 3:-0.336759 4:-0.194146 5:-0.157153 6:0.646326 7:0.027736 8:0.325116 9:-1.110838 10:-1.863072 11:0.792977 12:2.180612 13:-0.573751 14:0.586118 15:-0.058083 16:-1.012579 17:1.690003 18:1.425222 19:0.304322 20:1.374308 21:-1.503596 22:0.180588 23:-1.200495 24:0.306878 25:1.046249 26:-1.475008 27:0.966280 28:0.929295 29:-0.659964 30:0.269423 31:-1.285703 32:1.874088 33:0.344003 34:-1.485931 35:0.469394 36:-0.989860 37:1.052385 38:-0.070614 39:-0.363369 40:-0.501456 41:0.299124 42:0.370928 43:0.371572 44:0.611252 45:1.154847 46:0.803338 47:-1.168232 48:-0.697165 49:-1.414076 50:1.474894 51:0.404207 52:0.782571 53:1.257442 54:0.105133 55:-0.036912 56:0.611463 57:-1.016215 58:-1.856805 59:-1.523139 60:0.643135
-1 1:-1.012658 2:0.417973 3:-0.658438 4:0.329543 5:0.606797 6:-0.579944 7:0.150283 8:-0.478268 9:1.943087 10:0.246167 11:-0.787047 12:-0.799169 13:0.592346 14:-0.751484 15:-0.575473 16:-0.800906 17:-0.384288 18:1.576611 19:0.227502 20:0.950019 21:-1.323390 22:0.734168 23:-0.214548 24:0.701146 25:0.326477 26:1.382010 27:-1.223679 28:-1.145730 29:-0.286770 30:0.516119 31:0.573396 32:-1.461728 33:-0.167450 34:0.375569 35:0.938420 36:-0.571111 37:-0.021031 38:-0.492628 39:-1.231962 40:0.696492 41:-0.578575 42:1.287791 43:0.552987 44:-0.015990 45:-0.985211 46:-0.563377 47:-1.207598 48:-0.367090 49:-0.208644 50:1.149991 51:-0.498265 52:1.244751 53:0.107596 54:-0.019296 55:-1.554013 56:0.052892 57:-0.779301 58:1.942401 59:-2.255679 60:-0.340821
-1 1:-1.356329 2:0.744563 3:0.485599 4:-0.239446 5:0.043391 6:1.271389 7:-0.716161 8:1.457131 9:0.927490 10:0.885655 11:-1.085835 12:0.735471 13:0.482557 14:-1.248195 15:0.932603 16:1.100854 17:0.461503 18:-0.357185 19:-1.960621 20:0.933217 21:-0.040003 22:0.880750 23:0.890876 24:-0.324110 25:1.724561 26:1.364447 27:-1.551169 28:-0.069980 29:1.777889 30:-0.703403 31:0.382996 32:0.610270 33:0.629454 34:-0.893629 35:1.519464 36:1.602356 37:-0.633354 38:-0.368670 39:-0.443116 40:-1.272854 41:1.676017 42:-2.527622 43:1.451752 44:-0.201960 45:1.960551 46:0.272472 47:0.332885 48:-1.496730 49:0.468536 50:0.453794 51:-0.697520 52:-0.470062 53:1.745937 54:0.585452 55:1.304394 56:-0.515910 57:-0.001579 58:-0.500201 59:0.695422 60:-1.071634
-1 1:-0.422167 2:-0.466789 3:0.219901 4:0.480739 5:0.305463 6:0.988892 7:1.222648 8:-2.151969 9:2.526879 10:-2.334269 11:0.209436 12:0.735723 13:1.076168 14:0.997432 15:-0.256152 16:-1.318597 17:-1.639335 18:2.194739 19:0.804322 20:1.129142 21:0.413180 22:-0.071310 23:1.173669 24:0.297272 25:1.329792 26:-0.638714 27:1.315243 28:-0.229036 29:-0.668307 30:-2.591406 31:0.710925 32:1.839171 33:-0.774658 34:-0.203186 35:0.925283 36:1.007110 37:1.441920 38:0.641001 39:-0.025232 40:-2.223422 41:0.030389 42:2.879647 43:0.368483 44:-1.671325 45:-0.996967 46:-0.814033 47:0.085685 48:1.068104 49:-1.256476 50:-0.059734 51:0.450915 52:0.443608 53:1.222205 54:0.646106 55:0.303614 56:1.537479 57:0.187298 58:-1.060420 59:0.195547 60:-0.129687
-1 1:0.633994 2:0.373038 3:0.075053 4:-0.353330 5:-0.854443 6:-0.606107 7:-1.324073 8:-0.125208 9:-0.352742 10:-1.897065 11:0.079766 12:0.032036 13:-0.680910 14:1.072551 15:1.329900 16:2.100150 17:0.198154 18:-0.566082 19:1.757385 20:-0.297580 21:0.730829 22:0.894312 23:-0.966002 24:-0.513534 25:-2.344993 26:0.974602 27:-0.640350 28:0.668194 29:0.347213 30:-0.252916 31:0.764650 32:-0.030502 33:-0.465646 34:0.501596 35:-0.083226 36:1.878804 37:0.409436 38:-1.540508 39:0.402012 40:-1.067751 41:-0.263157 42:0.220203 43:0.773093 44:0.362444 45:0.149091 46:-0.633049 47:0.235306 48:-0.326869 49:-0.689691 50:0.000088 51:-0.672627 52:0.387745 53:-0.167907 54:1.667205 55:-0.064675 56:-1.120259 57:1.230181 58:1.286259 59:-0.747456 60:0.493961
-1 1:0.611801 2:-0.195761 3:0.046000 4:0.118980 5:-0.575909 6:0.211755 7:-1.655126 8:1.981918 9:0.284946 10:0.648304 11:-1.598989 12:0.514004 13:-0.479428 14:2.325817 15:0.911158 16:-0.614657 17:1.543663 18:-2.310431 19:-1.917316 20:-0.326835 21:-0.649010 22:-0.322475 23:0.112195 24:-0.301165 25:-0.537132 26:-0.723129 27:0.604286 28:1.129041 29:0.549962 30:-0.280948 31:-0.513228 32:0.402183 33:0.681766 34:3.041775 35:0.243125 36:0.394399 37:1.799407 38:0.305366 39:0.303950 40:-0.525762 41:0.359614 42:-0.832179 43:0.095604 44:0.537591 45:-0.242770 46:-0.234187 47:0.669317 48:1.124036 49:-1.401882 50:0.206559 51:0.602597 52:-0.676325 53:-0.796875 54:-0.418383 55:0.269027 56:-0.823523 57:-1.369055 58:0.414451 59:0.136608 60:-0.229246
-1 1:-0.692424 2:-0.228186 3:-0.066768 4:-1.038125 5:0.352853 6:0.002207 7:-1.290372 8:0.277048 9:1.402495 10:0.769509 11:-0.269696 12:-1.422123 13:-1.109408 14:-0.574304 15:0.383691 16:-0.217040 17:-0.485611 18:0.422912 19:-0.115212 20:0.666790 21:0.097867 22:-0.314439 23:1.378917 24:0.817167 25:0.795429 26:1.574473 27:-0.685087 28:0.905353 29:-1.529437 30:-0.659303 31:0.257607 32:-0.220864 33:0.301609 34:-0.003667 35:1.595004 36:-0.465712 37:0.648296 38:0.598244 39:-1.422054 40:0.099973 41:-0.497047 42:-0.044864 43:0.488643 44:1.416992 45:1.317005 46:1.467787 47:-0.979738 48:-0.579450 49:1.852191 50:0.128560 51:-1.448992 52:-0.656572 53:0.407153 54:-1.990000 55:0.102710 56:0.158986 57:-0.147936 58:-0.973253 59:-0.807678 60:0.763574
-1 1:-0.816500 2:-0.595467 3:-0.604994 4:-0.708316 5:1.359043 6:0.722121 7:-0.522333 8:0.344684 9:-0.044205 10:-0.711708 11:0.880174 12:-0.782059 13:-1.772664 14:0.138553 15:-0.674168 16:0.335301 17:0.344125 18:0.198296 19:-0.348311 20:-0.045665 21:-0.523371 22:1.814532 23:0.083570 24:1.754579 25:0.356500 26:-0.073770 27:-1.147525 28:-1.613070 29:1.002679 30:-0.443463 31:-0.072829 32:0.390112 33:1.962214 34:-1.525468 35:0.076719 36:1.406866 37:-0.240480 38:-0.402681 39:0.623325 40:-0.168698 41:-0.606599 42:0.991442 43:-0.508612 44:-0.603734 45:0.795213 46:0.936469 47:0.221817 48:-1.651162 49:0.939285 50:0.666069 51:0.573665 52:0.954348 53:0.525264 54:-0.135199 55:0.887361 56:0.187819 57:0.382695 58:-0.844263 59:0.065931 60:-0.190404
-1 1:-0.338891 2:1.344416 3:1.626543 4:0.389495 5:-0.685466 6:0.556887 7:-0.106811 8:-0.055487 9:-0.202609 10:0.883774 11:-1.533276 12:-1.400834 13:-0.165636 14:0.656364 15:0.492355 16:-1.371283 17:0.237317 18:0.149206 19:-1.338188 20:0.078230 21:-0.570092 22:-1.915182 23:-1.824206 24:-0.252831 25:1.807865 26:1.957077 27:-0.880669 28:-0.642531 29:0.700628 30:1.198584 31:1.246699 32:0.260689 33:-0.182814 34:-1.198444 35:-1.523107 36:0.944701 37:1.249309 38:-0.439570 39:1.843921 40:0.350215 41:1.273174 42:-1.532441 43:1.025974 44:0.889603 45:-0.822235 46:-0.719413 47:0.807932 48:2.273342 49:0.121845 50:-0.824052 51:-1.159133 52:-0.302681 53:-1.491675 54:-1.452367 55:-0.277924 56:-2.237883 57:1.111705 58:-1.438332 59:-0.606218 60:0.270103
-1 1:0.370160 2:-0.491575 3:-0.524989 4:-0.128161 5:0.725309 6:0.085080 7:0.723551 8:0.104099 9:-1.306330 10:1.282518 11:-1.105610 12:1.250207 13:-0.360669 14:0.825598 15:-0.268799 16:-0.307858 17:-0.410072 18:0.103835 19:0.688568 20:1.654933 21:-0.567158 22:0.576166 23:0.176865 24:-0.946075 25:0.384541 26:-0.435818 27:-0.635730 28:0.309535 29:0.684645 30:0.462484 31:-0.174904 32:-0.363573 33:1.397752 34:0.562330 35:1.859709 36:2.986771 37:0.401685 38:2.183003 39:-1.354966 40:-0.751735 41:-0.600446 42:0.159770 43:-1.393026 44:-0.209560 45:1.627179 46:-1.523341 47:-1.041843 48:-0.630412 49:-1.279018 50:-0.537096 51:-0.398969 52:-1.037775 53:1.326820 54:0.540233 55:-0.368011 56:-0.617661 57:-0.570442 58:-0.674576 59:-1.385342 60:0.566300
-1 1:-0.952964 2:1.033757 3:-0.345766 4:0.791128 5:-0.645508 6:0.844819 7:-1.020601 8:0.967007 9:-2.075911 10:0.712762 11:0.332867 12:-0.054772 13:0.511932 14:-0.887490 15:0.176608 16:1.105369 17:1.347932 18:0.010220 19:0.183867 20:1.681465 21:-2.252178 22:0.369430 23:0.553883 24:0.168229 25:1.248121 26:0.246640 27:0.060132 28:1.731831 29:1.270849 30:1.788619 31:0.247554 32:-0.589358 33:-0.687214 34:-1.801693 35:-0.028968 36:-0.423856 37:-0.131616 38:-0.066684 39:0.863544 40:0.014939 41:-0.002613 42:0.012508 43:-0.167744 44:0.117996 45:-0.715936 46:-0.888069 47:1.431368 48:-1.430648 49:-0.829595 50:0.614036 51:0.855947 52:0.718225 53:0.420718 54:0.831316 55:0.188196 56:1.033661 57:1.150091 58:1.085221 59:0.733737 60:0.636191
-1 1:2.205269 2:-0.406224 3:-0.575231 4:-0.998114 5:0.578685 6:1.080566 7:-0.336992 8:-0.999943 9:0.046114 10:-0.183492 11:2.049853 12:0.670965 13:-1.108606 14:0.625146 15:0.786217 16:-0.090835 17:-0.446672 18:0.700645 19:0.775791 20:-0.346836 21:0.487021 22:2.129526 23:0.221735 24:0.761009 25:0.067716 26:0.029560 27:0.148046 28:-0.783530 29:0.457907 30:0.924430 31:1.117753 32:0.216732 33:0.025709 34:-1.260884 35:0.200532 36:-0.989427 37:1.140535 38:-0.524904 39:1.271175 40:-1.019081 41:-1.646187 42:0.599853 43:-1.044663 44:0.463910 45:1.256240 46:1.566073 47:-0.167006 48:-2.275847 49:-2.323097 50:-0.438150 51:-0.908095 52:-0.044845 53:-0.582732 54:-0.378903 55:1.410076 56:1.529867 57:-0.953356 58:-0.120034 59:0.431686 60:0.613190
-1 1:0.363544 2:-2.360964 3:-0.737108 4:-1.257103 5:1.483488 6:-1.788598 7:-2.281575 8:-0.583021 9:-1.505850 10:-0.510533 11:-0.479531 12:-0.464240 13:0.306565 14:0.298943 15:-1.473557 16:0.020435 17:0.169959 18:-1.309001 19:-1.393839 20:-0.654128 21:1.270206 22:-0.729218 23:-1.070212 24:0.582148 25:-0.838135 26:-0.865958 27:-0.676310 28:1.080573 29:1.171806 30:0.816084 31:-1.979312 32:-1.807567 33:1.363358 34:-0.360205 35:0.101575 36:-1.456217 37:-1.245557 38:-2.122716 39:0.816040 40:0.515925 41:0.642340 42:-1.006284 43:-1.068752 44:2.075978 45:1.313098 46:1.862852 47:1.690648 48:-0.090005 49:0.725680 50:-0.009868 51:0.342043 52:-1.053951 53:0.046298 54:-0.548241 55:1.164238 56:-1.204262 57:-1.471891 58:0.104209 59:0.341885 60:0.602479
-1 1:2.634809 2:-1.495327 3:1.426541 4:0.529795 5:-0.994397 6:-1.532862 7:-0.265522 8:-0.292072 9:1.168976 10:1.189760 11:-0.904086 12:-1.656109 13:1.397733 14:0.867131 15:1.131235 16:-2.326815 17:0.334117 18:-0.899084 19:2.391641 20:-0.802290 21:-0.376608 22:1.995499 23:0.171471 24:-0.757833 25:0.564962 26:0.275046 27:1.041574 28:1.088132 29:0.534677 30:-0.923667 31:0.822607 32:-0.868439 33:2.008026 34:1.225890 35:0.653464 36:-1.411367 37:-0.016710 38:2.932756 39:-0.880364 40:0.009808 41:0.266092 42:1.944717 43:1.807839 44:0.062992 45:-0.228058 46:-1.646021 47:0.741507 48:-0.193129 49:0.833625 50:-0.352291 51:0.385479 52:-1.275252 53:0.949689 54:-1.115169 55:-1.181483 56:-0.426709 57:-0.958783 58:-1.815292 59:-0.818811 60:0.263050
-1 1:-0.117200 2:-0.165707 3:-0.879152 4:-1.953862 5:-0.138602 6:-0.308492 7:-1.177976 8:-1.561633 9:1.783763 10:-0.414100 11:0.002948 12:1.218563 13:-1.159336 14:-0.025977 15:0.734503 16:0.318908 17:0.779563 18:0.760579 19:0.068444 20:-0.495070 21:-0.245417 22:1.432837 23:-1.924804 24:0.388346 25:0.034678 26:-0.592678 27:-1.010168 28:-2.103896 29:0.569541 30:0.374147 31:2.447342 32:-1.193743 33:0.289320 34:0.672305 35:-0.836258 36:-0.801296 37:1.553750 38:-2.084204 39:-0.759118 40:0.253398 41:-0.004709 42:2.095749 43:-2.366248 44:1.367546 45:-0.420812 46:0.741738 47:1.410751 48:-0.617400 49:-1.229003 50:-0.096793 51:-0.065298 52:1.631019 53:0.046188 54:1.418303 55:0.132022 56:-0.925239 57:-0.800953 58:1.096176 59:-1.405426 60:-0.702214
-1 1:-0.224157 2:0.107003 3:0.194108 4:-1.529546 5:0.700701 6:-1.957644 7:-1.067335 8:1.379020 9:0.707250 10:-1.120297 11:1.601761 12:0.627070 13:0.219479 14:0.829412 15:0.568326 16:1.345651 17:0.348410 18:1.867410 19:-1.080448 20:-0.264817 21:0.474202 22:-0.541524 23:1.317095 24:-1.436048 25:-1.097173 26:0.322603 27:0.571070 28:0.857099 29:-1.725601 30:1.427033 31:-0.846141 32:-1.625185 33:-0.519802 34:-0.462565 35:-1.159723 36:-0.405130 37:0.025614 38:0.497074 39:-0.183313 40:-0.701885 41:-0.303441 42:0.470126 43:-1.162076 44:-0.024017 45:-0.401138 46:2.198339 47:-0.406857 48:-1.769773 49:-1.631245 50:-0.913661 51:-0.140894 52:0.427322 53:-0.941419 54:0.602523 55:0.216376 56:0.413595 57:0.188978 58:-0.751774 59:0.979929 60:-0.799522
-1 1:-1.435377 2:-1.241626 3:-0.692988 4:-1.955416 5:-0.242000 6:2.644860 7:0.621063 8:-0.493804 9:-0.655552 10:1.777097 11:-0.454709 12:-2.647043 13:-0.540532 14:0.222093 15:0.142494 16:-1.402840 17:-0.072229 18:0.119147 19:0.123742 20:1.083208 21:-0.071427 22:-0.059525 23:-0.831357 24:0.369492 25:-0.732300 26:0.407048 27:-0.763168 28:-1.615750 29:-0.386794 30:2.262664 31:0.845647 32:0.781134 33:0.944422 34:0.043739 35:1.305005 36:0.031968 37:-1.333707 38:0.524782 39:0.676842 40:0.299433 41:0.446513 42:-0.127420 43:0.263538 44:0.903055 45:0.945827 46:-1.187102 47:-0.972838 48:-0.457889 49:0.400873 50:1.541601 51:1.318006 52:-0.178723 53:0.247100 54:0.477110 55:1.756012 56:1.158607 57:-0.032624 58:-0.438736 59:-1.023895 60:-1.628962
-1 1:2.233057 2:0.001093 3:-1.918940 4:-0.827988 5:-0.332865 6:-1.136684 7:0.017640 8:-0.570866 9:-1.706729 10:-0.710325 11:1.011070 12:-1.846505 13:0.026255 14:0.870970 15:1.790708 16:1.691798 17:0.209081 18:-0.585753 19:0.470975 20:-0.622292 21:0.794992 22:2.625111 23:-0.237851 24:-0.451096 25:-0.418728 26:-1.852121 27:-0.500400 28:-0.272086 29:0.778196 30:0.516171 31:-0.179083 32:1.267836 33:0.244783 34:-0.592545 35:-0.477209 36:-0.054256 37:1.740057 38:-1.054516 39:-2.215786 40:1.600392 41:-0.213495 42:-0.013771 43:1.656682 44:0.871431 45:-1.299351 46:-1.297383 47:2.066876 48:-1.912443 49:-0.475322 50:-1.529978 51:0.526686 52:0.003627 53:-0.900036 54:1.234636 55:0.288237 56:-0.662994 57:1.132144 58:0.671295 59:0.997271 60:0.057783
-1 1:-0.963662 2:-0.844672 3:1.852411 4:-0.373208 5:-0.122934 6:2.177481 7:-0.301760 8:-0.090677 9:0.415926 10:-0.530203 11:-0.372428 12:0.993170 13:0.502636 14:-0.445618 15:-1.826144 16:-1.565489 17:-0.671607 18:-1.621288 19:-0.224036 20:-0.117560 21:0.620351 22:-0.725717 23:1.026499 24:1.718142 25:1.099982 26:-1.333457 27:0.100432 28:-0.921566 29:0.369097 30:0.493577 31:-0.157209 32:0.073815 33:0.358141 34:0.227999 35:1.735098 36:-0.348808 37:0.056886 38:0.368342 39:-2.199228 40:-0.176486 41:0.702577 42:0.891166 43:-0.852360 44:-0.623053 45:0.161192 46:-0.256684 47:0.280864 48:1.235321 49:0.609531 50:0.320926 51:0.862520 52:-1.975607 53:1.732227 54:-2.373857 55:-1.299779 56:2.034119 57:1.718876 58:-2.916772 59:1.403989 60:0.698637
-1 1:1.254763 2:0.562433 3:0.998077 4:0.907678 5:-1.135669 6:0.087345 7:-0.132461 8:-1.221156 9:1.344453 10:1.853091 11:0.792389 12:-2.126301 13:0.816965 14:-0.011641 15:-0.432543 16:-0.503537 17:0.332640 18:-0.219899 19:0.497735 20:-0.371272 21:0.458313 22:-2.097399 23:0.188476 24:0.515304 25:-0.155457 26:-0.401249 27:1.010430 28:1.050771 29:0.697646 30:-0.024108 31:0.033286 32:0.622962 33:0.203751 34:-0.720518 35:-0.625615 36:-0.096858 37:-1.118521 38:-0.157503 39:0.673884 40:-0.472540 41:0.416989 42:-1.957818 43:-0.822572 44:0.877182 45:-0.022346 46:-0.048359 47:-1.099531 48:-0.721213 49:-0.371751 50:0.664662 51:0.794501 52:0.524929 53:-0.217007 54:-0.676288 55:-0.608485 56:-1.777458 57:2.348718 58:-0.776781 59:-0.551662 60:0.710402
-1 1:-1.121709 2:0.875660 3:-0.456897 4:-0.623605 5:-0.630538 6:-0.398982 7:1.432145 8:0.779592 9:-0.203629 10:0.545882 11:0.671410 12:-0.669566 13:0.639591 14:-0.001377 15:0.463932 16:-1.721777 17:-1.510466 18:0.752764 19:-0.658119 20:-0.408678 21:-1.497406 22:-0.609063 23:0.762294 24:-0.974757 25:1.789890 26:-0.003615 27:0.046536 28:3.053233 29:0.188154 30:0.509784 31:0.678701 32:0.045086 33:-2.064612 34:-0.889939 35:-0.060370 36:-2.493795 37:-0.629914 38:-0.572851 39:-0.505710 40:0.812453 41:1.034653 42:-0.899721 43:-0.488821 44:-0.317467 45:0.039915 46:-0.850744 47:0.287678 48:-2.125712 49:0.329826 50:-0.518320 51:-0.268235 52:0.177090 53:-0.731818 54:0.475894 55:0.014070 56:0.327586 57:-1.014920 58:-0.504358 59:0.368358 60:0.164938
-1 1:-1.558775 2:-0.692419 3:0.027993 4:0.705588 5:-0.776504 6:-2.143678 7:-0.652907 8:0.472602 9:0.446538 10:0.246120 11:0.144344 12:-0.473737 13:-0.294902 14:-1.224653 15:0.026609 16:0.478640 17:0.240757 18:0.100694 19:-1.237117 20:1.773394 21:1.316883 22:-0.067752 23:0.481006 24:-2.500302 25:-0.238205 26:1.373831 27:-2.737830 28:0.061128 29:0.009893 30:-0.070092 31:1.583624 32:-1.371340 33:0.702349 34:-0.887640 35:0.487287 36:0.014017 37:0.645051 38:1.557388 39:-0.647388 40:2.109406 41:0.329546 42:0.940180 43:-1.724560 44:0.881633 45:-1.583446 46:-0.450834 47:-1.642117 48:0.669306 49:0.555069 50:0.572509 51:0.394919 52:-0.718310 53:-0.098845 54:0.843350 55:0.063442 56:-0.546210 57:-1.382964 58:-0.277486 59:-0.775353 60:-0.147525
-1 1:1.007938 2:1.142655 3:-0.352354 4:0.266051 5:-0.753096 6:1.068717 7:0.825753 8:0.816733 9:1.123038 10:-0.674577 11:0.015253 12:-0.112460 13:0.061586 14:1.493340 15:-0.610452 16:1.020811 17:-2.708085 18:-1.629138 19:-0.290584 20:1.058470 21:0.200356 22:0.371216 23:0.011011 24:-1.113576 25:0.745601 26:-1.255856 27:-1.012088 28:-0.002517 29:-2.423236 30:1.672792 31:0.288976 32:-0.953881 33:-0.418118 34:-1.083747 35:-2.550700 36:0.597171 37:0.370838 38:0.491270 39:0.021422 40:-1.388257 41:1.234368 42:-0.841117 43:-0.902008 44:0.464351 45:0.040495 46:-1.660532 47:0.655029 48:0.132991 49:0.517950 50:-1.638318 51:0.159990 52:-0.907527 53:3.112410 54:-0.312792 55:0.688764 56:-0.802966 57:-0.843009 58:0.606046 59:-0.868929 60:-0.297230
-1 1:0.870782 2:-0.355574 3:-0.515632 4:1.072123 5:-0.597093 6:-1.553572 7:-1.127739 8:-0.170006 9:-0.294313 10:1.423757 11:-0.362790 12:0.659250 13:-0.805320 14:0.342359 15:-0.105774 16:-1.418531 17:-0.739183 18:0.452842 19:-1.691238 20:-1.168907 21:-0.824136 22:0.348667 23:-0.969213 24:1.808032 25:1.405785 26:-1.075208 27:0.140368 28:0.355469 29:2.210987 30:-1.611290 31:1.048359 32:-1.028789 33:2.322492 34:0.205638 35:-1.318173 36:-0.312068 37:-0.249794 38:0.164438 39:0.135178 40:-1.230927 41:0.680303 42:0.214141 43:0.370739 44:-1.350482 45:0.704400 46:0.973896 47:1.147132 48:1.425143 49:-0.916652 50:-0.741100 51:1.048290 52:-0.201430 53:2.160632 54:-0.312068 55:1.483208 56:0.763798 57:0.512888 58:-1.345891 59:0.912356 60:-0.070217
-1 1:-0.431892 2:0.788589 3:-0.730610 4:-0.515873 5:1.039690 6:-1.103967 7:0.407524 8:-0.111064 9:1.949630 10:-1.192435 11:-1.138122 12:-1.362730 13:-1.029307 14:0.506440 15:0.781594 16:1.031253 17:-0.291783 18:-0.031004 19:-2.325692 20:-1.572152 21:-0.163147 22:1.553117 23:-0.010242 24:0.307800 25:-0.523867 26:-0.038372 27:-1.794549 28:-0.872741 29:1.460358 30:0.374095 31:-0.665457 32:-0.505264 33:0.456973 34:1.157859 35:0.353605 36:0.102529 37:0.004944 38:0.789139 39:2.024270 40:-0.134067 41:0.558530 42:0.497156 43:1.449731 44:1.073178 45:-0.825265 46:0.402868 47:-0.827209 48:1.984254 49:-1.178540 50:0.391656 51:-0.046082 52:1.907587 53:-0.099175 54:0.565109 55:2.530756 56:-0.814406 57:0.761497 58:-0.817832 59:0.516615 60:0.302437
-1 1:-2.325041 2:-0.317324 3:-1.167655 4:-0.215262 5:-0.185356 6:-0.031159 7:0.626577 8:-1.790069 9:-1.321610 10:0.093908 11:-1.438847 12:0.589375 13:-0.080027 14:0.457727 15:0.882796 16:-0.445684 17:-1.639143 18:-1.236321 19:0.539400 20:0.919622 21:-0.578590 22:1.492082 23:0.034856 24:-0.660147 25:1.663527 26:-0.533280 27:-0.005351 28:0.668709 29:1.255447 30:-0.513878 31:-0.549117 32:-1.063654 33:-1.374245 34:-0.170883 35:-0.916930 36:-0.513593 37:0.626020 38:2.355432 39:0.585562 40:-2.234170 41:0.804410 42:0.704503 43:1.403084 44:-0.392488 45:1.469330 46:-0.124528 47:0.716303 48:-1.033769 49:-0.605633 50:-0.854514 51:-0.239166 52:0.965656 53:0.627459 54:1.147486 55:-0.442770 56:-0.188880 57:-0.272141 58:-0.989993 59:0.594704 60:-0.041505
-1 1:1.396484 2:-1.010232 3:-1.016423 4:0.326533 5:-0.490413 6:1.128409 7:-0.028236 8:-1.159802 9:-0.727104 10:0.286827 11:0.448827 12:-0.035076 13:-0.137895 14:0.446735 15:-0.879545 16:1.678593 17:1.047162 18:0.750318 19:0.385930 20:0.171147 21:-1.303931 22:0.272710 23:-1.116537 24:1.383889 25:0.207097 26:0.056889 27:-2.223677 28:0.428198 29:0.468504 30:-1.501203 31:1.643011 32:1.046012 33:-1.608933 34:-1.312463 35:0.395358 36:-0.278614 37:-0.988276 38:1.763626 39:-1.659661 40:1.747118 41:-0.012355 42:-2.269887 43:0.069423 44:-0.353056 45:-0.218713 46:0.615877 47:1.165534 48:0.054276 49:-1.506930 50:-0.528697 51:0.129555 52:1.165244 53:1.427449 54:-0.689528 55:-2.091876 56:-2.315674 57:1.319168 58:-0.112082 59:-0.796059 60:-0.477958
-1 1:-1.391224 2:-1.061805 3:1.017554 4:-0.262878 5:0.756402 6:0.578769 7:0.333537 8:0.582353 9:-0.426182 10:0.025884 11:-1.413193 12:-0.827101 13:-0.717748 14:-0.984038 15:-0.593388 16:-0.617959 17:0.540195 18:2.346106 19:1.734755 20:-0.879930 21:0.168793 22:0.169055 23:0.564874 24:-0.002369 25:-0.101639 26:1.206507 27:1.178721 28:-1.971892 29:-1.613897 30:-0.294326 31:1.467896 32:-0.739261 33:-0.234407 34:0.490010 35:-0.178353 36:0.546495 37:-0.579759 38:-0.599787 39:-0.767029 40:0.469100 41:0.654674 42:1.077371 43:-1.044404 44:0.252799 45:1.749546 46:1.513615 47:-0.028148 48:0.066506 49:-0.937347 50:-0.410613 51:-0.538329 52:0.138108 53:-0.043888 54:-1.165463 55:-0.499470 56:0.179030 57:0.348768 58:0.332632 59:0.770891 60:-0.982036
-1 1:-2.044014 2:0.343345 3:-0.797083 4:-0.931520 5:-1.042868 6:-0.635449 7:-0.165057 8:0.873496 9:-1.292761 10:0.514206 11:0.969483 12:-2.355105 13:1.186642 14:-1.495797 15:1.185832 16:-0.449593 17:-1.270895 18:0.112032 19:2.367151 20:0.555988 21:-0.755181 22:-0.347184 23:0.332962 24:-0.069517 25:0.451433 26:1.591474 27:-0.198772 28:0.410883 29:1.996531 30:-0.370812 31:0.800388 32:-0.943807 33:0.038908 34:-0.716149 35:1.029337 36:0.766916 37:-1.213732 38:0.428035 39:0.296528 40:0.769981 41:-2.139851 42:-1.718401 43:0.299651 44:-1.109435 45:1.182743 46:-0.968698 47:-0.603261 48:-1.469969 49:-0.001364 50:0.369556 51:0.871656 52:-1.416532 53:1.300954 54:2.079449 55:-0.421585 56:-0.168460 57:-0.185346 58:0.130348 59:-0.904881 60:2.781444
-1 1:-0.855112 2:1.000790 3:-1.369159 4:0.301027 5:0.850720 6:-0.806907 7:-0.191584 8:0.011386 9:0.897875 10:-0.135399 11:-0.096836 12:-2.989156 13:0.779911 14:0.722523 15:-0.080558 16:0.287870 17:1.944969 18:0.972530 19:1.775964 20:0.649089 21:0.056301 22:0.149849 23:0.686399 24:-0.461665 25:-1.884693 26:-0.391361 27:-0.831252 28:-1.478882 29:-0.385254 30:0.943959 31:-1.953260 32:-1.461360 33:-0.845866 34:-1.449891 35:0.800348 36:0.548880 37:1.414624 38:-0.069524 39:-0.040356 40:-0.861228 41:-1.185300 42:-1.476138 43:0.193576 44:1.613661 45:-0.475512 46:-0.808450 47:1.023004 48:-1.557361 49:-1.101757 50:0.114932 51:0.724057 52:1.970524 53:0.308615 54:1.141989 55:0.004713 56:-1.046454 57:-0.772276 58:0.655510 59:-0.893419 60:0.005024
-1 1:0.702680 2:-0.474881 3:-0.774296 4:0.135760 5:0.940138 6:-0.556431 7:-0.156130 8:0.188140 9:-0.362631 10:0.525955 11:-0.423028 12:0.863960 13:-0.347540 14:0.469452 15:2.016124 16:0.246770 17:-1.263585 18:0.286244 19:0.733079 20:-0.566409 21:0.494184 22:-1.543107 23:0.106994 24:-0.484232 25:0.155867 26:1.601173 27:-0.631033 28:0.896991 29:0.538756 30:1.655321 31:-1.602615 32:-0.215824 33:0.215922 34:-0.065068 35:-0.827491 36:0.603423 37:1.119201 38:-0.678045 39:0.309445 40:-0.452521 41:-0.520942 42:0.744072 43:-0.821017 44:1.530428 45:0.236867 46:-0.945226 47:-1.216888 48:-0.025675 49:0.401461 50:0.541595 51:-0.273106 52:-1.224455 53:0.665314 54:-1.561768 55:-0.707887 56:1.269826 57:-0.714737 58:-0.472712 59:0.392891 60:0.547033
-1 1:1.522113 2:-0.841646 3:0.180020 4:1.698437 5:0.636008 6:0.749483 7:-0.866251 8:0.023339 9:-1.812462 10:-1.612734 11:-0.821539 12:-0.040286 13:2.575239 14:1.519939 15:-1.189281 16:-0.428271 17:-1.636394 18:-0.804638 19:-0.762058 20:2.031055 21:0.377466 22:0.613058 23:0.459121 24:0.809130 25:0.329184 26:0.003400 27:-1.405080 28:1.890830 29:1.321279 30:-1.125238 31:0.919173 32:-0.471373 33:1.213497 34:0.118263 35:1.789682 36:0.631317 37:-0.627807 38:-0.495453 39:-0.174221 40:-0.072650 41:0.282989 42:-0.918653 43:-0.857289 44:-0.250177 45:-0.465265 46:-0.910275 47:-0.491784 48:-1.284908 49:1.157929 50:0.478417 51:-1.146976 52:-1.359883 53:-0.705578 54:-0.170805 55:-0.591908 56:0.567857 57:0.470678 58:0.035315 59:1.113171 60:-0.990956
-1 1:-1.543331 2:2.111698 3:-1.965271 4:0.369163 5:0.093762 6:-1.021237 7:-1.611775 8:-0.937324 9:0.222832 10:-2.226350 11:0.931577 12:0.567221 13:-1.104965 14:-0.455597 15:-0.804265 16:-0.926900 17:1.922631 18:0.874879 19:0.390742 20:-1.554391 21:-0.230794 22:1.285168 23:-1.310847 24:-0.310640 25:-0.369169 26:-0.536986 27:0.217183 28:-0.584634 29:0.047589 30:-2.197994 31:0.088962 32:-0.952590 33:0.780400 34:-0.650139 35:0.317050 36:1.100979 37:-0.944051 38:-0.981541 39:-1.695705 40:0.943487 41:-1.869697 42:0.997118 43:-0.736684 44:-1.159329 45:0.513037 46:0.973950 47:0.073394 48:0.741283 49:-0.259633 50:-1.008169 51:0.693337 52:-0.763180 53:0.881027 54:-1.381034 55:0.285734 56:-0.095552 57:-0.231764 58:-0.399392 59:-0.872712 60:-0.233919
-1 1:0.793827 2:-0.288565 3:0.201208 4:-0.186427 5:0.681208 6:0.657311 7:0.666466 8:2.841229 9:-0.587571 10:-0.669040 11:0.635331 12:-1.108423 13:1.698257 14:-0.055516 15:-1.709418 16:0.346268 17:-0.533313 18:-1.872928 19:0.196574 20:1.014867 21:-0.024115 22:0.614643 23:0.632010 24:-1.208212 25:1.120777 26:0.279803 27:-1.393819 28:-0.063062 29:-1.569412 30:-1.189549 31:0.130452 32:0.148803 33:0.158134 34:1.889294 35:0.609378 36:0.738860 37:0.534697 38:0.317457 39:-0.021400 40:-1.834640 41:0.445639 42:0.142056 43:1.454481 44:-1.843649 45:0.420363 46:-0.492699 47:0.264399 48:0.463779 49:-0.595191 50:-2.811864 51:-1.812981 52:-0.105598 53:0.236745 54:-0.529691 55:0.190396 56:1.659383 57:0.341293 58:-0.524509 59:1.050303 60:0.350424
-1 1:-0.894350 2:-0.650845 3:-0.882198 4:-0.263038 5:0.733473 6:1.838108 7:-0.047937 8:-0.283795 9:-1.114480 10:-0.415758 11:0.080211 12:-0.358854 13:-1.288055 14:0.379787 15:1.151847 16:0.788251 17:-0.408151 18:1.244822 19:-0.590908 20:-0.203702 21:1.162878 22:-0.613957 23:0.750903 24:0.812075 25:1.024787 26:0.668178 27:-1.336084 28:-1.244457 29:-2.847850 30:-0.607688 31:0.814066 32:0.022759 33:-0.167155 34:-0.394554 35:-0.441079 36:-0.414440 37:-1.014768 38:-0.402824 39:1.391301 40:0.387862 41:1.305703 42:0.179356 43:-1.364134 44:-0.912578 45:-1.094192 46:1.505126 47:-0.262594 48:-0.695877 49:-0.314328 50:-0.788809 51:-0.403317 52:-0.948443 53:-1.221958 54:-0.950455 55:-0.318659 56:0.309749 57:0.627258 58:-0.236206 59:0.290507 60:0.871432
-1 1:1.106680 2:1.953035 3:0.723195 4:0.190578 5:-0.790388 6:-0.200876 7:1.056084 8:-0.634865 9:-0.221931 10:-0.656206 11:0.736265 12:-0.724324 13:0.610275 14:-0.131843 15:0.053495 16:-1.141559 17:-0.960726 18:-0.971584 19:-0.018856 20:-0.343050 21:1.697137 22:0.238026 23:-1.836576 24:-0.102085 25:-0.624559 26:-2.129941 27:-0.043368 28:0.287234 29:-1.110831 30:0.449545 31:-0.860081 32:0.645399 33:-1.354941 34:0.712099 35:-0.764560 36:-0.488376 37:0.757358 38:-0.347345 39:1.016211 40:-0.563182 41:0.184621 42:0.154343 43:-0.238575 44:0.029223 45:-1.247008 46:0.348744 47:0.129873 48:0.076448 49:-0.349110 50:0.149243 51:-1.235019 52:0.397747 53:1.493110 54:0.067118 55:0.129907 56:-0.970950 57:-0.252033 58:-0.239890 59:-0.458476 60:0.910696
-1 1:-0.568977 2:0.409257 3:-0.952614 4:0.137596 5:2.023937 6:-1.461822 7:0.819199 8:-0.851662 9:-0.358263 10:0.705836 11:0.770001 12:0.832052 13:0.402231 14:0.026786 15:-1.109149 16:-0.240431 17:-0.484748 18:-1.333297 19:1.517472 20:-1.214990 21:-1.783535 22:-0.154566 23:-1.706280 24:-0.280046 25:0.260889 26:-0.929124 27:-0.082895 28:0.702071 29:-0.537595 30:-1.058675 31:-0.132385 32:0.730237 33:0.513409 34:1.254132 35:0.507637 36:-1.224580 37:0.100307 38:-0.632984 39:0.333295 40:-0.721223 41:-0.455029 42:0.717912 43:-1.767766 44:-1.847386 45:-0.534112 46:0.869804 47:-0.012584 48:0.951714 49:0.619403 50:1.334482 51:1.779354 52:1.276597 53:-0.762889 54:-1.660381 55:0.477767 56:1.436858 57:0.856014 58:0.154152 59:-0.675632 60:-0.202470
-1 1:-0.173823 2:0.187903 3:-0.947335 4:0.061944 5:2.206431 6:0.004923 7:0.990857 8:-0.910372 9:-0.151829 10:0.588431 11:0.356256 12:-0.733305 13:-1.110191 14:0.192870 15:-0.411193 16:1.310316 17:0.425353 18:0.481830 19:-1.153695 20:0.835852 21:0.828174 22:1.578369 23:-1.462272 24:0.296810 25:-0.515784 26:-0.644920 27:1.558182 28:1.074259 29:-2.130094 30:-0.161718 31:1.138508 32:-1.226681 33:-0.155759 34:-1.469590 35:1.071524 36:-1.201057 37:0.237990 38:-0.541412 39:0.461918 40:-1.081097 41:0.539588 42:-0.033950 43:-0.837412 44:0.707936 45:0.783531 46:0.744084 47:0.477652 48:-1.453484 49:0.089961 50:0.430622 51:0.941697 52:1.178014 53:0.040351 54:2.471151 55:-1.270581 56:0.442600 57:-1.682120 58:-0.908983 59:-1.342724 60:-0.644725
-1 1:0.668943 2:0.048626 3:1.063731 4:-0.985951 5:-1.215933 6:-1.159827 7:0.403943 8:-0.457880 9:-0.431166 10:0.867486 11:-0.746915 12:0.693371 13:-2.640583 14:-1.279490 15:-0.776577 16:1.574503 17:1.465439 18:-1.003476 19:-0.208486 20:-1.224845 21:-0.063105 22:-1.957455 23:1.138183 24:-0.290015 25:1.662465 26:-1.675872 27:-1.792664 28:1.428726 29:0.833505 30:-1.272012 31:1.094743 32:1.174870 33:-0.341651 34:0.075746 35:0.211423 36:1.464400 37:1.576719 38:-2.160889 39:-0.482002 40:-1.341266 41:-1.339175 42:-0.352858 43:0.194082 44:-0.185789 45:0.936110 46:-0.738199 47:0.358326 48:-0.143213 49:0.026863 50:-0.509116 51:0.547936 52:-0.065339 53:3.345830 54:-1.647928 55:2.607843 56:0.710595 57:1.492186 58:-1.713765 59:0.083919 60:0.862715
-1 1:-0.379855 2:-1.029656 3:0.862069 4:0.857578 5:-0.600474 6:0.755958 7:1.409500 8:0.487353 9:-3.216612 10:-0.288129 11:-1.292589 12:0.520221 13:-1.335692 14:0.639384 15:-0.251503 16:0.297040 17:-0.635419 18:-1.668970 19:-0.873011 20:-1.874632 21:-0.008727 22:-0.883516 23:0.709980 24:1.245539 25:0.800807 26:0.662831 27:-0.399975 28:0.619044 29:0.098708 30:-1.400900 31:0.008090 32:1.156862 33:-0.852051 34:-0.639735 35:1.573831 36:-0.894519 37:-1.298081 38:1.125818 39:-1.271152 40:2.150151 41:1.309903 42:0.862067 43:1.621716 44:0.405249 45:-0.697273 46:-0.400840 47:-0.541764 48:-0.746687 49:-0.716136 50:-0.717935 51:-0.432723 52:0.177956 53:0.659879 54:-0.408996 55:0.107011 56:-0.315264 57:-1.345336 58:0.244766 59:0.773094 60:1.439816
-1 1:-0.375682 2:1.884756 3:0.328036 4:0.187849 5:-0.309490 6:-0.273384 7:0.803965 8:0.188960 9:0.249449 10:0.537381 11:0.530419 12:-2.266925 13:1.391117 14:-1.960275 15:-0.400320 16:-0.062931 17:-0.355487 18:-0.461182 19:-0.323770 20:-0.450911 21:1.582384 22:0.215470 23:-2.579809 24:-1.506716 25:0.365179 26:0.737010 27:-0.206622 28:-0.088883 29:-2.344484 30:-0.781160 31:-0.401102 32:-1.820945 33:1.394070 34:-0.848902 35:-0.485457 36:1.020717 37:0.085011 38:-1.869116 39:1.632327 40:0.235924 41:0.447970 42:0.280918 43:-0.383790 44:0.376346 45:-2.112554 46:-0.311530 47:1.121002 48:1.260987 49:1.879707 50:0.555769 51:0.050313 52:0.991733 53:1.714891 54:0.268488 55:-1.914693 56:-0.314692 57:-2.030356 58:2.580433 59:0.090331 60:1.197179
-1 1:-0.445281 2:-0.715022 3:0.894042 4:0.598767 5:1.664293 6:0.561378 7:-0.854451 8:0.850237 9:1.639038 10:-2.064020 11:-0.525852 12:0.537324 13:1.403442 14:0.500726 15:-1.269538 16:-0.044766 17:-1.818634 18:0.234767 19:1.299823 20:-0.335249 21:-0.691415 22:-0.534868 23:-1.255938 24:0.466268 25:0.545956 26:0.210421 27:-0.374448 28:0.432396 29:0.081289 30:-0.403917 31:-0.326120 32:-0.450592 33:-1.296704 34:-0.416106 35:0.777953 36:-0.974207 37:0.746305 38:2.820780 39:0.872804 40:-0.657221 41:-0.846687 42:1.024781 43:-1.517223 44:-0.933151 45:0.652256 46:-0.067267 47:-0.339127 48:0.072639 49:-1.982214 50:2.324972 51:-0.164552 52:1.567381 53:0.967876 54:1.430150 55:0.775961 56:-1.672247 57:0.707756 58:0.953243 59:0.831472 60:-0.099894
-1 1:-0.791693 2:-2.169260 3:0.969812 4:0.353953 5:0.177579 6:-0.174660 7:0.585396 8:-1.743703 9:-0.310061 10:-1.850439 11:0.225589 12:-1.540242 13:0.700692 14:0.345736 15:1.126624 16:0.147488 17:1.144127 18:-0.830275 19:0.798551 20:0.169542 21:-0.261932 22:0.235591 23:-1.130881 24:0.180120 25:-1.724594 26:-0.437090 27:0.030073 28:1.393745 29:0.647142 30:-0.517723 31:0.266675 32:0.437450 33:-0.056293 34:-0.418843 35:0.080360 36:-0.609931 37:-0.159189 38:-0.433268 39:1.317061 40:-0.166673 41:-0.224498 42:-0.297164 43:-1.346886 44:-0.951771 45:1.075690 46:0.391342 47:0.094466 48:-0.000532 49:-0.923468 50:2.595050 51:-0.136414 52:1.857335 53:1.145415 54:0.734945 55:-0.460405 56:-0.883217 57:-0.166782 58:2.336109 59:-0.579308 60:0.990509
-1 1:-0.234556 2:-0.523936 3:-1.535687 4:0.469281 5:1.472416 6:0.038287 7:0.701582 8:0.548110 9:1.240230 10:1.005960 11:-0.693523 12:-1.842270 13:-0.450979 14:0.513642 15:0.762616 16:1.390432 17:1.129622 18:1.060522 19:-0.026912 20:-0.776455 21:1.329513 22:-0.587311 23:0.143947 24:-0.609067 25:1.022812 26:1.232471 27:0.345981 28:0.356756 29:0.269411 30:-0.304674 31:-0.431816 32:2.074989 33:-0.845758 34:0.102153 35:0.416706 36:-1.294439 37:0.552955 38:0.898378 39:-0.061035 40:-0.437024 41:-0.301923 42:-0.356030 43:-0.852499 44:0.058223 45:1.265853 46:-1.624400 47:0.952023 48:-0.306074 49:-1.024285 50:-2.429417 51:-0.135681 52:-1.046280 53:0.730886 54:0.205403 55:0.056438 56:-0.967240 57:0.086871 58:0.029176 59:-0.732532 60:0.066587
-1 1:-0.146406 2:0.859389 3:-1.034056 4:0.213686 5:-1.378187 6:-1.831299 7:1.253408 8:1.160072 9:0.794584 10:0.541756 11:1.819729 12:-0.222785 13:1.932765 14:-0.853204 15:0.281278 16:1.598450 17:2.026887 18:0.249327 19:-0.869723 20:0.278027 21:1.040319 22:1.124688 23:0.356764 24:0.933300 25:0.425304 26:0.375394 27:-0.044996 28:-0.176489 29:-1.935441 30:-0.768907 31:-1.741277 32:0.226755 33:1.343448 34:1.173960 35:0.420431 36:0.636751 37:-0.946053 38:1.695797 39:-0.320531 40:0.122018 41:-0.113924 42:-0.454158 43:-0.056409 44:-1.174865 45:0.092118 46:0.775299 47:-0.136385 48:-0.610517 49:1.170385 50:0.425237 51:-1.056820 52:0.342528 53:0.056059 54:-0.809726 55:-2.200955 56:-0.938810 57:0.094563 58:0.850845 59:-0.610696 60:1.837364
-1 1:0.480078 2:-0.428857 3:1.131126 4:-0.228667 5:-1.256665 6:-1.046167 7:0.516270 8:-1.333063 9:0.220119 10:-1.996188 11:0.246554 12:-0.589527 13:0.142147 14:0.732192 15:-2.081016 16:-0.863482 17:-0.901041 18:-1.236312 19:-0.332564 20:0.941208 21:-0.340930 22:1.462647 23:0.542575 24:1.487936 25:0.607228 26:0.858442 27:-0.974368 28:-1.443115 29:0.179101 30:0.738434 31:-1.402667 32:-0.793159 33:-1.695282 34:0.539029 35:-1.014838 36:-0.212343 37:0.991217 38:1.166513 39:0.735690 40:2.050370 41:0.761409 42:0.539430 43:-0.021330 44:-0.166111 45:-0.816279 46:-0.545694 47:-0.889008 48:0.138660 49:1.266980 50:-0.670045 51:-0.718834 52:0.858659 53:0.311797 54:-0.814732 55:-1.279163 56:0.980471 57:1.690261 58:0.049019 59:1.019988 60:0.302860
-1 1:0.851326 2:1.679261 3:1.826710 4:2.285942 5:-0.739414 6:-0.618418 7:-0.296824 8:-0.009991 9:-1.087475 10:0.039218 11:-0.002329 12:-0.177813 13:-0.274246 14:0.365348 15:-1.190819 16:0.857959 17:0.930516 18:0.825580 19:-1.371151 20:-0.254186 21:0.691617 22:0.433081 23:-0.853675 24:0.828511 25:-0.489452 26:0.263385 27:-0.599150 28:-0.836790 29:0.030970 30:0.980495 31:0.029678 32:0.273192 33:-1.084866 34:-0.187353 35:-0.559035 36:0.473162 37:-1.566511 38:-0.721890 39:1.482208 40:0.419067 41:0.208725 42:-0.673855 43:-1.714483 44:-0.268842 45:-0.768252 46:1.363236 47:0.248075 48:1.602597 49:-0.563288 50:1.223067 51:-0.993403 52:0.203393 53:0.916612 54:0.009352 55:0.555734 56:0.129534 57:0.280918 58:-0.089290 59:-0.855656 60:0.224259
-1 1:-1.356159 2:0.257665 3:0.901354 4:-1.251321 5:-0.884202 6:-0.278355 7:-0.266637 8:-1.585133 9:0.059557 10:0.130876 11:1.096005 12:-0.439166 13:0.932025 14:-0.361852 15:-1.369988 16:-0.927557 17:-0.877391 18:0.079248 19:-0.266727 20:0.603019 21:-0.016380 22:0.305750 23:-0.998613 24:1.313792 25:-0.846514 26:1.123789 27:0.919471 28:0.500257 29:-1.007286 30:0.793225 31:-1.394421 32:1.240559 33:1.195200 34:-0.431788 35:1.140384 36:0.361853 37:0.430590 38:0.621998 39:1.398198 40:0.182325 41:0.138325 42:-0.441651 43:-0.404842 44:-0.584014 45:0.344808 46:0.581251 47:-0.454885 48:-0.179533 49:-0.027993 50:-1.052520 51:0.403378 52:0.124674 53:0.265325 54:1.318426 55:0.453374 56:0.171972 57:-0.125698 58:0.165199 59:0.313066 60:-0.283457
-1 1:-0.009374 2:-0.732419 3:-1.165577 4:-1.499356 5:0.140116 6:0.644118 7:-0.037148 8:0.123446 9:-0.233495 10:-2.052584 11:-0.166712 12:0.614495 13:1.053262 14:-0.326224 15:-0.345589 16:0.218757 17:0.541039 18:-1.102343 19:-0.948214 20:-0.001209 21:1.620181 22:-1.818631 23:1.077867 24:-0.093432 25:0.277930 26:-0.754514 27:-2.215577 28:-0.907970 29:1.319851 30:-0.915865 31:0.058072 32:0.461849 33:-0.221686 34:-2.268654 35:-1.007029 36:-0.012172 37:-1.066386 38:0.045552 39:0.792785 40:-0.608330 41:-0.261983 42:0.203373 43:1.367501 44:0.786337 45:1.020381 46:0.779772 47:0.258416 48:1.848350 49:-0.130676 50:0.507291 51:-0.876746 52:1.421811 53:-0.662153 54:0.551138 55:1.472625 56:-0.355749 57:1.533353 58:0.518773 59:0.740453 60:0.576762
-1 1:-0.385430 2:-1.618537 3:1.722833 4:0.427118 5:0.425080 6:-1.822789 7:-0.362418 8:0.726654 9:-1.816405 10:-0.849693 11:1.835777 12:-0.551940 13:0.538328 14:-0.222626 15:-1.036360 16:-1.550092 17:0.775830 18:2.178736 19:-0.660264 20:-1.374842 21:1.828095 22:-0.657619 23:1.778874 24:0.394761 25:-0.909541 26:-1.972366 27:-0.448002 28:-1.652341 29:0.484425 30:-0.554342 31:-1.519499 32:0.229619 33:-2.090890 34:0.618931 35:-1.082435 36:-0.328385 37:-0.258963 38:-0.686209 39:-1.450890 40:-2.933661 41:1.083939 42:-0.704986 43:-1.529123 44:0.331958 45:0.396596 46:-1.169950 47:0.532401 48:1.750320 49:0.522042 50:1.087484 51:-0.066381 52:-0.055658 53:0.595830 54:0.153737 55:-0.553672 56:2.329196 57:-0.046399 58:-0.410734 59:-0.232912 60:-0.732118
-1 1:-0.057294 2:-0.385573 3:-0.204528 4:-0.261896 5:-1.095659 6:-0.851554 7:0.540103 8:0.389559 9:0.156469 10:2.054310 11:-1.082010 12:-1.848735 13:1.036261 14:-0.479574 15:-0.699013 16:-0.621925 17:0.172490 18:0.729201 19:-0.386129 20:-0.220555 21:-1.273197 22:0.844038 23:-0.939826 24:1.162600 25:-0.640634 26:-0.639723 27:0.047712 28:0.309247 29:-0.438947 30:-0.463750 31:0.977393 32:1.198356 33:0.550348 34:0.934734 35:-0.506960 36:2.648666 37:-1.300696 38:1.277054 39:0.977817 40:-2.370370 41:-0.844954 42:-0.091581 43:-0.804547 44:0.693746 45:0.050773 46:0.833560 47:-0.423654 48:0.961049 49:2.472149 50:-0.502025 51:-1.039360 52:-0.968915 53:-0.714754 54:0.565147 55:-0.896742 56:0.283669 57:0.781920 58:0.001398 59:-0.309133 60:0.072664
-1 1:-0.241250 2:-1.619039 3:-1.180194 4:-1.169498 5:-0.756029 6:1.776632 7:-0.799756 8:0.724384 9:-0.884663 10:-0.111046 11:0.767111 12:0.867245 13:-0.697793 14:-0.762563 15:-1.082505 16:0.015644 17:0.145474 18:1.475078 19:-1.159457 20:0.316786 21:-1.114074 22:0.165776 23:-2.810481 24:-0.719433 25:-1.245506 26:-0.928399 27:-1.119555 28:-0.549666 29:-1.111698 30:-1.222361 31:-0.926544 32:1.745304 33:0.073603 34:-0.107179 35:-0.884703 36:-0.133440 37:0.128218 38:-3.072640 39:-0.687529 40:1.615549 41:1.319077 42:-0.452291 43:-0.202184 44:0.800423 45:0.211685 46:-0.039488 47:-0.868346 48:-0.119566 49:2.340318 50:-2.162967 51:0.466943 52:-0.473094 53:1.830484 54:-0.625437 55:-2.732226 56:-0.984349 57:0.379465 58:0.244635 59:0.493303 60:0.635929
-1 1:0.002181 2:0.306876 3:1.444411 4:0.657455 5:0.468655 6:-0.688573 7:1.485492 8:1.465852 9:1.315066 10:-0.439887 11:-0.849880 12:-1.260410 13:-0.354533 14:-0.223432 15:-1.165740 16:0.324722 17:-0.033270 18:1.279122 19:-1.269111 20:-0.681131 21:-0.106484 22:-0.527095 23:-0.905513 24:-0.277225 25:0.533336 26:1.189704 27:0.518849 28:-0.830043 29:0.753489 30:0.658245 31:0.146858 32:0.063912 33:1.625644 34:-0.376242 35:0.705067 36:0.423067 37:0.697369 38:-1.243491 39:-0.055929 40:-0.425727 41:-0.150011 42:1.607042 43:0.371707 44:-0.138787 45:-0.516802 46:-0.923970 47:-0.512791 48:-2.717681 49:1.592048 50:-2.166457 51:-1.073454 52:-2.123362 53:-0.931251 54:0.459849 55:-0.708901 56:-0.329935 57:-0.630223 58:-1.563102 59:0.788606 60:-1.525596
-1 1:-0.023729 2:0.569015 3:-0.517862 4:0.671618 5:0.189168 6:1.849851 7:-0.086639 8:-0.207094 9:0.359214 10:-0.336733 11:-0.714377 12:-0.662352 13:-0.484861 14:-2.086211 15:1.016445 16:1.371223 17:-0.709481 18:0.952291 19:1.247668 20:-0.351304 21:-1.897186 22:-0.651568 23:-0.109549 24:2.144323 25:-0.367158 26:0.904730 27:-0.047800 28:-0.904874 29:1.119197 30:0.390231 31:1.897588 32:-0.890584 33:-0.108432 34:1.146246 35:0.710795 36:-0.336251 37:-0.165486 38:-1.334816 39:-0.011911 40:-0.289654 41:-0.204257 42:0.662013 43:1.636092 44:0.288867 45:-0.347946 46:-2.217292 47:-1.961888 48:-1.409039 49:-0.363517 50:2.011490 51:0.916385 52:-0.633153 53:-0.534061 54:0.946319 55:-0.579528 56:-0.108269 57:-2.494805 58:-0.068914 59:-0.612863 60:-0.480044
-1 1:0.408803 2:0.039975 3:-0.694979 4:-1.570366 5:-0.146750 6:0.442385 7:0.667208 8:-0.459581 9:0.024067 10:1.255783 11:-1.485891 12:-0.991799 13:-0.788871 14:0.751502 15:-1.017466 16:-0.442684 17:0.828558 18:-1.338258 19:0.961373 20:0.551771 21:-0.751161 22:0.809230 23:1.406584 24:0.890412 25:0.788990 26:-0.788184 27:0.521234 28:-1.236226 29:0.693318 30:1.191982 31:-2.204166 32:-1.065797 33:0.520475 34:0.257479 35:-1.572340 36:-0.619731 37:2.115180 38:-0.402496 39:-0.197153 40:-0.037653 41:0.098623 42:1.167328 43:-1.598749 44:0.113907 45:0.816070 46:-0.787342 47:-1.208870 48:-0.246537 49:1.091765 50:0.905435 51:-0.393212 52:1.313459 53:1.221000 54:-0.597667 55:-0.282644 56:-0.923010 57:1.869907 58:-0.928741 59:-0.303444 60:-0.115332
-1 1:1.128402 2:-1.200368 3:1.429028 4:0.015192 5:1.195896 6:0.812501 7:-1.255647 8:0.180654 9:-1.983185 10:-0.241044 11:0.907650 12:0.426984 13:-0.803462 14:0.339598 15:-0.416694 16:-0.815627 17:-2.899000 18:0.875256 19:-0.857184 20:2.013160 21:1.318702 22:0.430203 23:-0.425276 24:0.212626 25:-1.987551 26:-0.116708 27:-0.283225 28:1.965913 29:-1.870672 30:0.600498 31:0.583336 32:1.437104 33:0.064660 34:0.000971 35:0.961184 36:-0.299440 37:-0.459687 38:0.903505 39:-0.093742 40:-1.541396 41:1.365200 42:-2.981456 43:-1.226203 44:-0.332998 45:-1.087086 46:-0.444024 47:1.999288 48:0.379835 49:-1.673558 50:-0.585775 51:0.538028 52:0.299151 53:0.541294 54:-0.588061 55:-0.146594 56:1.113224 57:0.403848 58:-0.989218 59:-0.577117 60:1.922446
-1 1:-0.888293 2:1.805169 3:2.209130 4:1.247470 5:0.757277 6:-1.551836 7:1.256175 8:0.127281 9:-0.092482 10:0.110542 11:-0.013664 12:0.051361 13:-0.633488 14:-0.271925 15:0.294277 16:-0.042901 17:0.094623 18:-1.493406 19:2.184216 20:-1.643891 21:-1.148182 22:0.136607 23:-0.769332 24:1.508828 25:1.620263 26:0.076910 27:0.214135 28:-0.194297 29:0.569617 30:0.807512 31:-0.210930 32:-1.721000 33:-0.686201 34:-0.300577 35:-0.198350 36:0.203412 37:0.099314 38:-1.276504 39:-1.209191 40:-1.203183 41:0.573555 42:-0.027760 43:-1.963707 44:0.475624 45:-1.596271 46:0.097570 47:0.698952 48:-0.520132 49:0.426628 50:-0.438305 51:0.937679 52:-1.225365 53:1.555923 54:-0.392453 55:-0.626060 56:-0.797843 57:1.257939 58:-2.360837 59:1.734599 60:-1.744731
-1 1:0.319917 2:0.566397 3:1.730294 4:-2.235280 5:0.054142 6:0.854568 7:-0.374527 8:0.219181 9:0.096929 10:-0.031100 11:0.174095 12:-1.516693 13:1.299512 14:-0.140676 15:-0.155117 16:-0.226511 17:0.408663 18:-0.393705 19:-1.734785 20:-0.622646 21:-0.107293 22:-1.281038 23:1.321619 24:1.894339 25:-0.077818 26:-1.039022 27:0.564815 28:-0.372865 29:0.132327 30:-0.287020 31:-0.412754 32:-0.990183 33:0.434116 34:-1.572606 35:0.547169 36:-0.031003 37:-0.769092 38:0.529968 39:1.652290 40:-1.525650 41:0.972516 42:1.239158 43:-0.598816 44:-0.884413 45:-0.273422 46:0.373813 47:-0.731304 48:0.225442 49:0.254385 50:0.652433 51:-1.040716 52:2.353860 53:-0.731646 54:-1.526843 55:-1.577615 56:-0.192375 57:0.631815 58:-1.214707 59:0.661225 60:0.087954
-1 1:-2.022402 2:-2.617974 3:0.023516 4:-1.481924 5:-0.166174 6:-2.120106 7:2.387887 8:0.172025 9:1.864378 10:-0.843316 11:-1.167121 12:0.273504 13:-1.269764 14:-0.506861 15:-0.526019 16:-0.921560 17:-1.187956 18:-0.757842 19:-0.351575 20:0.430354 21:-0.165254 22:-1.662431 23:-1.678193 24:-0.825935 25:-1.775243 26:-0.276318 27:-1.624562 28:1.716413 29:-1.810325 30:-0.652643 31:-1.322212 32:0.762075 33:0.287928 34:0.099235 35:-1.291374 36:-0.893565 37:-0.900459 38:0.445419 39:-0.484722 40:0.487291 41:-0.502698 42:-1.505417 43:1.930631 44:1.143612 45:0.236993 46:-0.150264 47:-0.456482 48:0.087109 49:0.439354 50:0.817460 51:-0.951554 52:0.528249 53:-0.470849 54:1.832936 55:-1.792321 56:0.223487 57:1.238164 58:0.071106 59:-1.318106 60:0.772173
-1 1:-0.231499 2:0.044284 3:-1.127024 4:1.217862 5:-0.855030 6:-1.486022 7:-0.006247 8:0.079823 9:-1.171212 10:0.394628 11:-2.419399 12:0.600969 13:-0.486724 14:-0.884192 15:-0.723804 16:-0.722044 17:-2.121971 18:0.685068 19:1.530910 20:0.152852 21:0.004102 22:-0.606877 23:0.416479 24:-0.255222 25:0.449563 26:-1.649881 27:1.474595 28:-0.975693 29:-2.281790 30:1.485195 31:0.566026 32:0.867570 33:1.094523 34:-1.171906 35:0.838780 36:1.526652 37:0.632711 38:0.623708 39:-2.060512 40:0.846789 41:-0.963172 42:-0.480518 43:0.848089 44:0.242977 45:-0.431546 46:0.208684 47:0.356755 48:0.274028 49:2.736408 50:-0.554279 51:0.167960 52:0.092734 53:-0.582787 54:-0.335344 55:0.344897 56:-0.122731 57:0.455980 58:1.863613 59:-1.618854 60:0.315756
-1 1:0.289906 2:1.147339 3:-1.292273 4:0.273759 5:0.240837 6:1.574425 7:-0.336708 8:0.891489 9:-0.372915 10:-0.694568 11:-0.417027 12:-0.839507 13:0.083740 14:0.225963 15:0.127816 16:0.577855 17:0.089208 18:0.083057 19:-0.505566 20:-0.039006 21:0.361688 22:-0.483648 23:0.673206 24:0.696144 25:0.083650 26:0.572130 27:0.609153 28:1.472065 29:-0.941169 30:-1.055561 31:0.154782 32:0.735366 33:0.411370 34:-0.229008 35:-1.442404 36:0.204031 37:-1.142850 38:-0.289626 39:-0.526913 40:-0.368141 41:-0.823834 42:1.227846 43:1.601524 44:-0.522042 45:0.764090 46:0.622382 47:0.304729 48:-1.089129 49:0.590769 50:0.349597 51:-0.558042 52:-0.405458 53:-0.833007 54:0.540602 55:1.104862 56:-1.244930 57:0.301295 58:0.478173 59:0.740121 60:-0.906719
-1 1:-1.208015 2:0.328179 3:-1.798345 4:-0.757019 5:0.588796 6:0.675880 7:0.879155 8:-0.245444 9:-0.026420 10:1.649720 11:0.724181 12:-0.655849 13:1.664299 14:-0.611825 15:0.670910 16:0.635432 17:0.297035 18:0.360390 19:0.313267 20:0.546544 21:0.767590 22:-0.626374 23:-0.278492 24:-0.513049 25:0.995416 26:0.364765 27:-0.024625 28:-0.989673 29:0.228075 30:0.626792 31:-0.086497 32:0.247464 33:-1.579020 34:-1.835912 35:1.139576 36:-0.438359 37:-0.613243 38:-0.835882 39:-0.395921 40:-0.692351 41:0.028896 42:-0.276670 43:1.401332 44:-0.924508 45:-1.676041 46:0.700348 47:-1.430492 48:-1.105322 49:0.199019 50:0.922799 51:-1.010060 52:0.286271 53:0.358119 54:-0.433654 55:0.402742 56:-0.400868 57:0.948309 58:-0.337043 59:0.264438 60:-0.162569
-1 1:-0.113779 2:-0.162444 3:0.062789 4:0.377963 5:0.813527 6:0.569249 7:-2.383752 8:-0.307496 9:-2.363737 10:-0.930684 11:-0.777542 12:-0.070075 13:0.900527 14:-0.710322 15:0.956310 16:0.380478 17:0.104131 18:0.323922 19:0.198018 20:-0.119352 21:-1.270579 22:-1.130965 23:-0.259591 24:0.991891 25:0.426921 26:0.793850 27:1.719299 28:-2.418183 29:1.802250 30:0.389414 31:-0.910155 32:0.373794 33:0.702643 34:0.542535 35:0.812286 36:-1.305753 37:-1.601271 38:-0.159892 39:-1.678445 40:-0.155828 41:-0.355501 42:1.135241 43:0.655833 44:0.028875 45:-0.145629 46:-0.910643 47:0.255533 48:-0.295693 49:-0.991568 50:0.978519 51:-1.308743 52:0.470299 53:-0.349822 54:0.282410 55:1.243078 56:0.881972 57:-0.413192 58:0.226231 59:-1.754883 60:1.186762
-1 1:-0.337273 2:-1.486973 3:-0.659125 4:-1.746863 5:-0.006304 6:-0.223025 7:-1.171034 8:0.304018 9:-0.524498 10:-1.556431 11:-0.289186 12:-0.926964 13:1.856194 14:0.142240 15:1.203635 16:-0.480127 17:-0.413512 18:-0.227115 19:-1.554895 20:-0.061542 21:0.413235 22:-0.572539 23:0.331499 24:0.028785 25:0.205030 26:-0.332248 27:0.138271 28:0.239327 29:0.326844 30:1.511977 31:0.817498 32:0.986327 33:1.058903 34:-0.857749 35:-1.008260 36:-0.252215 37:-0.808503 38:-0.328188 39:-0.375139 40:0.275288 41:1.981476 42:-1.580437 43:-0.013554 44:0.231360 45:0.863192 46:0.399977 47:0.854000 48:-0.551622 49:-0.057488 50:0.286658 51:-0.278626 52:0.029866 53:-0.423893 54:0.024017 55:1.590485 56:0.682064 57:0.630582 58:1.585584 59:-0.329354 60:-0.304651
-1 1:0.437085 2:-1.931274 3:-0.261624 4:-3.038678 5:-0.080311 6:2.027193 7:1.848581 8:0.840058 9:0.415705 10:1.039869 11:-0.262986 12:1.060033 13:-0.906060 14:-0.239118 15:0.915784 16:-0.775754 17:-0.203507 18:-0.070896 19:-0.115295 20:-0.467651 21:-1.430914 22:-0.997253 23:1.628223 24:0.354283 25:0.931548 26:-0.698989 27:0.117828 28:-0.062764 29:0.651814 30:-0.158457 31:0.281253 32:-1.286043 33:-0.068207 34:-1.259369 35:-0.525023 36:1.008252 37:-0.036010 38:-0.054313 39:0.048023 40:0.158983 41:0.288826 42:-1.817419 43:-0.948879 44:-0.736433 45:1.396171 46:-2.325303 47:-1.436714 48:1.241076 49:-0.248599 50:-0.087477 51:-2.498156 52:-0.939567 53:0.166519 54:-0.157998 55:0.635629 56:0.952011 57:0.960282 58:-0.067901 59:-2.279478 60:0.027972
-1 1:0.311885 2:-0.222779 3:2.033739 4:-1.593835 5:0.219973 6:0.555271 7:0.672711 8:-0.051985 9:0.821872 10:1.113281 11:1.000029 12:-1.301778 13:-0.765260 14:-0.245390 15:-1.619372 16:0.760114 17:-0.353244 18:-1.141409 19:1.304867 20:-0.820780 21:-0.918619 22:0.399181 23:1.255679 24:-0.889005 25:0.214272 26:-1.292095 27:-0.295350 28:0.105171 29:-1.390652 30:-1.106879 31:-0.010505 32:-1.609596 33:0.831859 34:0.407827 35:-1.229085 36:-0.852799 37:-0.859242 38:0.403008 39:0.611953 40:0.747088 41:0.247877 42:0.766071 43:0.439545 44:1.361456 45:0.981546 46:1.147545 47:0.199090 48:0.051744 49:-0.190189 50:-1.537552 51:0.339012 52:1.653386 53:-0.900512 54:0.037214 55:0.157628 56:-0.183181 57:0.957630 58:-0.769678 59:1.358980 60:0.857727
-1 1:-0.155834 2:-1.920258 3:2.083227 4:-0.686648 5:1.435336 6:-0.664460 7:-0.642606 8:-0.101949 9:-0.329720 10:-0.160684 11:-0.977494 12:1.765022 13:-0.189448 14:0.422914 15:0.534891 16:-0.337720 17:0.439076 18:-0.699066 19:0.151868 20:0.528195 21:0.768609 22:-0.510484 23:-1.785627 24:0.882232 25:-0.705687 26:2.088774 27:-1.427803 28:-0.715205 29:1.454758 30:1.034024 31:-0.273660 32:-0.563289 33:-0.099193 34:0.193388 35:0.695079 36:0.267653 37:-0.696874 38:-1.803187 39:1.465782 40:0.728162 41:1.196847 42:-0.490927 43:1.053767 44:1.180479 45:-1.491743 46:-0.194142 47:-1.419172 48:0.778616 49:1.278699 50:-0.011918 51:0.771971 52:-0.702241 53:-0.826449 54:-1.179829 55:0.298852 56:-1.978803 57:0.099670 58:-2.164728 59:-1.408242 60:-0.415432
-1 1:0.181948 2:1.017864 3:0.076110 4:-0.193360 5:-0.507395 6:1.314309 7:0.110896 8:2.578069 9:-0.432863 10:-0.701885 11:-0.125770 12:1.345069 13:-0.059244 14:-0.498509 15:-0.831007 16:1.061175 17:-0.365400 18:0.822582 19:0.084987 20:-1.080244 21:-0.457092 22:0.290680 23:-0.639170 24:-1.136602 25:0.899354 26:-0.230342 27:-1.600438 28:1.194302 29:-0.320201 30:0.711210 31:-1.672513 32:0.612133 33:-0.605102 34:0.564656 35:1.183177 36:1.185456 37:0.872304 38:1.483164 39:-0.877619 40:-0.086094 41:0.582484 42:0.249286 43:-0.377937 44:0.958757 45:0.051352 46:0.130430 47:0.682542 48:-0.585466 49:0.286334 50:-1.144822 51:0.956365 52:-1.390567 53:-0.211412 54:-0.374841 55:-1.926971 56:0.643145 57:0.639479 58:0.603366 59:0.359907 60:-0.814357
-1 1:0.413940 2:-0.444900 3:1.076389 4:0.512174 5:0.440559 6:-0.788830 7:-0.013078 8:0.314075 9:0.670822 10:0.819818 11:0.123165 12:1.577469 13:-0.172979 14:1.258519 15:0.676753 16:-0.315661 17:-1.148950 18:-0.961026 19:-1.386149 20:-0.034056 21:1.353183 22:-0.577705 23:-0.910876 24:-0.810121 25:-1.544846 26:0.825784 27:0.086199 28:-0.876784 29:0.688428 30:0.966388 31:-1.079694 32:-0.022174 33:0.152132 34:0.538835 35:1.898970 36:-1.146680 37:-1.365196 38:-0.688044 39:0.887996 40:-1.504798 41:0.536379 42:0.668368 43:-2.627795 44:-0.056622 45:-1.665712 46:0.023854 47:1.034539 48:1.790092 49:-0.512594 50:-2.262890 51:1.315774 52:-1.748511 53:0.815172 54:0.901043 55:-0.974852 56:0.970172 57:0.302234 58:0.087602 59:-1.096136 60:0.809245
-1 1:0.484636 2:-0.168200 3:1.419903 4:-0.530642 5:0.754289 6:0.166416 7:0.450244 8:-0.770965 9:0.003816 10:-0.123830 11:-0.037481 12:-0.728457 13:-1.075897 14:-0.120641 15:-0.183201 16:-2.523109 17:-0.253154 18:1.420878 19:-0.536049 20:-0.585752 21:-0.155629 22:0.187814 23:0.701779 24:0.033048 25:0.266129 26:-1.363389 27:0.990568 28:0.284861 29:1.377882 30:-0.400851 31:0.713222 32:1.267682 33:-0.219106 34:-0.110691 35:1.559501 36:-0.023233 37:-0.456595 38:-0.802820 39:1.366312 40:0.758217 41:1.522860 42:-1.622256 43:-0.199126 44:-1.302701 45:1.002677 46:0.971236 47:0.559611 48:-0.816927 49:0.443606 50:-1.451135 51:0.106014 52:-1.248394 53:-0.683903 54:-0.480975 55:1.134201 56:1.245345 57:0.924080 58:-0.153494 59:-1.649149 60:0.315631
-1 1:-0.961840 2:-1.168456 3:-0.175877 4:0.158982 5:-0.924912 6:0.348069 7:-2.325106 8:-0.145002 9:-0.333845 10:-0.349938 11:-1.198348 12:-0.004333 13:1.134714 14:-0.576719 15:-2.320674 16:0.969927 17:1.511693 18:-0.297578 19:-0.897230 20:0.741360 21:0.352333 22:-0.047276 23:0.419432 24:-1.183442 25:-0.141126 26:0.743496 27:-0.691427 28:0.282266 29:0.200290 30:1.529985 31:1.511340 32:-1.383531 33:1.154257 34:0.278482 35:2.413236 36:-0.318744 37:-1.081767 38:0.085785 39:-1.796015 40:-0.137782 41:1.372771 42:-0.769937 43:-1.783064 44:0.142324 45:-1.574223 46:-0.140986 47:-0.519580 48:-0.911495 49:-0.462083 50:0.426103 51:-0.704759 52:0.004343 53:-0.162655 54:0.626570 55:0.091730 56:-0.211684 57:-0.610882 58:-0.358905 59:0.475212 60:0.047862
-1 1:0.782726 2:-1.188422 3:0.470727 4:1.300268 5:-0.895554 6:0.320224 7:0.148157 8:-0.802914 9:0.042926 10:-0.393211 11:-0.811626 12:-1.208269 13:0.492568 14:0.611764 15:0.326100 16:-0.511838 17:-0.924532 18:1.099572 19:0.604082 20:-0.669672 21:1.035760 22:-0.622706 23:-1.630502 24:1.105189 25:-2.246875 26:1.630066 27:-0.605399 28:0.929277 29:1.001607 30:0.941771 31:1.186796 32:-0.297184 33:0.064656 34:-0.338588 35:0.044524 36:-1.021568 37:-0.443046 38:0.126858 39:0.521022 40:0.463208 41:1.119844 42:-0.452580 43:0.474250 44:0.869508 45:0.283011 46:1.442776 47:-1.416661 48:-1.704487 49:0.030788 50:-0.563273 51:-1.746743 52:0.001406 53:-0.131266 54:-0.286169 55:-0.889088 56:-0.363563 57:0.771227 58:-0.340510 59:-0.864524 60:-0.790091
-1 1:0.307263 2:-0.499035 3:0.176843 4:-2.219143 5:-1.431892 6:-0.881097 7:0.745307 8:-0.278662 9:-0.442767 10:-0.587884 11:0.706171 12:0.884831 13:0.024586 14:-0.339371 15:0.260992 16:-1.094258 17:-1.450142 18:0.329103 19:0.658466 20:-1.881111 21:0.162679 22:0.721911 23:-0.216771 24:-1.651342 25:0.365681 26:0.385975 27:-0.278660 28:0.579137 29:0.365299 30:-0.522041 31:-0.560999 32:-0.129162 33:1.085085 34:0.602854 35:1.099364 36:1.054607 37:-0.400505 38:-0.388064 39:-1.103023 40:2.389865 41:-1.472819 42:-1.303535 43:0.982178 44:-0.533980 45:-0.727452 46:-0.227355 47:0.443644 48:-2.161026 49:0.905270 50:0.279507 51:-0.148803 52:-0.607977 53:-0.474683 54:0.511277 55:1.045272 56:-1.811444 57:-1.504131 58:1.841539 59:-1.625979 60:1.324115
-1 1:-0.633714 2:1.010398 3:0.961644 4:-0.397233 5:-0.065852 6:-1.278439 7:-0.933086 8:-1.554978 9:-0.365919 10:0.269508 11:0.615692 12:0.064205 13:0.112715 14:-1.038813 15:-0.004032 16:0.085665 17:-0.470760 18:0.025393 19:0.918014 20:-1.129432 21:0.732489 22:1.334958 23:-0.451813 24:0.144709 25:1.511587 26:0.278470 27:0.715023 28:1.379420 29:-0.635784 30:-0.666345 31:0.204290 32:0.942164 33:1.383200 34:-0.653072 35:-1.762172 36:-0.555658 37:-0.427760 38:-0.139675 39:-0.258167 40:2.139100 41:0.000461 42:1.419790 43:-1.007916 44:-0.539526 45:-1.470498 46:1.309235 47:0.361332 48:-0.136562 49:1.113370 50:-1.234019 51:0.023612 52:0.253984 53:0.886559 54:-0.818100 55:0.630867 56:0.259740 57:-0.948177 58:-1.020643 59:-0.162477 60:0.640859
-1 1:1.255208 2:0.432859 3:-1.263301 4:-0.957388 5:1.167435 6:-0.803429 7:0.766122 8:1.185228 9:-0.161675 10:-0.091997 11:-1.896874 12:-0.811568 13:1.178308 14:0.443158 15:0.052632 16:1.917148 17:-0.886459 18:0.226223 19:-1.063265 20:-0.557417 21:0.508449 22:0.433614 23:-0.635573 24:-0.286563 25:-0.530536 26:-0.829411 27:-0.876512 28:0.836909 29:-0.927963 30:-1.929614 31:0.118489 32:0.101658 33:1.186586 34:0.063239 35:-0.638145 36:-1.547799 37:0.744800 38:-0.011707 39:0.153386 40:0.248506 41:1.223725 42:-0.109695 43:-0.222705 44:-0.320548 45:-0.610972 46:1.124461 47:0.373504 48:0.855959 49:0.487486 50:0.410982 51:-1.077584 52:-0.942831 53:-0.026422 54:-0.021525 55:0.074720 56:1.347292 57:0.667615 58:0.455790 59:-1.176209 60:0.664250
-1 1:-0.176735 2:-0.755515 3:-1.575588 4:0.735069 5:0.097455 6:1.678104 7:1.269173 8:0.803302 9:0.091242 10:-0.010887 11:-2.497059 12:1.017842 13:-0.281000 14:0.060195 15:0.273774 16:-0.337165 17:0.061821 18:-1.009847 19:0.720347 20:0.450435 21:0.263188 22:0.630625 23:0.175272 24:-0.760671 25:1.091801 26:-0.255424 27:-1.131260 28:-0.724659 29:-0.275245 30:-0.013100 31:0.188833 32:0.477290 33:-0.365960 34:-0.125844 35:-1.407538 36:-0.175661 37:0.307838 38:-0.231184 39:-0.934782 40:0.133296 41:0.004758 42:-0.220129 43:-0.994338 44:0.144391 45:0.340626 46:0.189544 47:0.194191 48:0.634364 49:1.930196 50:0.300858 51:0.752017 52:1.359112 53:-1.123917 54:-0.965338 55:-0.974375 56:0.151537 57:-1.162750 58:-0.929165 59:-1.003621 60:-0.306352
-1 1:1.217674 2:-0.906821 3:-1.059646 4:0.208735 5:1.907528 6:0.232362 7:0.828955 8:1.071731 9:-1.374429 10:-0.387243 11:-0.867333 12:2.264205 13:1.449243 14:0.505549 15:0.817503 16:0.630090 17:-0.340554 18:2.387682 19:0.917594 20:-1.030691 21:0.904511 22:-0.003738 23:-0.297869 24:0.566322 25:0.517341 26:-0.423828 27:-1.187132 28:-0.755605 29:-1.234567 30:-0.017836 31:0.794887 32:-0.264968 33:0.439325 34:0.180219 35:-0.760451 36:-0.278055 37:-0.350500 38:-0.326909 39:-0.599788 40:-0.742921 41:-0.330538 42:-1.506794 43:-0.447033 44:-1.816807 45:0.626515 46:1.961055 47:0.690080 48:0.783220 49:-0.331197 50:-1.066524 51:2.761794 52:1.915107 53:0.342741 54:0.443460 55:1.907738 56:-0.625029 57:0.327870 58:0.352520 59:-0.154707 60:-1.430902
-1 1:-0.273207 2:1.191348 3:-0.881590 4:-1.041142 5:-0.787151 6:0.896126 7:-0.535246 8:-0.265907 9:-0.571795 10:-0.171073 11:0.530051 12:0.689284 13:0.481162 14:0.714056 15:1.047789 16:-0.767293 17:-0.593402 18:3.273322 19:-0.743569 20:0.906348 21:-1.069224 22:2.278902 23:-0.503108 24:-0.060580 25:0.621252 26:1.089605 27:1.261546 28:-1.533578 29:-0.268967 30:-0.782655 31:0.265497 32:1.082130 33:-0.179214 34:1.270220 35:1.858149 36:0.894047 37:1.076805 38:0.024420 39:-1.907955 40:0.172715 41:0.398238 42:0.655385 43:1.509902 44:-1.890951 45:0.229860 46:0.071698 47:1.438388 48:-1.834835 49:1.473432 50:-0.407793 51:-0.391795 52:-0.760437 53:0.029334 54:-0.360443 55:0.048113 56:1.307906 57:1.450264 58:-0.606380 59:0.768710 60:1.672288
-1 1:-1.581800 2:0.388547 3:0.336696 4:-0.907043 5:-0.988647 6:0.759056 7:-0.046314 8:0.779085 9:-2.376150 10:-0.484924 11:0.455938 12:-2.296056 13:-0.637186 14:1.099641 15:1.130106 16:-0.241597 17:-0.822331 18:-0.524071 19:0.023691 20:-1.628166 21:-0.098813 22:-0.047182 23:0.742327 24:-0.478640 25:-0.639011 26:-0.918097 27:0.199293 28:-0.454999 29:-0.684769 30:0.684176 31:0.165426 32:-0.688440 33:1.807370 34:0.570974 35:0.901873 36:-0.138419 37:-0.737570 38:-1.333427 39:0.064295 40:0.115930 41:-0.421397 42:0.114681 43:-0.388616 44:-1.271746 45:1.959090 46:0.740657 47:-0.373149 48:0.317294 49:1.564521 50:0.206707 51:0.311155 52:0.727396 53:1.574674 54:-0.362888 55:-2.540921 56:0.605095 57:-1.350435 58:-1.318504 59:1.037161 60:-0.129941
-1 1:0.475746 2:-0.262498 3:1.423585 4:-0.203258 5:-0.110010 6:0.269613 7:-0.134850 8:0.302170 9:-0.517298 10:0.155564 11:-2.110460 12:-0.726547 13:-1.763190 14:0.205200 15:0.476037 16:0.908006 17:-0.687982 18:0.447959 19:0.465884 20:0.501133 21:0.104714 22:0.955602 23:-0.071900 24:1.275557 25:0.997512 26:1.179913 27:-0.615301 28:0.725300 29:-0.146880 30:-0.186934 31:1.004215 32:0.330470 33:-1.886571 34:-1.244754 35:-0.529180 36:-0.124715 37:0.155205 38:-0.743197 39:1.906605 40:-1.118366 41:0.418684 42:-0.043265 43:1.271370 44:-0.582980 45:-0.165927 46:1.182888 47:0.008575 48:0.654880 49:-1.007781 50:-0.646364 51:-0.686344 52:0.123245 53:-1.660970 54:-0.158871 55:-0.930683 56:-1.493026 57:0.054946 58:-1.115413 59:0.230635 60:0.790171
-1 1:-0.373666 2:0.175787 3:0.662999 4:0.624167 5:0.704781 6:0.747979 7:-1.903933 8:-1.765452 9:-0.476490 10:-0.202209 11:-0.056712 12:-1.164084 13:0.313830 14:-0.748032 15:-1.001881 16:0.238299 17:1.206300 18:-1.445134 19:0.601845 20:-0.677152 21:-1.786871 22:0.559349 23:-1.491035 24:-1.055394 25:0.001150 26:0.405387 27:-0.238397 28:1.048561 29:-0.330979 30:-1.897856 31:-2.508014 32:-0.333221 33:0.982392 34:0.694390 35:1.736116 36:-0.452045 37:-1.545984 38:-1.635239 39:-0.323656 40:0.290658 41:0.487705 42:0.438606 43:0.851174 44:1.213759 45:0.395040 46:-0.388694 47:-1.680642 48:-0.604270 49:-0.195630 50:0.403199 51:-2.171920 52:1.031492 53:1.274197 54:0.126553 55:-0.350518 56:-0.748608 57:0.197212 58:-0.023946 59:2.192968 60:1.464557
-1 1:0.682708 2:-2.217153 3:-0.973214 4:-0.666378 5:0.186255 6:1.071650 7:-1.405346 8:0.046973 9:-0.181631 10:-2.833373 11:-0.821221 12:1.999152 13:0.407543 14:-0.739704 15:0.666803 16:-1.122113 17:-1.156009 18:0.894205 19:-0.581327 20:0.621700 21:0.034009 22:0.374204 23:0.097862 24:-0.935208 25:-1.300257 26:-1.176625 27:0.513054 28:0.512783 29:2.060557 30:-0.833717 31:-2.042257 32:0.935066 33:0.205323 34:-0.902486 35:0.699713 36:-0.437394 37:-0.389748 38:-1.671922 39:-1.585773 40:-0.677865 41:-0.167672 42:2.734850 43:1.126956 44:0.533593 45:-0.618016 46:-1.108691 47:-1.599370 48:-0.032892 49:1.725698 50:-1.014922 51:1.636250 52:-0.508144 53:-0.225995 54:-0.870143 55:0.244517 56:-0.147632 57:-0.455397 58:2.262095 59:-0.149069 60:-1.285168
-1 1:-0.691353 2:-0.628957 3:0.251389 4:-0.642274 5:-0.092352 6:0.130494 7:0.374541 8:-0.750624 9:-1.060543 10:1.203633 11:0.236045 12:0.965622 13:0.834379 14:1.300569 15:0.298134 16:-1.305775 17:0.866230 18:-0.916728 19:-0.113650 20:-0.313049 21:0.545886 22:0.373905 23:1.606912 24:-0.860238 25:-0.904303 26:-1.658264 27:-0.667226 28:-0.371987 29:-0.129051 30:0.390492 31:0.496586 32:-0.100700 33:0.200278 34:-0.933905 35:-0.200416 36:0.811496 37:2.567243 38:0.419946 39:0.098340 40:0.158841 41:-0.408483 42:0.623888 43:-1.209859 44:1.367430 45:-0.545720 46:-0.406516 47:-0.250509 48:0.050520 49:1.786316 50:0.686641 51:0.048073 52:1.023697 53:0.970796 54:0.155690 55:-2.361200 56:0.773186 57:0.296634 58:-0.975847 59:-0.039297 60:-2.430140
-1 1:0.935689 2:-0.700234 3:1.996016 4:-0.110644 5:1.248114 6:0.823328 7:1.270995 8:0.059302 9:-0.117987 10:1.374254 11:0.837464 12:0.680307 13:0.847027 14:-0.945346 15:-0.819237 16:-0.463478 17:-0.663192 18:-1.229860 19:-0.084996 20:-0.932634 21:-0.131603 22:1.825681 23:0.251794 24:0.041834 25:0.552170 26:0.801209 27:-0.526431 28:1.168680 29:0.478482 30:-0.786354 31:0.679027 32:0.504307 33:0.446870 34:-0.416140 35:-1.406262 36:0.520178 37:0.404062 38:0.724261 39:0.396146 40:-0.908450 41:0.587481 42:-0.010251 43:0.866439 44:1.359547 45:-0.589219 46:-1.407677 47:-0.152404 48:-1.530558 49:0.675688 50:0.578527 51:0.295115 52:-0.494743 53:-0.138897 54:-1.053846 55:0.836090 56:-1.372793 57:0.562783 58:-0.859431 59:1.297167 60:0.662829
-1 1:-0.855075 2:1.674767 3:0.020748 4:-0.187539 5:1.070184 6:0.177888 7:-0.421518 8:-1.013581 9:0.929105 10:-0.446678 11:0.636860 12:-0.079373 13:-0.268254 14:1.779165 15:1.934351 16:1.000175 17:1.368943 18:1.390442 19:0.323161 20:-1.045769 21:0.549577 22:-0.501883 23:-0.917633 24:-0.356230 25:2.310847 26:-0.133847 27:-0.666297 28:-0.587478 29:0.330256 30:-1.168577 31:-0.469894 32:0.704384 33:-0.186552 34:-1.567872 35:-1.547802 36:0.689542 37:-1.339331 38:0.086617 39:-0.011212 40:1.730650 41:-0.147345 42:-0.576918 43:0.248387 44:0.240705 45:0.756663 46:-0.461643 47:-0.929358 48:-0.514039 49:0.056645 50:-0.176106 51:-1.292098 52:-0.870862 53:-1.042684 54:-0.049673 55:0.823222 56:1.300250 57:0.805762 58:-2.144568 59:0.444730 60:-2.372789
-1 1:-1.025704 2:-0.434065 3:-0.271533 4:1.229539 5:-0.341001 6:0.800758 7:1.841015 8:0.721384 9:-1.132175 10:1.576958 11:-0.585044 12:-2.183148 13:0.152228 14:-1.422485 15:0.203105 16:0.829355 17:0.128330 18:-1.333095 19:-1.008581 20:-0.020934 21:1.624667 22:0.669688 23:1.193756 24:-1.625755 25:1.583994 26:-0.831794 27:2.938017 28:-1.254901 29:0.020677 30:0.333693 31:2.012443 32:-0.176107 33:0.022073 34:0.364336 35:-0.340508 36:-0.125432 37:-0.797368 38:-0.043645 39:-1.069319 40:1.766108 41:-0.893489 42:-1.563034 43:2.239324 44:-1.014059 45:-1.573607 46:0.944547 47:0.680122 48:-1.006608 49:-0.052529 50:1.247552 51:0.732377 52:1.280951 53:-1.595731 54:0.843810 55:0.014429 56:-0.088345 57:-0.956232 58:0.366556 59:0.725433 60:-0.125878
-1 1:0.432205 2:-0.442614 3:-0.819839 4:-1.386784 5:-1.504724 6:-0.594445 7:-0.390444 8:0.896868 9:0.720260 10:-0.588638 11:0.734625 12:0.779599 13:-1.872453 14:0.479152 15:1.627277 16:0.984371 17:0.192356 18:0.787187 19:-0.976784 20:-1.243949 21:-0.905537 22:0.489958 23:-0.233421 24:-0.512566 25:-0.344883 26:0.687857 27:0.795144 28:-1.262682 29:-0.029979 30:-0.545972 31:-0.237508 32:0.220067 33:-0.353641 34:0.983281 35:-2.057987 36:1.211870 37:-0.942765 38:-0.290041 39:-0.340816 40:0.256156 41:-0.409012 42:0.070739 43:0.795298 44:0.164601 45:0.848379 46:-0.312396 47:-0.416270 48:-0.177884 49:0.458254 50:0.993787 51:0.765976 52:-0.188953 53:-0.420603 54:1.334959 55:0.766292 56:-0.352057 57:0.580280 58:0.176860 59:0.522412 60:-1.918005
-1 1:-0.034814 2:-1.225651 3:0.223821 4:-0.405010 5:1.439513 6:0.659986 7:-0.638375 8:0.325745 9:-0.342921 10:0.285198 11:-1.116915 12:-0.979266 13:-1.547609 14:-1.027816 15:0.505052 16:0.862383 17:1.336335 18:-1.130596 19:-1.196949 20:0.588440 21:0.533171 22:-0.384837 23:0.521195 24:-1.014847 25:0.599955 26:0.265386 27:-0.718309 28:0.474766 29:-2.180638 30:1.501880 31:1.119046 32:-0.320945 33:-0.091875 34:0.570697 35:0.617624 36:0.589819 37:-0.411836 38:-0.000275 39:0.513549 40:0.871124 41:-0.788454 42:0.939175 43:-1.370810 44:0.145338 45:0.856918 46:-1.112909 47:-1.018321 48:-0.224384 49:-1.065293 50:-0.078850 51:-0.229059 52:-0.848560 53:-0.303287 54:0.334803 55:-0.095404 56:0.188532 57:-0.219065 58:0.956416 59:-1.028414 60:0.634218
-1 1:1.241293 2:-0.352970 3:0.055159 4:0.046600 5:0.558848 6:-0.425152 7:0.317731 8:1.049947 9:0.680877 10:1.638965 11:0.653282 12:-0.656856 13:0.392931 14:1.085533 15:0.901577 16:0.363699 17:0.096144 18:-0.992196 19:-1.466564 20:1.062451 21:-0.010353 22:1.749542 23:-0.359143 24:-1.043199 25:-1.570018 26:0.176443 27:-1.428637 28:-0.994317 29:-1.523833 30:-1.527214 31:0.518061 32:1.166188 33:1.806177 34:-0.105498 35:-2.403226 36:0.071821 37:0.696896 38:-0.273900 39:-0.791799 40:0.288776 41:0.215068 42:0.182878 43:0.839135 44:3.027214 45:0.731224 46:0.544337 47:1.729740 48:-0.200727 49:0.024678 50:0.975046 51:0.535703 52:1.624387 53:-0.145624 54:1.257786 55:-0.498525 56:0.211079 57:0.093687 58:-0.267776 59:-0.172252 60:-0.719081
-1 1:-0.893807 2:-0.155472 3:0.934721 4:1.757312 5:-1.176357 6:0.486928 7:1.694554 8:-1.597335 9:0.517092 10:-0.668457 11:0.124273 12:0.909201 13:-0.438595 14:-0.583147 15:-0.075987 16:0.173445 17:-0.020935 18:0.201792 19:-0.356952 20:0.479644 21:0.779086 22:1.310132 23:-1.623974 24:0.699074 25:-0.862021 26:0.509076 27:-0.437472 28:1.470931 29:0.626584 30:0.206233 31:-0.927110 32:2.110656 33:0.939972 34:0.285730 35:0.693229 36:-0.151931 37:-0.869130 38:1.756884 39:0.107407 40:0.331003 41:-0.767254 42:0.887346 43:1.711781 44:0.718972 45:-2.290787 46:0.458993 47:-1.380841 48:-0.784026 49:-0.382549 50:-1.147133 51:0.828230 52:-0.284278 53:0.901723 54:0.650992 55:0.055656 56:0.738448 57:-0.038605 58:-0.116576 59:0.720002 60:0.307082
-1 1:-0.012947 2:-0.095729 3:-0.179872 4:-0.105276 5:1.750830 6:-0.176603 7:-0.797722 8:-1.763576 9:0.118103 10:-0.841983 11:1.278604 12:0.800681 13:-0.702144 14:-1.627648 15:-2.245256 16:1.787457 17:-1.075191 18:0.548614 19:1.900432 20:0.627237 21:-0.714171 22:0.312222 23:0.483648 24:-1.518303 25:-0.530168 26:-2.786685 27:0.080343 28:0.415906 29:0.244668 30:1.865895 31:0.088797 32:1.601399 33:0.644748 34:-0.831001 35:1.287517 36:-0.920261 37:-0.476077 38:1.600810 39:0.110056 40:-0.157281 41:-0.086526 42:-0.028690 43:-0.197954 44:-1.357455 45:0.652441 46:0.828797 47:1.241179 48:0.238833 49:-0.156122 50:-2.008231 51:0.093651 52:0.667890 53:-0.944966 54:-1.078711 55:0.166593 56:0.529245 57:-1.486845 58:0.687507 59:0.153750 60:-0.346923
-1 1:0.007309 2:0.171976 3:0.074467 4:-0.190495 5:-1.567151 6:-0.468221 7:-0.910602 8:-0.477828 9:1.630064 10:0.875972 11:0.805078 12:0.995383 13:-0.973745 14:-1.421927 15:-1.962778 16:0.694412 17:-1.018095 18:0.295411 19:-0.753970 20:-0.605929 21:-0.796263 22:-1.201926 23:0.167443 24:-0.287599 25:-0.507367 26:0.062801 27:-0.242615 28:0.128944 29:2.189697 30:2.366578 31:0.640311 32:0.064193 33:1.558016 34:1.580364 35:0.121182 36:-0.656909 37:-0.895345 38:0.417023 39:-0.243178 40:0.126531 41:-2.246948 42:-0.214967 43:1.202482 44:-3.399961 45:0.112795 46:-0.927234 47:0.198283 48:-0.207085 49:0.716733 50:-0.655307 51:-1.542692 52:0.408213 53:1.668437 54:0.885094 55:0.542298 56:0.414481 57:-0.998048 58:0.391067 59:0.946549 60:-0.551727
-1 1:1.733483 2:0.996564 3:-0.362376 4:-0.464278 5:1.585180 6:0.164625 7:-0.403222 8:-0.742519 9:1.381525 10:-0.621642 11:0.074809 12:0.064198 13:0.365562 14:-0.910870 15:-2.034964 16:0.041025 17:-0.636023 18:-0.958914 19:-0.157250 20:-1.425618 21:-0.544770 22:1.344999 23:0.804430 24:-0.592206 25:-0.385159 26:-0.024117 27:0.331150 28:-0.811926 29:0.641641 30:-0.237112 31:-2.127102 32:-1.102583 33:-0.826917 34:0.857076 35:-1.600474 36:-1.324266 37:0.692966 38:-0.474236 39:-0.750995 40:-0.349096 41:0.573365 42:-0.927692 43:-1.280509 44:-2.065079 45:-1.540421 46:-1.885099 47:2.308320 48:0.881318 49:-0.174523 50:0.024816 51:0.568895 52:0.835070 53:-1.044195 54:0.134797 55:1.497031 56:0.403200 57:0.114105 58:-0.212057 59:-0.709162 60:0.183718
-1 1:1.557108 2:-0.213950 3:2.429615 4:-0.797303 5:-0.625986 6:0.304319 7:-0.625946 8:1.064342 9:-0.121187 10:0.522150 11:0.588083 12:2.276231 13:-0.145724 14:1.230246 15:-0.141811 16:-0.001079 17:2.026769 18:-1.347030 19:-0.830653 20:-1.761139 21:0.597724 22:-0.581362 23:-0.299849 24:1.372746 25:-1.665826 26:-1.214265 27:-1.041215 28:1.140286 29:2.582876 30:0.389974 31:0.141736 32:0.302622 33:2.544479 34:-0.636575 35:0.201014 36:0.617800 37:1.324031 38:0.281971 39:-1.525123 40:-0.983405 41:-0.793355 42:1.182193 43:0.923605 44:0.805362 45:-0.286083 46:-1.141347 47:-1.540337 48:2.576563 49:1.027509 50:-0.006429 51:-0.814753 52:-1.058133 53:1.289151 54:-1.355502 55:1.257877 56:-0.399915 57:0.421551 58:1.306129 59:-0.541570 60:0.816036
-1 1:-0.978243 2:-1.623803 3:-0.505371 4:0.667003 5:0.208522 6:-0.074898 7:-0.247285 8:0.139910 9:0.420710 10:-0.641590 11:-0.103057 12:0.323067 13:0.412817 14:0.922150 15:0.497601 16:-0.975856 17:-0.930969 18:-1.544284 19:-1.234944 20:0.006758 21:-0.269004 22:-0.401682 23:-0.276765 24:-1.107555 25:-0.001383 26:0.559152 27:-0.987033 28:-1.461144 29:-2.900812 30:0.166778 31:0.866488 32:-2.382562 33:0.280322 34:-1.296020 35:-0.678462 36:0.712634 37:0.516249 38:-0.158866 39:0.931524 40:1.023786 41:0.667155 42:0.640135 43:0.445757 44:-0.352313 45:-0.801387 46:-1.671197 47:-0.449495 48:1.543323 49:2.197800 50:-0.790684 51:-0.579069 52:0.763305 53:-0.559011 54:-2.082548 55:-2.001920 56:-0.973501 57:1.616088 58:-1.365244 59:0.899655 60:0.662507
-1 1:0.362232 2:0.994885 3:-0.256328 4:0.161530 5:0.363631 6:0.244695 7:0.808387 8:-0.681007 9:0.945243 10:0.339649 11:0.584614 12:-0.511593 13:0.457934 14:-0.603831 15:-0.008820 16:-0.139898 17:0.287305 18:1.413414 19:0.771122 20:0.927565 21:0.569518 22:0.712949 23:-0.850188 24:0.137272 25:0.086966 26:0.630413 27:-0.423939 28:0.866177 29:-0.327239 30:-1.236496 31:-0.598916 32:0.235402 33:-0.929821 34:-1.154193 35:-0.815566 36:1.063526 37:-0.952464 38:0.644578 39:-0.280511 40:0.487417 41:1.415638 42:-0.756573 43:-1.150171 44:-0.805826 45:-0.462473 46:1.280241 47:1.093736 48:-0.550166 49:0.283589 50:0.824501 51:0.361515 52:0.726690 53:-0.828061 54:-0.504504 55:-1.234415 56:-2.167257 57:0.436040 58:0.404045 59:-0.316408 60:-0.481444
-1 1:1.542463 2:0.283356 3:0.172146 4:-0.040944 5:-1.920845 6:-0.409413 7:0.299250 8:1.581624 9:1.158226 10:0.620281 11:-0.781686 12:-1.413375 13:-0.010695 14:0.406958 15:1.055812 16:1.021532 17:-0.412523 18:0.591564 19:-0.117079 20:0.019235 21:-0.880753 22:-0.510154 23:0.472054 24:-0.918955 25:-0.901982 26:0.913522 27:0.681023 28:-0.952447 29:-0.953916 30:0.622529 31:0.210357 32:-0.320368 33:0.700394 34:0.236577 35:-0.379168 36:0.424247 37:-0.395533 38:-0.860430 39:-1.006602 40:-0.935555 41:0.199066 42:1.198147 43:1.108311 44:1.011663 45:0.524177 46:1.952209 47:0.586181 48:0.312564 49:1.156927 50:0.092027 51:-0.836531 52:1.308692 53:-0.285581 54:-1.909030 55:0.305609 56:0.672318 57:0.293703 58:-0.699838 59:0.955936 60:2.756125
-1 1:0.447254 2:0.364209 3:-0.468244 4:0.580167 5:-0.542262 6:-0.491040 7:0.000894 8:0.085572 9:-2.020469 10:0.586175 11:0.836956 12:-0.643546 13:1.228476 14:-0.358916 15:-1.755796 16:-0.250142 17:-0.699989 18:1.425582 19:0.642189 20:-0.257639 21:-0.369524 22:-1.851919 23:1.210230 24:-0.604274 25:-0.323413 26:-0.814842 27:-1.054524 28:1.236720 29:0.062722 30:0.611702 31:1.349787 32:-0.380827 33:-1.088680 34:0.278185 35:-0.467194 36:-0.709593 37:0.070598 38:0.255747 39:1.463654 40:0.303373 41:-0.942516 42:-1.210102 43:1.522249 44:1.356923 45:0.984349 46:1.458839 47:-0.629234 48:0.405951 49:0.516042 50:-0.227055 51:0.556628 52:-1.118106 53:-1.322466 54:-0.176767 55:0.436955 56:0.072756 57:0.287882 58:0.054741 59:-0.509408 60:0.666889
-1 1:0.208106 2:0.138542 3:0.732108 4:-2.057080 5:-0.227469 6:1.007938 7:-0.112064 8:0.314818 9:-0.473428 10:-0.032180 11:0.642395 12:0.858215 13:0.173261 14:1.084355 15:-0.539282 16:-1.112242 17:-0.787249 18:1.169466 19:-0.818152 20:-0.027016 21:1.361765 22:-0.479159 23:0.459015 24:1.650567 25:1.183698 26:0.024158 27:-2.383328 28:-1.111481 29:0.065250 30:0.308254 31:0.883516 32:-1.655195 33:-0.138457 34:-0.620385 35:0.284521 36:-0.515371 37:0.221415 38:-1.881807 39:0.696192 40:-0.279475 41:-1.815105 42:-0.558933 43:-0.980655 44:-0.878265 45:1.504513 46:-0.434104 47:0.349578 48:-0.138596 49:1.227316 50:0.247035 51:1.511836 52:0.101794 53:-0.113462 54:1.322272 55:-0.901551 56:2.087664 57:0.287760 58:-0.942691 59:-2.145533 60:-0.898929
-1 1:0.953136 2:0.308980 3:0.527213 4:1.745926 5:-0.450431 6:-0.763042 7:-1.259072 8:0.926911 9:0.641286 10:0.976042 11:-0.052528 12:-0.324341 13:-1.170980 14:0.089948 15:0.048766 16:0.123199 17:-0.713976 18:0.255272 19:-0.667783 20:-0.734134 21:-1.452850 22:-1.668147 23:-2.321241 24:2.888881 25:-0.153256 26:-0.084252 27:-0.209560 28:0.764328 29:1.358727 30:0.733913 31:0.818480 32:0.225245 33:1.324391 34:1.876359 35:0.523007 36:2.439731 37:0.566005 38:0.591713 39:-1.512714 40:1.160377 41:-0.087346 42:-0.578999 43:-0.006068 44:3.767359 45:1.186659 46:-0.988107 47:-1.669214 48:2.793618 49:0.580588 50:1.655208 51:1.789943 52:0.021271 53:-1.622002 54:0.622016 55:-0.756674 56:0.990251 57:0.654306 58:0.268974 59:0.085961 60:0.014672
-1 1:-1.077259 2:-0.575061 3:0.792489 4:0.488862 5:1.266615 6:0.570425 7:0.280493 8:2.398641 9:0.682140 10:0.447756 11:0.882785 12:0.331990 13:-0.869220 14:-2.180126 15:0.599050 16:1.908545 17:-2.412137 18:-0.508772 19:-1.552674 20:1.036010 21:0.534167 22:-0.454013 23:-1.119708 24:0.346491 25:-0.243083 26:0.804901 27:1.198307 28:0.257745 29:0.968789 30:-0.775917 31:1.909475 32:-1.798564 33:0.587903 34:-1.270283 35:1.903668 36:-0.001518 37:-1.595089 38:-0.006967 39:0.888753 40:0.770538 41:-1.513614 42:-1.220381 43:0.224320 44:1.068310 45:0.782212 46:-0.624410 47:0.636196 48:0.822974 49:0.436894 50:-0.323978 51:1.188891 52:-1.479445 53:0.383994 54:-1.555289 55:0.091805 56:-0.190731 57:1.468022 58:0.071549 59:-1.216974 60:-0.564996
-1 1:0.135560 2:0.390350 3:-1.271281 4:1.035501 5:1.335607 6:-0.660804 7:2.117086 8:-0.890202 9:0.147156 10:-0.115328 11:-0.830205 12:1.088860 13:0.256731 14:-1.222714 15:-0.638117 16:1.069377 17:0.670623 18:0.761102 19:0.050402 20:1.725560 21:1.414291 22:0.990236 23:1.149319 24:0.375563 25:-0.048482 26:1.341777 27:0.714138 28:1.525340 29:-1.731295 30:-0.688659 31:-1.531638 32:0.326355 33:0.887110 34:0.173244 35:-0.312505 36:-0.763704 37:-2.185345 38:1.424715 39:0.469252 40:0.316909 41:-0.568885 42:1.063830 43:-0.837732 44:0.779563 45:-0.580718 46:-1.000237 47:-0.725287 48:-0.191066 49:1.150785 50:1.666633 51:-0.686419 52:-0.524419 53:-1.471133 54:-1.964297 55:-0.803626 56:0.123653 57:0.117726 58:-1.444105 59:-0.058780 60:0.219639
-1 1:1.680609 2:-0.871226 3:-1.494188 4:-0.894928 5:0.273113 6:0.353126 7:1.055832 8:-0.080312 9:-0.064679 10:-0.147387 11:0.952814 12:0.623390 13:0.024875 14:1.364759 15:0.297701 16:-0.843831 17:-0.576649 18:1.025032 19:-0.717337 20:0.421141 21:1.423636 22:1.903170 23:0.171105 24:0.592170 25:-2.093299 26:1.007700 27:-0.693500 28:-1.383173 29:-0.232500 30:-1.871435 31:1.801074 32:1.107616 33:0.013837 34:-0.000368 35:0.329831 36:-0.251514 37:-0.339460 38:0.474127 39:0.157967 40:0.290728 41:1.259657 42:-0.747200 43:0.511676 44:-1.103714 45:0.158930 46:-0.308307 47:-1.237680 48:-0.799339 49:1.945471 50:-0.129617 51:1.398438 52:-0.369276 53:-0.771629 54:-0.305617 55:0.724289 56:0.024893 57:-0.769000 58:0.902174 59:-1.523414 60:0.121642
-1 1:-1.932453 2:-0.708679 3:-0.791007 4:0.924613 5:-1.941053 6:0.049407 7:-0.078664 8:0.404807 9:-0.604086 10:-0.414027 11:-0.701561 12:0.788814 13:-2.214013 14:-2.117129 15:0.261398 16:0.326844 17:1.326666 18:1.748745 19:-0.545149 20:-1.308841 21:0.155587 22:0.738829 23:0.376415 24:-0.437460 25:-2.341120 26:-1.991161 27:0.252758 28:-1.366922 29:0.962160 30:-0.127723 31:0.552494 32:0.032513 33:-0.314634 34:1.271600 35:0.786312 36:1.068046 37:-1.341060 38:0.235431 39:-0.394835 40:1.591682 41:-0.252082 42:0.198433 43:-0.564694 44:-1.457798 45:-0.544099 46:1.541694 47:-1.530819 48:0.016298 49:-1.405419 50:0.084929 51:1.358739 52:0.457864 53:0.030924 54:-1.285606 55:-0.997565 56:-0.574613 57:-0.651656 58:-0.279895 59:0.545871 60:-1.647683
-1 1:2.428646 2:0.733029 3:-1.754715 4:0.654313 5:-0.542209 6:1.127402 7:-0.161534 8:0.809373 9:1.070690 10:0.563205 11:-0.285497 12:0.601400 13:0.844912 14:0.583513 15:0.171326 16:-0.134421 17:0.486810 18:0.077631 19:-0.161252 20:1.110958 21:-0.470689 22:-0.924108 23:0.286845 24:0.373594 25:0.196520 26:0.007979 27:-2.177325 28:0.286822 29:1.941553 30:0.636244 31:-0.332296 32:0.080369 33:0.228455 34:-0.139408 35:-1.397950 36:0.738300 37:0.805471 38:-0.109630 39:-1.293897 40:-0.470537 41:-0.383554 42:-1.621437 43:-1.041767 44:-0.811465 45:0.142899 46:0.180654 47:1.471351 48:-0.372010 49:-1.122705 50:-0.279006 51:-0.300814 52:1.577226 53:-0.175157 54:-0.445774 55:1.227112 56:-0.018651 57:-0.027406 58:-1.479164 59:-0.355892 60:-0.068943
-1 1:0.636123 2:-0.104297 3:-0.265117 4:0.852177 5:-0.757723 6:0.325873 7:1.357444 8:1.393034 9:-0.459111 10:-0.690068 11:-0.008015 12:-0.070347 13:0.279113 14:1.211165 15:-0.833819 16:0.980358 17:1.440916 18:0.567942 19:-0.648305 20:0.334928 21:0.019914 22:0.560229 23:0.846850 24:-0.709671 25:0.579800 26:0.307922 27:1.461400 28:-0.726189 29:0.777241 30:-0.623307 31:0.359688 32:-0.030583 33:0.692341 34:1.275660 35:-0.829091 36:-0.039555 37:-0.498343 38:-0.328704 39:-0.522039 40:1.962829 41:0.703191 42:-1.250593 43:-0.330345 44:1.578485 45:-2.392794 46:-0.802349 47:0.024653 48:-0.929793 49:1.391098 50:0.552434 51:0.748857 52:-0.305969 53:1.280897 54:1.408141 55:0.002933 56:-2.029820 57:0.461001 58:1.748286 59:-0.549611 60:-0.236940
-1 1:0.742629 2:-0.538444 3:-1.373015 4:0.128454 5:-0.431923 6:-1.219497 7:-2.130865 8:-0.437189 9:0.201275 10:1.633497 11:0.752793 12:-0.016304 13:0.767897 14:0.262960 15:-0.446633 16:-0.156894 17:-0.883260 18:0.420295 19:0.028110 20:0.002113 21:-0.371648 22:0.527111 23:-0.892137 24:-0.941604 25:-1.543103 26:-0.841692 27:-0.015779 28:0.426514 29:-1.041434 30:-0.794067 31:-0.234120 32:-0.561334 33:-1.120019 34:-1.513696 35:1.278963 36:-0.627401 37:0.366328 38:1.947828 39:-0.107751 40:1.068188 41:0.208871 42:-0.406204 43:-0.877338 44:0.555090 45:1.376180 46:0.963126 47:1.034437 48:-0.474785 49:0.130016 50:-0.508100 51:-0.608474 52:1.650341 53:1.156779 54:-1.276233 55:1.164098 56:-0.104411 57:-1.930692 58:0.031228 59:1.623357 60:-1.394409
-1 1:0.875124 2:0.397690 3:-0.531578 4:-0.215208 5:-1.691955 6:1.730453 7:-1.140011 8:-0.501152 9:0.359785 10:-0.691856 11:-1.021941 12:2.313684 13:-1.767232 14:0.485834 15:0.243227 16:0.048362 17:-0.801401 18:0.460499 19:0.597342 20:-0.227156 21:0.966367 22:0.683880 23:0.185470 24:-0.052309 25:-0.232623 26:-1.494231 27:-1.355166 28:1.570810 29:1.211599 30:0.696938 31:0.668816 32:-1.751465 33:-0.449936 34:0.715527 35:-0.809922 36:-0.590180 37:1.914738 38:1.170142 39:0.457959 40:0.858809 41:0.026683 42:-0.591108 43:-0.608072 44:0.816143 45:-0.123589 46:-0.703787 47:-0.717545 48:-0.562838 49:0.445339 50:0.672996 51:0.991287 52:-0.644203 53:-1.970145 54:0.785689 55:0.961565 56:1.078877 57:0.539053 58:0.638290 59:-0.388134 60:-1.315035
-1 1:1.403837 2:-0.104264 3:0.586629 4:0.290769 5:-0.659382 6:0.083586 7:1.586429 8:1.132200 9:1.139761 10:0.977724 11:0.922717 12:-0.461448 13:1.384948 14:1.612554 15:1.014827 16:-1.634289 17:-0.008321 18:1.420827 19:-0.875558 20:0.042047 21:1.739414 22:0.243266 23:0.370259 24:-0.294905 25:-0.203319 26:-0.574052 27:2.107769 28:0.966212 29:1.011541 30:0.162427 31:0.986754 32:-0.280550 33:1.570886 34:0.055519 35:0.445585 36:1.421511 37:-0.435921 38:1.156795 39:0.599060 40:-1.757231 41:-0.486627 42:-1.468106 43:0.220923 44:1.374126 45:0.024358 46:0.804967 47:-1.178453 48:-2.202970 49:-1.550023 50:0.826541 51:0.670462 52:-0.328965 53:-0.382619 54:-0.870395 55:-1.757413 56:-0.157814 57:0.128819 58:0.705329 59:0.653654 60:1.068128
-1 1:-0.140674 2:0.863387 3:-1.459474 4:0.831493 5:-1.393774 6:-0.149773 7:0.694241 8:1.240523 9:-0.167663 10:1.434931 11:-0.127112 12:-0.109559 13:-0.576088 14:1.320508 15:-1.117935 16:-0.051741 17:-0.518998 18:-1.158825 19:-2.157006 20:-1.344860 21:1.258221 22:-2.702097 23:-0.096855 24:1.671195 25:-0.029593 26:0.208500 27:1.572818 28:0.695143 29:0.318140 30:-1.278738 31:0.067129 32:-2.232359 33:0.378156 34:0.245968 35:0.362765 36:-0.413814 37:2.213320 38:-0.133652 39:0.718029 40:-0.084119 41:-2.985233 42:0.867285 43:1.914555 44:-0.524775 45:-0.170220 46:0.249560 47:-0.349131 48:0.151799 49:-0.748427 50:1.659461 51:-0.218538 52:1.342221 53:-0.080791 54:-0.041597 55:0.278975 56:-0.373050 57:-0.286200 58:1.650765 59:-0.217727 60:-0.422036
-1 1:-0.900554 2:0.083538 3:1.014441 4:0.443923 5:-0.971859 6:-0.810246 7:1.146728 8:-1.070750 9:0.363437 10:-0.288664 11:-0.489026 12:0.089076 13:0.437589 14:0.893622 15:0.953045 16:0.809488 17:1.232328 18:-0.853346 19:-1.836405 20:0.766736 21:0.235488 22:-1.442253 23:1.315682 24:-0.610845 25:-0.495542 26:0.818732 27:0.459385 28:-1.486610 29:-0.667012 30:0.966764 31:0.886664 32:-0.870503 33:-1.231845 34:2.502459 35:1.364423 36:-0.718312 37:0.018929 38:-0.501587 39:-0.401404 40:1.570241 41:-0.711679 42:0.858733 43:0.136110 44:-0.360762 45:0.889422 46:0.195495 47:1.179411 48:-0.007625 49:-1.084636 50:0.928368 51:-1.138703 52:-0.893063 53:-0.161471 54:-0.765045 55:-0.784753 56:-0.546811 57:-1.080231 58:1.247275 59:-1.076863 60:0.478709
-1 1:-1.141187 2:1.561073 3:-0.676170 4:-2.581295 5:0.631915 6:-1.302760 7:-0.444028 8:-1.411844 9:-2.574565 10:0.169393 11:1.030329 12:3.179700 13:-0.943607 14:-0.503418 15:1.920718 16:0.104774 17:-0.959570 18:-1.119549 19:-0.702496 20:-1.839807 21:0.839032 22:2.283156 23:0.931468 24:0.536190 25:-0.846009 26:2.026051 27:-0.040754 28:-1.071612 29:0.404807 30:0.015031 31:-1.260773 32:-1.069203 33:-1.541731 34:0.874378 35:-0.114450 36:-1.138858 37:0.122490 38:1.384377 39:-0.162686 40:1.153339 41:0.737745 42:-0.811507 43:0.308912 44:0.266904 45:1.362833 46:1.128542 47:-0.404252 48:2.141934 49:0.139334 50:-0.019408 51:1.504943 52:0.616809 53:0.782276 54:-0.750731 55:-0.135872 56:0.053642 57:0.023406 58:0.103771 59:0.249079 60:0.704950
-1 1:0.474975 2:-0.354548 3:0.437248 4:-0.479728 5:-0.680011 6:0.820476 7:1.148157 8:-0.220360 9:0.009893 10:-0.931891 11:0.331746 12:0.524666 13:0.099326 14:-0.326557 15:1.142430 16:-0.753815 17:-0.770840 18:1.111811 19:0.487132 20:0.021121 21:-1.584383 22:-2.103108 23:2.778855 24:0.944422 25:-0.234023 26:1.934282 27:-0.051935 28:-1.073866 29:-0.616262 30:2.244323 31:-0.425178 32:-1.422478 33:-1.363917 34:1.542953 35:-1.617916 36:1.006841 37:-0.080070 38:0.087800 39:-0.434928 40:-0.141202 41:1.021935 42:-1.149072 43:-0.508069 44:0.088104 45:0.892374 46:0.560463 47:-0.083667 48:0.008444 49:0.410635 50:-1.059766 51:0.610108 52:-1.851639 53:0.696652 54:1.828256 55:0.816407 56:2.106483 57:-0.055356 58:-0.656307 59:-0.369082 60:-0.769050
-1 1:2.089544 2:0.124268 3:1.166416 4:-0.835239 5:0.547688 6:-0.023608 7:-0.420899 8:1.688319 9:-2.429891 10:0.541845 11:0.407738 12:0.505886 13:-1.989293 14:-0.545331 15:2.232179 16:-0.993521 17:-0.431121 18:1.746496 19:-1.195990 20:-0.511171 21:-0.313565 22:0.306050 23:0.518577 24:0.576857 25:1.694311 26:-0.133363 27:-0.177981 28:2.050333 29:0.215158 30:-0.028575 31:0.784290 32:1.196891 33:-1.037591 34:-0.969027 35:-0.644449 36:1.537038 37:1.251505 38:0.361767 39:-0.859578 40:0.105248 41:-1.273664 42:-0.121798 43:0.229067 44:-1.136130 45:-0.270538 46:0.475835 47:-0.456295 48:0.090458 49:1.398371 50:-0.947300 51:0.804613 52:0.612791 53:0.927505 54:-1.804653 55:0.648944 56:-0.893845 57:1.362943 58:-0.352220 59:0.181968 60:-1.497267
-1 1:-0.217655 2:0.832767 3:-0.075661 4:0.615382 5:-0.310393 6:-1.486590 7:0.523113 8:-0.856692 9:-0.563338 10:0.693744 11:0.761852 12:-1.993646 13:0.386341 14:-0.939019 15:0.204573 16:0.697912 17:0.688265 18:-0.814699 19:-0.765479 20:-0.939349 21:-0.104696 22:0.190452 23:1.630733 24:0.125694 25:-1.533339 26:-0.479187 27:0.069734 28:-0.927703 29:0.147365 30:2.808267 31:0.074395 32:-0.939124 33:0.483080 34:0.728856 35:2.237194 36:-0.429291 37:-1.893215 38:-1.102790 39:0.520930 40:-0.110461 41:-0.905577 42:-0.936548 43:0.756697 44:0.390777 45:-0.368123 46:0.464676 47:-1.032491 48:0.424202 49:1.086462 50:0.227452 51:0.156161 52:0.450387 53:0.912921 54:-0.466906 55:-1.537334 56:0.012541 57:-1.110912 58:0.715527 59:-1.096740 60:2.466614
-1 1:-1.661919 2:1.176997 3:-1.431999 4:-0.297099 5:0.466792 6:1.535506 7:-2.275443 8:0.782094 9:1.304913 10:-0.425439 11:-0.364492 12:0.701314 13:-0.170516 14:-0.098598 15:-0.371057 16:-1.354365 17:-0.820464 18:0.407446 19:1.134420 20:0.062225 21:0.811423 22:-1.697060 23:-0.309351 24:-2.213617 25:-1.255726 26:-2.272116 27:1.203427 28:1.634484 29:-1.607379 30:-1.916724 31:-0.893266 32:0.528547 33:0.680333 34:0.344714 35:0.485603 36:-0.896842 37:0.603531 38:1.108878 39:0.109855 40:0.379191 41:-0.655752 42:-0.513758 43:-2.166095 44:0.029006 45:1.742805 46:-0.325673 47:-0.776298 48:-0.251335 49:-0.955746 50:0.181055 51:1.199680 52:1.208535 53:0.076607 54:0.552298 55:-0.809445 56:-0.596993 57:0.383326 58:0.791770 59:0.736136 60:0.416657
-1 1:-0.185472 2:1.269467 3:1.285219 4:0.221639 5:1.493274 6:-0.084045 7:0.951740 8:-0.654180 9:0.029786 10:-0.711808 11:-0.050633 12:0.766668 13:0.983412 14:-0.377802 15:-0.371409 16:-1.915247 17:0.767921 18:0.073088 19:-0.895735 20:0.106616 21:1.149807 22:-2.144968 23:0.936209 24:-0.023421 25:0.203270 26:0.458801 27:-1.078981 28:0.566425 29:0.979985 30:1.081730 31:2.153846 32:-1.096842 33:0.260702 34:-1.746642 35:-1.408881 36:0.693206 37:-0.593128 38:-0.305772 39:0.082927 40:2.410344 41:-0.737392 42:0.069606 43:-0.379101 44:-1.310947 45:-1.682124 46:-0.589382 47:-0.763063 48:0.071878 49:-0.649883 50:0.814017 51:2.067518 52:0.638099 53:0.900895 54:-0.360464 55:-0.614348 56:0.288975 57:-0.627354 58:2.197287 59:-0.649573 60:0.273325
-1 1:-0.178170 2:0.774610 3:-0.549236 4:-0.351800 5:1.489652 6:0.662807 7:0.093026 8:-2.419678 9:-1.206818 10:-1.492583 11:-1.099626 12:0.858372 13:0.093208 14:0.477179 15:0.663458 16:-0.404201 17:-0.677912 18:0.116394 19:1.402891 20:0.152637 21:-0.803734 22:0.217944 23:0.515005 24:0.138103 25:0.217626 26:1.132381 27:0.733247 28:0.096249 29:-1.482704 30:0.872300 31:0.687205 32:1.109979 33:-0.365359 34:-0.897496 35:-1.576166 36:0.166092 37:1.085672 38:-0.315815 39:0.656092 40:-0.971301 41:1.823938 42:0.776467 43:1.265352 44:0.430920 45:-0.826347 46:-0.027085 47:-0.135461 48:0.279357 49:-0.464037 50:-0.733518 51:0.484216 52:1.400675 53:0.601171 54:0.834544 55:1.708920 56:-0.077032 57:0.678676 58:-0.798507 59:0.592445 60:-0.561236
-1 1:-0.118143 2:1.872036 3:-0.862124 4:0.858914 5:-1.554814 6:-0.403911 7:-0.548703 8:1.030840 9:-1.022942 10:1.808964 11:-0.279542 12:0.474675 13:0.924370 14:1.636376 15:-0.842744 16:0.109578 17:0.411933 18:-0.622436 19:-0.358885 20:0.310590 21:0.002904 22:1.231571 23:0.767280 24:1.270067 25:-0.459610 26:-0.584652 27:-1.040896 28:-0.265640 29:-0.156247 30:-0.700126 31:1.209863 32:0.798648 33:-1.402523 34:-0.024336 35:1.518154 36:0.238617 37:-0.493042 38:0.130430 39:-0.753834 40:1.365646 41:2.129798 42:0.241765 43:0.169327 44:-0.120017 45:-2.352033 46:-2.208283 47:-0.594698 48:0.454121 49:1.377931 50:-0.383452 51:0.748626 52:-1.209134 53:-0.323883 54:0.925755 55:1.187727 56:0.812748 57:-1.998551 58:0.670029 59:0.554535 60:-0.206985
-1 1:-1.580755 2:0.742695 3:-0.748201 4:-0.408406 5:-1.479281 6:0.580775 7:0.739421 8:0.215497 9:-1.533642 10:0.704214 11:-1.231621 12:-0.744739 13:-0.773681 14:-0.006515 15:-0.646660 16:1.881712 17:0.044394 18:0.291924 19:-0.067354 20:0.298331 21:-1.445117 22:2.508588 23:1.629555 24:-0.123529 25:-1.312559 26:-0.212559 27:-1.214520 28:0.662319 29:1.132692 30:-1.296982 31:1.605319 32:1.017714 33:0.361786 34:0.027558 35:0.390939 36:0.698300 37:-1.196910 38:-0.825115 39:-1.191325 40:1.457957 41:-0.217047 42:-0.690881 43:-1.249215 44:0.667475 45:-1.251581 46:0.413099 47:0.356351 48:0.157340 49:0.030735 50:0.203069 51:1.448189 52:0.639617 53:-1.732170 54:0.954558 55:0.918773 56:0.979946 57:0.190322 58:0.032648 59:-0.781280 60:0.255240
-1 1:1.250418 2:0.741937 3:0.455998 4:-0.621122 5:-1.436901 6:0.344388 7:1.425070 8:0.256742 9:1.574888 10:0.141236 11:0.923198 12:-0.394291 13:-0.989738 14:0.499691 15:0.348521 16:-0.396497 17:-0.477200 18:-0.496821 19:2.067444 20:-0.976902 21:-0.751420 22:1.131860 23:-0.826861 24:0.852092 25:0.108162 26:0.461722 27:-1.039637 28:0.452307 29:0.293486 30:1.909271 31:-0.519095 32:-0.123191 33:0.392042 34:-1.040128 35:-0.258974 36:-0.857320 37:0.907200 38:1.463303 39:-0.833076 40:1.617212 41:0.866487 42:0.480640 43:-0.089006 44:-1.323888 45:-0.552357 46:-0.048985 47:-0.832445 48:0.154042 49:-0.377997 50:1.337517 51:1.698664 52:-0.714219 53:-1.666679 54:-0.223403 55:-1.029497 56:-0.961543 57:-0.296162 58:-0.191649 59:1.022586 60:1.235208
-1 1:-0.010612 2:-0.197159 3:1.405046 4:1.008407 5:0.506571 6:-0.041135 7:-0.809854 8:0.924894 9:0.908419 10:-2.124481 11:1.526051 12:0.990245 13:-1.010616 14:-0.150182 15:-1.742794 16:0.327566 17:1.214249 18:-0.539089 19:0.035201 20:1.538703 21:-2.253006 22:-1.869540 23:-1.235384 24:-0.312083 25:0.332214 26:-1.894810 27:0.806961 28:-1.027312 29:-0.345935 30:0.288706 31:0.166434 32:-0.032911 33:-1.148812 34:-0.581289 35:-0.715128 36:-0.809531 37:0.770428 38:-1.160422 39:-2.052417 40:-0.925128 41:0.632309 42:1.423500 43:-0.181489 44:-1.001594 45:-0.523589 46:0.573638 47:-0.421731 48:0.615714 49:-1.259300 50:0.172469 51:-0.653656 52:-1.032290 53:-0.287907 54:-2.575486 55:0.489396 56:-0.826944 57:0.539714 58:-0.246490 59:-1.643766 60:0.789127
-1 1:0.682233 2:0.813441 3:0.579135 4:-0.107916 5:0.332004 6:-1.665335 7:0.611782 8:-0.386039 9:-1.983912 10:-0.754776 11:-0.538738 12:1.620088 13:0.763609 14:0.089024 15:-1.869564 16:-0.567744 17:-2.086493 18:1.198000 19:-0.482101 20:-1.535471 21:-1.256265 22:1.695922 23:-0.728417 24:0.919791 25:0.489190 26:0.113224 27:-0.489354 28:-1.427542 29:0.201392 30:-0.815839 31:-1.191216 32:0.523506 33:-0.874625 34:-0.042169 35:-0.234941 36:-1.465973 37:0.834268 38:-0.774850 39:-0.239954 40:-0.660971 41:1.366101 42:-0.176931 43:-0.735552 44:-0.285112 45:0.237246 46:-0.538704 47:1.124305 48:1.074285 49:-0.183887 50:-0.241452 51:0.278386 52:1.204483 53:-0.902896 54:0.276660 55:1.457639 56:0.714315 57:-0.855143 58:-0.530582 59:0.424628 60:-1.138092
-1 1:-0.037201 2:-0.744124 3:0.024041 4:1.408004 5:1.287818 6:-1.401243 7:-0.338920 8:-0.998314 9:2.362637 10:-0.377881 11:0.610315 12:0.676603 13:1.023785 14:-0.335700 15:1.494125 16:-2.412660 17:-0.254445 18:-0.963910 19:0.366242 20:-0.689011 21:0.748395 22:-0.828260 23:-1.963762 24:-0.587002 25:0.577603 26:-0.897413 27:-0.893071 28:1.057192 29:1.496769 30:0.796744 31:0.125823 32:0.824824 33:-0.568571 34:0.089393 35:0.383858 36:-0.409365 37:0.456374 38:0.304377 39:-1.802003 40:-1.209433 41:-1.807302 42:-0.024182 43:0.589765 44:0.021921 45:-2.448803 46:0.558238 47:0.147309 48:-1.781022 49:0.789054 50:-0.927194 51:0.405408 52:-1.315650 53:-0.029610 54:1.360440 55:1.135437 56:0.272952 57:0.692045 58:0.682237 59:1.137834 60:2.319336
-1 1:0.038422 2:-0.110908 3:0.368262 4:1.254808 5:0.712213 6:0.033383 7:-2.368008 8:1.017998 9:-0.885084 10:0.047747 11:0.258810 12:-1.263400 13:0.619486 14:1.127262 15:0.332978 16:0.791933 17:-0.868251 18:0.276551 19:1.322255 20:0.294618 21:0.286091 22:0.938992 23:-0.954790 24:0.552457 25:0.062398 26:-0.866462 27:-0.715625 28:0.728584 29:0.387101 30:-0.287537 31:0.106419 32:-1.241234 33:-0.588900 34:-0.202143 35:-0.929662 36:0.751397 37:0.260395 38:0.723635 39:-0.521939 40:-0.557436 41:0.257173 42:0.891373 43:0.335451 44:-2.040514 45:1.084091 46:-1.203274 47:-0.455192 48:0.288325 49:-0.853369 50:1.505024 51:0.596392 52:-0.051202 53:-0.262509 54:-0.237231 55:-0.869056 56:-1.400931 57:-1.004188 58:0.422765 59:-0.542804 60:0.405189
-1 1:0.838405 2:-1.718821 3:1.074395 4:-1.080487 5:-0.512788 6:0.275936 7:0.210422 8:-0.476120 9:0.574537 10:-0.055230 11:-0.411502 12:-0.164574 13:-0.810375 14:0.823461 15:-1.570706 16:1.736110 17:-0.193169 18:-0.352391 19:-1.316418 20:-2.337971 21:0.331647 22:-0.857582 23:0.782674 24:-0.239054 25:0.501616 26:1.460276 27:0.737133 28:-1.424537 29:1.387110 30:0.679060 31:-1.648239 32:-0.575477 33:-1.325340 34:0.379199 35:0.873519 36:1.281136 37:1.237761 38:0.797910 39:-0.727957 40:0.554036 41:1.586846 42:-0.966972 43:1.531761 44:-0.027778 45:-0.403396 46:-1.055808 47:-0.604736 48:-0.186381 49:-0.124172 50:-0.898617 51:0.294352 52:1.102685 53:-1.374293 54:0.411180 55:1.323177 56:2.142700 57:0.360094 58:-0.006124 59:0.765642 60:-0.274085
-1 1:2.638255 2:-0.179610 3:-1.710874 4:-0.655329 5:-0.988872 6:0.259451 7:1.757273 8:0.258361 9:0.382057 10:-0.415973 11:-0.342289 12:0.224226 13:0.612506 14:1.354834 15:-0.068873 16:-1.301224 17:-0.828123 18:0.056054 19:-1.150946 20:0.920493 21:-0.079488 22:0.057319 23:-2.126759 24:-0.017614 25:-0.013789 26:-0.306061 27:1.287943 28:0.661936 29:0.837828 30:-0.070587 31:-1.265995 32:0.279920 33:0.411623 34:-1.671587 35:0.446912 36:1.012535 37:1.970937 38:0.227084 39:0.280133 40:-0.277983 41:0.510033 42:-1.319174 43:1.569766 44:0.825952 45:-0.288340 46:-2.329362 47:-0.994544 48:1.934909 49:0.064376 50:-1.585067 51:0.736302 52:0.483486 53:0.003654 54:0.984461 55:0.382342 56:0.508125 57:-2.274109 58:1.539348 59:0.454816 60:1.732193
-1 1:-0.496002 2:-1.027003 3:0.192798 4:0.764674 5:-0.231632 6:-0.467721 7:1.760563 8:3.867900 9:0.401816 10:-1.101467 11:0.793980 12:-1.248621 13:-0.412095 14:0.200929 15:-1.022348 16:-0.189826 17:-0.544369 18:1.820824 19:-0.251287 20:-0.615345 21:1.387121 22:0.706387 23:-0.725748 24:-0.272029 25:-0.864534 26:-0.632376 27:0.309460 28:-0.300942 29:1.461179 30:0.369876 31:0.212581 32:-0.167289 33:0.110301 34:-0.401183 35:0.327252 36:-0.074098 37:2.143663 38:-0.947010 39:-1.800271 40:0.502417 41:0.187603 42:0.465513 43:0.948898 44:-0.378393 45:-0.030912 46:1.372059 47:0.313453 48:-0.324034 49:0.051636 50:0.032659 51:-0.306780 52:0.557460 53:-0.422895 54:-0.084336 55:-0.160680 56:0.063968 57:0.651342 58:0.072096 59:-1.230838 60:-0.011281
-1 1:1.222650 2:-0.124984 3:-2.693287 4:-1.518717 5:1.106311 6:1.716031 7:0.022725 8:0.005604 9:1.796500 10:-0.112822 11:-0.081906 12:0.546313 13:-0.834877 14:1.112803 15:-0.482266 16:-0.684297 17:-0.848674 18:-1.109414 19:2.448641 20:-0.356550 21:-0.708176 22:-0.261794 23:0.344674 24:0.044164 25:-0.803577 26:0.739110 27:-0.121263 28:-0.911970 29:0.116136 30:-0.329195 31:1.310872 32:-1.371451 33:1.647696 34:1.139808 35:0.519568 36:-0.405418 37:0.218171 38:-0.264276 39:0.589243 40:0.760576 41:-2.317118 42:0.555026 43:-0.616965 44:1.045279 45:-0.559475 46:0.041748 47:-0.306661 48:-0.658306 49:-0.053432 50:0.190346 51:1.551938 52:-0.784921 53:0.230020 54:-1.398918 55:-0.233886 56:-0.845246 57:0.302715 58:0.899397 59:0.617771 60:0.381228
-1 1:-0.167815 2:1.427066 3:-0.856116 4:2.359081 5:-0.238627 6:-0.532609 7:0.830158 8:0.263075 9:-0.441375 10:-0.067519 11:-0.966574 12:-0.608794 13:0.473799 14:-0.138888 15:-1.064680 16:-0.232154 17:-0.618306 18:0.467783 19:1.255809 20:2.267179 21:0.053497 22:-0.956285 23:0.846808 24:-0.619241 25:0.439472 26:-2.354230 27:0.112292 28:-0.622982 29:0.094125 30:2.186834 31:0.381335 32:-0.601910 33:1.307239 34:-0.380098 35:-0.822891 36:-1.072845 37:0.420939 38:2.061625 39:-0.014286 40:0.229228 41:0.092672 42:0.408774 43:0.665926 44:-0.700934 45:0.658471 46:0.729118 47:0.334345 48:-0.136160 49:-1.125193 50:0.753868 51:0.950212 52:-0.148754 53:0.263375 54:-0.694560 55:1.028606 56:0.120471 57:-0.592281 58:0.172459 59:2.606993 60:1.484765
-1 1:1.287883 2:-0.251844 3:1.252059 4:0.999384 5:0.525568 6:-1.389313 7:2.519202 8:-2.645763 9:-1.406764 10:-1.695377 11:-1.576833 12:0.436570 13:0.191292 14:0.716283 15:0.488360 16:1.343508 17:-1.626130 18:-0.390139 19:0.019589 20:1.195894 21:0.154969 22:1.394572 23:1.461838 24:1.169485 25:0.382495 26:-0.995984 27:0.625537 28:-1.266868 29:1.143797 30:-0.247938 31:-0.501990 32:0.408107 33:-0.391689 34:-0.126842 35:-0.268165 36:1.875812 37:0.569866 38:-0.594917 39:-0.302142 40:0.876453 41:-0.678715 42:-0.255041 43:-0.384310 44:-1.139858 45:0.273008 46:0.637258 47:0.096847 48:0.632261 49:-0.666765 50:-0.504795 51:-0.244300 52:1.861011 53:-0.213085 54:0.034881 55:1.956765 56:-0.476050 57:1.406275 58:0.285976 59:-2.767842 60:1.574152
-1 1:-2.015432 2:0.170469 3:0.981089 4:-1.152731 5:1.115239 6:0.222564 7:-0.192151 8:-1.866884 9:-2.003294 10:-1.137695 11:-1.100117 12:1.580212 13:0.704674 14:0.235008 15:-0.319309 16:1.399714 17:0.183070 18:0.556146 19:-0.049993 20:-1.744170 21:0.379851 22:0.491784 23:0.918427 24:-0.019490 25:0.444357 26:-1.728147 27:0.205925 28:1.253754 29:0.645646 30:1.345981 31:-0.728703 32:0.106261 33:-0.818315 34:1.887442 35:-0.237038 36:-0.417794 37:-0.096883 38:1.183356 39:-0.832993 40:0.335243 41:-0.445469 42:1.167720 43:0.585006 44:0.101151 45:0.043683 46:0.421092 47:1.386217 48:0.521814 49:1.582620 50:0.533720 51:-0.073938 52:0.916513 53:0.210042 54:2.664887 55:-0.301172 56:0.415571 57:0.875515 58:-0.684121 59:1.366110 60:1.484021
-1 1:-1.144014 2:0.583541 3:-0.843267 4:-0.117226 5:1.435037 6:0.856972 7:-0.456199 8:-2.156495 9:0.491012 10:-0.749533 11:0.188689 12:0.469743 13:0.162907 14:-0.234884 15:0.762510 16:0.386587 17:0.893562 18:-2.565189 19:0.924279 20:0.525004 21:0.403031 22:0.063921 23:1.301133 24:-0.206646 25:0.143309 26:0.544316 27:1.045480 28:-0.820830 29:0.250539 30:-1.192952 31:-0.853106 32:-1.358345 33:2.629979 34:0.215980 35:1.350680 36:-0.672935 37:-0.105676 38:-0.388341 39:0.080937 40:0.825282 41:-0.141488 42:-0.187300 43:-2.144619 44:1.558606 45:-0.783129 46:0.518357 47:0.911178 48:-0.447703 49:0.759960 50:1.022267 51:1.074249 52:0.270350 53:-0.586439 54:1.349879 55:1.347739 56:-1.077986 57:-1.255081 58:-0.349724 59:0.048785 60:-0.818236
-1 1:-0.199314 2:1.803466 3:-0.201401 4:0.506673 5:-3.241678 6:0.023801 7:0.911396 8:1.320662 9:0.975559 10:1.191295 11:-0.156207 12:-1.847705 13:1.559596 14:0.208935 15:0.488780 16:1.743805 17:-0.502579 18:-1.601357 19:-0.274995 20:0.046368 21:0.510514 22:-0.028989 23:-1.271439 24:1.070527 25:1.293651 26:-1.072546 27:-0.524928 28:1.273144 29:-1.743663 30:1.352551 31:1.289486 32:0.147535 33:-1.633876 34:0.102680 35:-0.396549 36:1.280158 37:-0.493024 38:1.430017 39:-1.017317 40:-0.958227 41:-1.151419 42:1.738938 43:-1.043507 44:1.237617 45:0.501733 46:0.664396 47:-1.162276 48:-1.270716 49:-0.894208 50:1.268804 51:0.640311 52:0.216033 53:-1.406179 54:1.582987 55:0.089127 56:-0.109691 57:0.582874 58:-1.314044 59:-0.000260 60:-0.422842
-1 1:1.699061 2:0.832136 3:0.142603 4:-0.856908 5:-2.177207 6:0.354156 7:1.597430 8:-0.472750 9:1.037980 10:-0.121671 11:-1.447210 12:0.445540 13:1.054832 14:1.696342 15:-0.625359 16:-0.786578 17:0.411498 18:-0.318687 19:-0.457928 20:-1.282658 21:0.380689 22:-0.131217 23:-0.260066 24:1.996724 25:-1.542824 26:-0.096562 27:-0.400379 28:-0.683005 29:-0.131929 30:-1.206512 31:0.328982 32:0.609953 33:0.624445 34:1.289168 35:-0.191077 36:-0.590914 37:-0.003747 38:1.877916 39:-2.167601 40:0.874749 41:-0.179355 42:-0.352250 43:0.131448 44:-0.038384 45:-2.317655 46:-0.865511 47:-1.355015 48:1.763750 49:-0.401974 50:1.504732 51:1.464916 52:-1.409515 53:1.193594 54:1.768058 55:0.476271 56:0.471442 57:-1.149914 58:0.892173 59:0.053945 60:0.316879
-1 1:-0.916430 2:0.123230 3:-1.499276 4:1.769483 5:-0.737447 6:-2.797410 7:-2.160582 8:0.046200 9:0.651811 10:-1.284799 11:1.560630 12:0.517399 13:1.857085 14:-0.292433 15:0.735457 16:0.180565 17:0.328486 18:-0.336744 19:-0.525962 20:1.511275 21:0.959841 22:-0.448762 23:-0.115781 24:1.193702 25:-2.425581 26:-0.123308 27:-1.208375 28:0.519671 29:-0.552182 30:-0.250461 31:-0.213668 32:-0.602995 33:-0.314859 34:0.745664 35:1.699983 36:-0.017785 37:0.639105 38:-0.770547 39:0.166015 40:-1.245239 41:0.639082 42:-0.059482 43:-0.614588 44:0.978215 45:-0.686157 46:0.351434 47:0.624137 48:-0.238033 49:0.139803 50:-0.142317 51:0.251302 52:-0.200620 53:0.244500 54:-1.203589 55:1.593231 56:-0.086177 57:0.494961 58:-0.864972 59:1.752204 60:-1.137159
-1 1:-0.303444 2:1.393951 3:0.985684 4:0.483285 5:-1.452441 6:0.697992 7:0.491284 8:-0.063935 9:-1.452070 10:0.152277 11:2.442028 12:-0.650248 13:0.123832 14:0.945970 15:0.388868 16:-0.871778 17:0.853101 18:-2.258970 19:0.651211 20:0.228079 21:0.156220 22:0.155480 23:-1.099667 24:0.444936 25:-0.079617 26:-0.519121 27:-0.248070 28:-1.276452 29:-1.054176 30:0.202265 31:-1.006113 32:-0.221670 33:-0.887773 34:0.783976 35:-0.354549 36:-0.156259 37:1.075853 38:-0.024104 39:-0.700124 40:-0.841185 41:0.878644 42:-1.542676 43:1.866692 44:-0.694900 45:-0.452981 46:-0.421104 47:0.318447 48:-1.656001 49:0.376703 50:-1.465349 51:-0.144019 52:1.360546 53:0.155400 54:-0.661931 55:-0.039689 56:1.830672 57:0.113887 58:0.224918 59:0.510213 60:-1.393596
-1 1:-0.226137 2:0.212768 3:-0.020458 4:-1.863966 5:-0.098724 6:0.955455 7:-0.500835 8:-0.157281 9:-1.447432 10:-1.721026 11:0.795598 12:0.437578 13:2.142962 14:1.632678 15:-0.097217 16:1.014324 17:-0.023358 18:0.732772 19:1.832679 20:1.223457 21:-2.206852 22:-1.271190 23:-0.728619 24:-1.200092 25:-1.044250 26:2.247972 27:0.358450 28:-0.063130 29:-0.923103 30:1.479723 31:-0.181381 32:-0.829857 33:-0.036197 34:0.195508 35:-0.198442 36:-0.361314 37:-1.454051 38:1.326414 39:0.926579 40:1.785195 41:-1.433451 42:0.116485 43:-0.882280 44:-0.584368 45:0.277509 46:1.348273 47:-0.566201 48:-1.270199 49:0.663066 50:0.905016 51:-1.664166 52:0.084423 53:0.125187 54:0.230332 55:-0.840060 56:0.017021 57:1.090024 58:0.355051 59:1.092651 60:0.512177
-1 1:-0.350491 2:-0.856499 3:0.605789 4:-0.331820 5:0.511694 6:0.100052 7:-1.396169 8:-0.617876 9:-0.770498 10:-0.096743 11:-0.047076 12:1.674608 13:0.641804 14:-0.719319 15:0.242863 16:0.266205 17:1.380743 18:0.015521 19:0.072727 20:-0.196848 21:-0.988818 22:1.720467 23:-0.612524 24:-1.474544 25:-0.173971 26:0.080263 27:0.507073 28:-1.876522 29:0.303579 30:-0.692030 31:-1.213942 32:-0.329018 33:0.009446 34:0.021994 35:1.932246 36:1.526761 37:0.562999 38:-0.777096 39:0.328911 40:1.289134 41:-0.163252 42:0.904015 43:-0.484877 44:-1.085654 45:0.159496 46:0.802078 47:-1.180196 48:-2.000003 49:0.130891 50:-0.964210 51:-1.013832 52:0.212968 53:-0.549951 54:0.193427 55:-0.585262 56:-0.494248 57:0.128533 58:0.430219 59:-0.191245 60:0.520213
-1 1:0.573219 2:0.405915 3:0.558364 4:-3.033776 5:-0.685484 6:-0.831265 7:-0.148813 8:0.882049 9:-0.386028 10:0.944914 11:-1.094510 12:-1.931341 13:-0.213800 14:1.588526 15:-0.374773 16:-0.522691 17:0.576293 18:0.617212 19:-2.581458 20:-1.171606 21:0.522788 22:0.966952 23:2.241850 24:-0.900702 25:0.610235 26:-0.491521 27:2.613148 28:0.208154 29:-0.269542 30:-1.330059 31:-1.094787 32:-2.084077 33:-0.214787 34:1.117329 35:2.281386 36:0.203136 37:2.177303 38:-0.681573 39:0.269472 40:-0.610775 41:1.431904 42:0.474546 43:0.217087 44:0.796469 45:-0.055052 46:-0.829314 47:-0.054934 48:-0.295154 49:0.999368 50:-0.936247 51:1.585738 52:0.409665 53:0.468012 54:-0.667437 55:1.385848 56:-0.289989 57:-0.275534 58:0.805172 59:-0.575276 60:-1.070652
-1 1:-1.366249 2:-1.731672 3:1.221969 4:-0.916237 5:0.284667 6:-0.042021 7:0.279349 8:-0.755681 9:0.337087 10:1.492715 11:0.321264 12:-2.165300 13:1.598113 14:-0.579313 15:0.905284 16:-0.711702 17:0.232310 18:0.165095 19:-0.564678 20:0.863844 21:0.891795 22:0.163893 23:-2.392567 24:0.429240 25:1.599679 26:-2.008981 27:-0.217164 28:-1.340734 29:-0.334291 30:-2.271641 31:0.785071 32:0.482572 33:1.583057 34:0.680161 35:0.257751 36:-1.244187 37:0.057333 38:-0.840331 39:-0.667519 40:-0.001639 41:-1.134928 42:-0.253421 43:0.169481 44:0.280633 45:0.076970 46:2.241308 47:0.521766 48:1.410198 49:-1.154158 50:0.459371 51:-0.535336 52:-1.561788 53:0.150390 54:1.000543 55:1.420915 56:0.547654 57:0.490376 58:-0.672161 59:0.327754 60:0.242479
-1 1:-0.304561 2:-0.224415 3:0.320910 4:-2.161719 5:-0.398604 6:-0.637639 7:2.076768 8:-1.626275 9:-0.679126 10:-0.076772 11:0.301664 12:-0.524914 13:1.220089 14:0.852287 15:0.732887 16:0.419214 17:0.512268 18:1.447143 19:1.022954 20:0.987730 21:0.475058 22:-0.757236 23:-1.092046 24:-0.693532 25:-0.838810 26:0.180473 27:-1.661651 28:0.222454 29:0.283444 30:0.088999 31:-0.690770 32:-0.859379 33:0.787138 34:0.382392 35:0.965323 36:0.563462 37:-0.559824 38:0.147216 39:0.304178 40:0.262148 41:0.277747 42:-0.287512 43:-0.268905 44:1.105873 45:-0.144170 46:-1.440770 47:-0.184934 48:1.777529 49:1.025028 50:0.334817 51:0.646047 52:-0.838117 53:-1.201346 54:1.311128 55:0.982724 56:-0.550261 57:-1.101504 58:0.070535 59:0.180879 60:1.590927
-1 1:1.276195 2:0.205107 3:-0.720803 4:-0.444253 5:-1.926114 6:-0.620163 7:-0.170798 8:0.029305 9:2.197964 10:-1.690426 11:0.037343 12:-0.431861 13:0.699253 14:-0.636702 15:0.641411 16:-0.574244 17:-0.518923 18:-1.223664 19:-1.023169 20:0.127165 21:-0.190388 22:-1.331885 23:-0.388535 24:0.148001 25:0.129441 26:-0.871613 27:-1.361799 28:0.234478 29:0.801735 30:-0.200942 31:0.668158 32:0.496299 33:-0.082876 34:0.073799 35:0.415360 36:-0.719926 37:2.457678 38:0.202574 39:0.979973 40:-0.189044 41:-1.430334 42:0.352973 43:0.584776 44:-0.995437 45:-1.260066 46:0.113879 47:-2.020098 48:-2.412644 49:0.098009 50:-0.066136 51:0.088328 52:1.650549 53:1.360435 54:-1.291393 55:0.062033 56:1.057729 57:-0.004078 58:-0.467770 59:0.380616 60:-0.826481
-1 1:-0.514334 2:2.427191 3:2.359607 4:0.652504 5:-0.369763 6:0.698483 7:-0.378194 8:0.415024 9:0.047878 10:-0.084221 11:-0.178079 12:-0.303480 13:0.362311 14:0.761663 15:0.563338 16:-0.313617 17:-0.615024 18:-0.073565 19:-1.471866 20:0.432916 21:-1.148628 22:1.106575 23:1.050264 24:0.726601 25:-1.415799 26:-0.712887 27:0.394787 28:-0.839316 29:0.154671 30:1.956290 31:0.535141 32:-0.225572 33:0.970278 34:-0.831981 35:0.709507 36:0.016320 37:0.244030 38:-2.066973 39:-1.303922 40:-0.893220 41:-0.168336 42:0.607940 43:-0.871253 44:-0.794582 45:0.059175 46:1.219471 47:-0.192128 48:0.032519 49:0.666119 50:1.401135 51:1.255594 52:-1.302306 53:1.220360 54:1.148546 55:-0.908759 56:-0.886109 57:-0.059659 58:-1.701570 59:-1.106291 60:-1.571873
-1 1:1.447330 2:-0.463553 3:-0.372275 4:-0.741793 5:-2.244115 6:-0.259448 7:0.147208 8:-1.073918 9:-0.542205 10:0.686570 11:0.402631 12:-0.923030 13:0.670535 14:-1.236234 15:-1.076339 16:1.196819 17:0.464027 18:-1.936752 19:-1.861838 20:-0.541508 21:0.495383 22:0.667847 23:0.105563 24:0.380145 25:-1.261628 26:-0.941232 27:1.175932 28:0.761035 29:0.798671 30:-1.078502 31:-0.575370 32:-0.287392 33:1.008901 34:1.360368 35:0.083167 36:-0.774661 37:0.806978 38:0.015320 39:1.828728 40:0.769554 41:-1.398142 42:0.692692 43:-1.396236 44:1.064329 45:0.425485 46:0.164001 47:-1.628462 48:-0.436093 49:-0.035555 50:-1.395883 51:1.128341 52:-0.940698 53:1.631081 54:0.324264 55:0.161357 56:0.457991 57:0.951846 58:0.389656 59:0.232392 60:0.838280
-1 1:-0.168226 2:-1.382946 3:-0.357584 4:0.293865 5:-0.066808 6:-0.240951 7:-1.024841 8:1.477226 9:-1.440335 10:-0.083417 11:0.534868 12:-1.580174 13:-0.415613 14:-0.859349 15:0.801046 16:-0.172032 17:0.042766 18:-0.628678 19:-0.508422 20:1.648063 21:-0.316998 22:0.466589 23:-1.153257 24:0.064864 25:0.485352 26:-1.233554 27:0.676923 28:-0.555440 29:-0.142038 30:-0.550096 31:-0.808535 32:1.661967 33:-0.498947 34:0.285368 35:-0.615841 36:0.171370 37:1.600389 38:-1.534740 39:1.580310 40:-1.758521 41:0.144339 42:1.832595 43:-0.971395 44:0.026884 45:1.579949 46:-0.303934 47:0.602332 48:-0.074163 49:1.035409 50:-0.368398 51:-0.217233 52:0.527998 53:1.812457 54:0.457822 55:-0.813348 56:0.183941 57:-1.159349 58:0.326780 59:2.159690 60:-0.527798
-1 1:-0.358181 2:-1.032233 3:-2.604556 4:-0.369661 5:0.368154 6:-0.252518 7:1.285568 8:-0.009330 9:0.140521 10:0.693554 11:-1.494191 12:-2.580898 13:0.305163 14:0.427317 15:1.550087 16:1.251956 17:-0.363050 18:1.668531 19:-0.713958 20:-0.360088 21:0.402153 22:-0.081046 23:-1.765411 24:-0.205874 25:-0.754524 26:-1.095765 27:0.653576 28:-0.485417 29:-0.553834 30:2.060526 31:-0.156432 32:0.451506 33:2.545376 34:-0.252294 35:1.131670 36:-1.285718 37:-0.631514 38:1.160635 39:-0.320460 40:0.555197 41:0.929623 42:0.174291 43:0.045845 44:0.321675 45:-0.778217 46:-0.377717 47:0.200039 48:-0.063593 49:2.789902 50:0.665549 51:-0.632057 52:0.578130 53:-2.300967 54:-0.128411 55:-0.581294 56:-1.687328 57:-0.183014 58:-1.796644 59:-1.017431 60:-3.300084
-1 1:-0.356558 2:-1.477391 3:0.914979 4:-0.447354 5:-0.629185 6:0.692597 7:0.435576 8:-0.692681 9:-2.082971 10:0.870308 11:-1.202076 12:-0.713258 13:-0.756049 14:-0.091694 15:-0.663904 16:-0.282666 17:-0.322560 18:-1.340443 19:-0.857493 20:-1.778322 21:0.467516 22:0.977508 23:0.550051 24:-0.838498 25:-0.715906 26:-1.244020 27:-0.577492 28:-1.197230 29:-0.380576 30:0.221840 31:-0.452833 32:-0.361579 33:-0.216349 34:-0.082158 35:0.798804 36:0.728610 37:-0.089963 38:-0.008789 39:0.032185 40:-1.636079 41:0.181561 42:-1.219679 43:-0.747955 44:-1.223603 45:0.070947 46:-0.790105 47:0.070655 48:0.093074 49:-0.072819 50:-2.051178 51:-0.352177 52:-0.146939 53:-0.604575 54:-0.321619 55:-0.506539 56:-0.204527 57:-0.143588 58:-0.001067 59:-0.159336 60:-0.095370
-1 1:-0.955308 2:1.498184 3:-0.357904 4:-0.017603 5:1.210258 6:2.188388 7:0.203705 8:0.078139 9:0.282063 10:-0.334815 11:0.053979 12:0.662202 13:0.662647 14:-1.622027 15:-0.703668 16:0.766443 17:0.276661 18:-1.200335 19:0.476363 20:0.627993 21:-1.683810 22:1.660248 23:-0.872333 24:-1.224653 25:-1.827661 26:-0.444005 27:0.051898 28:-0.158240 29:0.916814 30:-1.461552 31:-0.094723 32:-0.028375 33:-1.116788 34:1.099170 35:0.274264 36:-0.854388 37:-0.958770 38:-2.105140 39:-0.463385 40:2.433944 41:0.764583 42:-0.964721 43:-0.434407 44:-0.638041 45:1.302886 46:0.870808 47:-0.171376 48:-0.960281 49:-1.435052 50:0.058429 51:0.445546 52:0.202339 53:-0.762301 54:0.120299 55:-0.583098 56:0.166129 57:0.017991 58:-0.073828 59:0.578438 60:-1.223385
-1 1:-0.432482 2:0.364324 3:-1.974615 4:0.278104 5:0.391443 6:-1.387706 7:-0.234345 8:-0.472060 9:1.091282 10:-0.265291 11:-1.468961 12:1.062530 13:-1.635672 14:0.572755 15:-0.206657 16:-1.241653 17:-0.780879 18:-0.775368 19:-0.657269 20:0.454531 21:-0.470458 22:0.507625 23:0.194800 24:-0.775557 25:0.793168 26:0.344058 27:-0.245114 28:0.948069 29:0.857629 30:-1.199627 31:-0.593224 32:-1.105611 33:-0.289510 34:-0.096099 35:-1.460153 36:0.077425 37:0.938532 38:-2.281382 39:1.357897 40:0.017044 41:0.592839 42:1.349130 43:0.907372 44:-1.745011 45:-1.129685 46:-0.819434 47:-0.209484 48:-1.280809 49:0.716450 50:1.020103 51:0.572289 52:-0.418866 53:-0.537505 54:-1.800153 55:-0.821282 56:-0.902356 57:1.770972 58:-1.705253 59:-0.429886 60:0.572700
-1 1:-1.018177 2:0.353421 3:0.758330 4:-1.858755 5:-1.570969 6:-0.624468 7:0.747492 8:0.988486 9:1.749597 10:-1.508061 11:-0.941378 12:-0.052733 13:1.030556 14:0.394287 15:-1.288408 16:0.248741 17:0.024134 18:1.765785 19:0.184095 20:-0.053929 21:-0.110381 22:-0.243602 23:0.349475 24:0.015038 25:-0.888801 26:1.219358 27:-0.335486 28:-0.889279 29:-2.210197 30:1.555706 31:1.481052 32:1.113348 33:-1.058918 34:-0.091683 35:1.498456 36:1.253650 37:-0.179501 38:-0.012486 39:0.659437 40:-0.479914 41:-0.916608 42:0.042879 43:-0.171110 44:-0.932150 45:0.499218 46:-0.643018 47:0.196451 48:0.813933 49:0.665806 50:-0.690687 51:-0.007145 52:0.625217 53:-1.154767 54:0.462331 55:0.431221 56:1.582339 57:1.091497 58:-1.668059 59:0.329913 60:0.832859
-1 1:1.276694 2:1.276261 3:0.292224 4:1.648422 5:1.265229 6:0.342981 7:-0.345194 8:0.715158 9:-0.759380 10:-0.627095 11:0.611131 12:-0.455373 13:1.895467 14:-0.607400 15:-0.433605 16:1.055297 17:0.109915 18:-0.179249 19:-0.984027 20:0.208284 21:-2.026664 22:-0.594676 23:-0.620923 24:-0.898705 25:-1.574823 26:0.037987 27:-1.107531 28:-0.200768 29:-1.327701 30:0.981663 31:1.635241 32:0.898451 33:-0.437583 34:-0.330404 35:0.008667 36:0.670461 37:0.912179 38:0.865847 39:1.253020 40:-1.772743 41:-1.051044 42:0.624410 43:-1.343995 44:-0.984461 45:-1.042952 46:-0.522568 47:1.288736 48:-0.712570 49:-0.035766 50:0.245061 51:0.772530 52:1.326907 53:-1.659891 54:-0.364280 55:0.055813 56:0.232101 57:1.494200 58:0.047176 59:1.028668 60:-0.571678
-1 1:-0.394292 2:0.352915 3:0.678290 4:-1.539195 5:-0.561217 6:-1.222441 7:0.538549 8:0.087762 9:-0.961449 10:0.094470 11:-0.427923 12:0.538417 13:1.101063 14:-0.335996 15:-0.574906 16:-0.567098 17:-0.255202 18:0.856778 19:-1.759909 20:-0.755847 21:-0.298049 22:2.319091 23:-1.304843 24:-0.091513 25:-1.110186 26:-1.016329 27:1.113421 28:0.411891 29:-0.607084 30:-1.060194 31:-0.521090 32:0.052160 33:1.912937 34:-2.481472 35:-0.889024 36:1.520982 37:-1.468487 38:-1.560586 39:0.610659 40:0.698395 41:0.540334 42:0.817081 43:-1.502423 44:-0.782938 45:-0.083640 46:0.308883 47:-0.789798 48:-0.349566 49:1.124845 50:1.345965 51:0.013736 52:0.444115 53:1.905492 54:1.006659 55:1.242976 56:0.417110 57:0.088561 58:-1.166702 59:1.088450 60:0.603816
-1 1:1.586299 2:-0.464042 3:-1.179985 4:-1.559007 5:-0.961816 6:0.712131 7:0.424814 8:-1.081661 9:-0.903363 10:-0.432825 11:-0.323505 12:1.675710 13:-0.450915 14:-0.658688 15:0.504020 16:2.229604 17:-0.209539 18:-0.163872 19:-1.120953 20:0.639904 21:-0.205286 22:-1.475981 23:1.165546 24:-1.225053 25:-0.603744 26:-0.195029 27:0.716581 28:-0.815731 29:-1.887497 30:-0.788414 31:-0.308042 32:-1.225046 33:-0.259935 34:-0.202077 35:-0.475316 36:0.402900 37:-0.321461 38:-0.217678 39:-0.588135 40:-0.464343 41:0.527503 42:1.491144 43:0.399561 44:0.002524 45:-0.953424 46:0.383817 47:-0.756125 48:-1.728726 49:-0.575398 50:0.109674 51:-0.860325 52:1.655303 53:-0.806120 54:-0.447716 55:-1.213421 56:1.160017 57:-0.487588 58:-1.398285 59:0.433849 60:0.161702
-1 1:-0.256608 2:0.157416 3:-0.914580 4:-0.080044 5:-0.280336 6:0.278964 7:0.446655 8:0.369420 9:-0.073525 10:0.283825 11:2.421256 12:-0.870485 13:-0.936335 14:2.165016 15:0.664665 16:-1.550191 17:-0.398682 18:0.964230 19:1.355569 20:-2.505914 21:0.363125 22:-0.821802 23:-0.351843 24:-0.699535 25:-0.511934 26:0.671678 27:-1.027948 28:-1.771340 29:1.725164 30:-0.258987 31:1.635732 32:-0.077948 33:-0.295293 34:1.039396 35:-0.199448 36:1.476516 37:0.544647 38:-0.292125 39:-0.878559 40:-1.047314 41:-2.991146 42:0.824840 43:1.153694 44:0.202434 45:0.074030 46:0.427849 47:0.133516 48:-2.050625 49:-0.272275 50:-0.550630 51:-0.333276 52:0.668232 53:-0.615175 54:0.164360 55:-1.372545 56:-0.151891 57:-0.347895 58:0.038170 59:0.308443 60:-1.341443
-1 1:-0.227585 2:1.180598 3:-0.400209 4:-0.718119 5:0.996983 6:-0.137622 7:-1.115024 8:-0.304578 9:-1.510417 10:-0.622022 11:0.427402 12:1.352322 13:-0.008943 14:0.628136 15:-0.967392 16:-0.869022 17:2.087303 18:-0.221876 19:-1.650340 20:-1.427637 21:-0.040814 22:0.785762 23:-0.953927 24:0.757802 25:0.038776 26:-1.079978 27:-0.075282 28:-1.095098 29:-1.715393 30:0.423979 31:-0.623362 32:0.824797 33:0.795704 34:0.883365 35:0.426457 36:0.745503 37:-0.056823 38:-0.175445 39:-0.486447 40:0.848615 41:0.339501 42:1.238532 43:-0.233382 44:-0.398295 45:0.556893 46:-0.658287 47:-0.414796 48:0.957372 49:0.065068 50:-0.956838 51:0.270147 52:-0.851263 53:-1.145482 54:-0.615957 55:-0.890215 56:-0.278689 57:-0.544007 58:1.475532 59:-0.981246 60:-1.335039
-1 1:0.276559 2:-0.616503 3:0.756268 4:0.306721 5:1.078716 6:0.695476 7:0.480832 8:0.447149 9:0.905600 10:0.015021 11:-1.220989 12:-0.023149 13:0.519999 14:1.335785 15:-0.691282 16:-0.563570 17:0.841991 18:0.960276 19:-0.258314 20:-1.061034 21:-1.166578 22:0.221592 23:0.507831 24:-1.126849 25:-2.470411 26:-0.926519 27:-0.809941 28:0.038808 29:0.827501 30:0.018920 31:-2.194385 32:-1.011908 33:-0.106851 34:0.543342 35:-0.504997 36:-0.154157 37:0.716803 38:-0.392258 39:0.259478 40:0.035898 41:0.459426 42:-0.302549 43:-1.703009 44:-0.858207 45:0.015747 46:-0.166484 47:0.519490 48:-1.472725 49:0.117703 50:-0.876494 51:1.055412 52:-0.215779 53:-0.095488 54:-1.299960 55:2.219320 56:-0.000219 57:-0.329266 58:-1.478639 59:0.591995 60:1.260547
-1 1:0.272305 2:-1.614977 3:-0.474109 4:-2.433834 5:-0.264588 6:-0.750811 7:0.884066 8:0.122375 9:-0.844191 10:-0.361746 11:-0.001288 12:0.232587 13:-0.017353 14:-0.533847 15:-0.143400 16:-1.088347 17:0.204711 18:1.260335 19:0.417742 20:0.052726 21:-0.209160 22:1.879131 23:-1.224518 24:1.066818 25:1.035313 26:-0.942455 27:1.436141 28:0.381135 29:0.446169 30:0.318505 31:0.248986 32:0.394886 33:-0.459355 34:-0.583672 35:-0.103489 36:1.674800 37:-0.715624 38:-1.608677 39:-1.141528 40:-2.255945 41:-1.067665 42:-2.427596 43:-1.672296 44:-1.787634 45:-0.946709 46:0.867551 47:-2.098293 48:0.501256 49:0.053291 50:0.817424 51:-0.385234 52:0.502027 53:-1.149200 54:1.621718 55:-0.040609 56:-1.716870 57:-0.787303 58:0.481266 59:1.861358 60:-0.441213
-1 1:0.837950 2:-1.420814 3:-2.159082 4:1.681833 5:1.689351 6:1.477165 7:-0.759687 8:-0.356313 9:-0.376243 10:1.089223 11:-1.056346 12:-1.296535 13:-1.824680 14:-0.639454 15:1.080329 16:0.359430 17:0.586134 18:-1.305759 19:-0.104337 20:0.845551 21:1.645860 22:0.494189 23:0.889697 24:1.055840 25:0.407190 26:-0.164196 27:-1.095302 28:0.536589 29:1.278703 30:0.582770 31:-0.576014 32:1.202818 33:-0.808128 34:-0.322053 35:-0.820339 36:2.637734 37:-1.226429 38:2.132179 39:-1.096666 40:-0.475495 41:0.204745 42:0.340862 43:0.280036 44:0.020220 45:0.222166 46:-1.614177 47:-0.509709 48:0.970561 49:-1.258568 50:0.578864 51:0.570558 52:-0.337630 53:1.419108 54:-0.164892 55:1.113819 56:0.690691 57:-0.440353 58:1.093165 59:-1.310803 60:0.407158
-1 1:-1.862889 2:-1.453738 3:0.861989 4:0.095735 5:-0.774394 6:1.889667 7:1.502657 8:2.087536 9:1.261145 10:-2.177020 11:0.074794 12:-0.887962 13:0.395200 14:-0.401475 15:1.271266 16:-1.400281 17:-0.022661 18:0.474510 19:0.369819 20:-0.658574 21:-0.385546 22:-0.103041 23:0.699771 24:-0.172871 25:0.427065 26:-0.227136 27:-0.547416 28:-0.435107 29:0.970923 30:1.889113 31:1.428597 32:1.077677 33:-1.025367 34:-0.123175 35:-0.107377 36:-0.360287 37:-1.142375 38:-0.739745 39:-0.399109 40:1.540673 41:0.182274 42:-0.617553 43:-0.621341 44:0.779664 45:-1.050930 46:1.592946 47:-1.177533 48:-1.669999 49:-0.937338 50:1.133801 51:0.311665 52:0.452442 53:-0.455711 54:0.286506 55:-0.396746 56:-0.571992 57:-0.824304 58:0.206302 59:0.154513 60:0.102182
-1 1:-0.613903 2:0.208415 3:1.029165 4:-1.414132 5:0.572976 6:0.718607 7:2.960279 8:1.087287 9:-0.250020 10:1.583032 11:0.274296 12:-0.000590 13:0.238007 14:-3.098700 15:-0.658574 16:0.355860 17:-1.568609 18:-1.317775 19:-0.342700 20:-0.190209 21:1.607776 22:1.772789 23:-0.447169 24:0.120933 25:-0.242004 26:-0.586144 27:-1.122389 28:-1.929375 29:0.318502 30:-1.646541 31:-0.131270 32:0.124251 33:0.666674 34:0.239871 35:1.175828 36:1.602779 37:-0.715755 38:-0.482911 39:1.424811 40:-0.448863 41:-0.002458 42:-0.289298 43:1.825855 44:1.064990 45:1.341932 46:0.263255 47:0.189355 48:1.175175 49:1.027688 50:0.755258 51:1.114325 52:-0.371258 53:-0.268666 54:-2.940512 55:0.660436 56:-0.208371 57:-0.830223 58:1.758944 59:0.463757 60:1.889124
-1 1:0.534754 2:-1.100683 3:0.579778 4:0.339440 5:0.812278 6:-0.073493 7:-0.297434 8:0.627964 9:0.035581 10:-0.117739 11:0.051876 12:0.753353 13:0.941051 14:1.440963 15:0.773419 16:0.361597 17:-1.916557 18:-1.361189 19:-1.349130 20:0.574103 21:-0.347978 22:-0.222720 23:1.754628 24:-0.165417 25:0.336860 26:-2.478827 27:-2.114761 28:-0.406915 29:0.482972 30:0.210398 31:-0.131029 32:-0.235845 33:-0.062262 34:0.864151 35:-0.854562 36:-0.222396 37:-0.397307 38:0.427919 39:0.406608 40:0.403176 41:1.297270 42:-1.714715 43:-0.011550 44:1.677624 45:-0.462811 46:-0.536138 47:-0.499211 48:0.944873 49:-0.040427 50:0.071746 51:-0.257785 52:0.983920 53:-0.319100 54:-1.694484 55:-0.235093 56:-0.109761 57:-0.266689 58:1.536393 59:0.201590 60:-0.037264
-1 1:-2.414414 2:0.402505 3:0.271174 4:-2.220280 5:-0.703848 6:0.096398 7:-0.263540 8:1.072234 9:-0.121248 10:0.481788 11:0.630044 12:0.395619 13:-0.773159 14:-0.559583 15:2.014982 16:-0.952543 17:-1.310569 18:0.958797 19:-0.740014 20:0.425743 21:-0.483117 22:-0.252018 23:-1.600192 24:-2.072863 25:1.383927 26:-0.215337 27:0.475940 28:-2.352235 29:0.015072 30:0.132791 31:1.302877 32:0.193476 33:0.234486 34:0.527868 35:-0.031881 36:0.166736 37:2.066410 38:0.804487 39:0.481112 40:0.502807 41:1.271899 42:0.222416 43:0.181125 44:-0.633479 45:0.387923 46:0.456244 47:1.237366 48:0.092200 49:-0.415803 50:0.551256 51:0.967333 52:0.466308 53:-1.984289 54:0.759839 55:1.574410 56:0.937054 57:0.036822 58:1.322831 59:-0.873076 60:0.401190
-1 1:-0.076241 2:1.318778 3:-2.042036 4:-1.595879 5:-0.348764 6:-0.936445 7:-0.225201 8:1.437009 9:-1.290036 10:0.173783 11:-0.082305 12:0.833155 13:0.284363 14:-0.565801 15:-0.202157 16:0.515800 17:0.583768 18:-1.385485 19:1.284445 20:-0.152306 21:1.940067 22:-0.644992 23:0.210895 24:1.243433 25:-0.794595 26:1.391263 27:-0.785688 28:0.027421 29:-0.128976 30:-2.559301 31:0.412577 32:1.554752 33:0.574640 34:-1.131331 35:-0.004228 36:0.416587 37:0.396961 38:0.393223 39:0.817448 40:0.536075 41:-0.586544 42:1.135234 43:0.446488 44:0.258398 45:0.472692 46:-1.051683 47:0.455789 48:0.187679 49:-0.085072 50:0.476507 51:0.488585 52:1.544513 53:0.669536 54:-0.331697 55:-0.266766 56:0.322055 57:-0.262824 58:-0.459820 59:1.038642 60:0.084489
-1 1:-1.191602 2:-0.836640 3:-0.059672 4:0.164190 5:-0.291598 6:1.726889 7:2.521988 8:-0.660501 9:1.303194 10:0.865875 11:1.706638 12:0.061022 13:-1.494106 14:0.983004 15:-0.497932 16:-1.283704 17:-0.351508 18:-1.534839 19:-1.039788 20:1.135346 21:1.200185 22:-0.430890 23:0.461659 24:0.330009 25:0.174579 26:0.108290 27:-0.927874 28:0.682822 29:-0.774984 30:0.491137 31:-0.249338 32:0.217655 33:-1.173361 34:1.149022 35:-0.588070 36:0.460345 37:-0.492447 38:0.310887 39:-0.694979 40:-0.422316 41:-3.071013 42:-0.102160 43:1.371632 44:-0.392931 45:1.166711 46:-0.459718 47:-0.675701 48:1.102579 49:0.143560 50:0.450845 51:-0.516725 52:0.134124 53:-0.724616 54:0.785919 55:2.479472 56:-0.064871 57:0.885087 58:-1.388986 59:0.538801 60:-0.949792
-1 1:-0.002516 2:1.950372 3:-0.724776 4:-0.887934 5:0.872730 6:-0.826184 7:0.349238 8:-1.191962 9:0.834859 10:1.145124 11:0.421337 12:1.774299 13:0.385713 14:-0.575366 15:-0.500169 16:0.251986 17:-0.681299 18:0.549146 19:-0.719196 20:-1.084049 21:1.022498 22:0.756880 23:1.808498 24:-0.172966 25:0.404240 26:0.296793 27:-0.579314 28:-1.242967 29:-0.934513 30:-0.667310 31:-0.935860 32:0.214003 33:-1.238341 34:0.961755 35:-1.042312 36:-1.189392 37:0.784489 38:-0.058648 39:0.275876 40:1.562008 41:0.912398 42:-1.059095 43:0.683741 44:1.303098 45:0.671451 46:0.895717 47:-1.744101 48:-0.202694 49:-1.216025 50:-0.202813 51:-0.240775 52:1.808954 53:0.404110 54:1.077855 55:-1.138849 56:0.639412 57:-1.102799 58:-0.725627 59:-0.498557 60:0.678857
-1 1:0.484461 2:1.102281 3:0.400234 4:-1.117333 5:1.168417 6:1.137010 7:0.146645 8:1.820842 9:1.108442 10:-0.436273 11:0.563898 12:-0.102420 13:-0.972090 14:1.250074 15:-0.611335 16:-0.134801 17:-2.112788 18:0.652154 19:-0.709500 20:-0.549322 21:0.316920 22:0.100552 23:0.236314 24:-0.508833 25:-0.450382 26:-0.044244 27:-1.013356 28:0.276800 29:-0.681300 30:-0.036800 31:0.324765 32:-1.488347 33:1.329924 34:-0.495415 35:-0.082241 36:-0.744727 37:-1.041269 38:-1.848579 39:-0.006818 40:-1.320760 41:-0.109068 42:2.167321 43:-1.291749 44:-0.793675 45:-0.200022 46:-0.193658 47:1.186951 48:0.373745 49:1.497859 50:-0.983792 51:-0.265736 52:-0.046604 53:-0.568749 54:0.057645 55:-0.064155 56:-0.102554 57:-0.741626 58:-0.282964 59:-1.179303 60:-0.490506
-1 1:-0.538129 2:0.912441 3:-0.083453 4:0.708827 5:0.017478 6:-0.762894 7:-1.265633 8:-0.102416 9:1.132681 10:-0.657391 11:-1.239996 12:0.478425 13:1.436149 14:0.203599 15:0.061660 16:0.429555 17:-0.214752 18:-1.887507 19:-0.092267 20:0.234996 21:-2.272533 22:-0.090458 23:0.150056 24:-0.063235 25:1.148308 26:-0.883785 27:0.904582 28:-0.386744 29:-0.368334 30:-1.382796 31:0.006213 32:0.327434 33:1.043978 34:-0.454429 35:-1.260654 36:-0.178899 37:0.014494 38:0.174906 39:-1.128536 40:-1.162766 41:-0.291161 42:1.843843 43:0.832589 44:-0.162109 45:-1.848180 46:0.150679 47:-1.486444 48:1.088592 49:0.734250 50:-1.462273 51:0.956784 52:1.051383 53:-0.699549 54:1.808227 55:0.007893 56:1.338717 57:1.711141 58:-1.413373 59:-0.701754 60:-0.030845
-1 1:-2.058293 2:-1.402991 3:-1.430207 4:1.091753 5:-0.730213 6:0.656957 7:0.011191 8:-0.288408 9:1.534877 10:2.219178 11:-1.758104 12:-0.374572 13:0.630903 14:1.109257 15:-1.207636 16:1.273117 17:0.847180 18:1.646375 19:0.703567 20:0.197803 21:0.677469 22:-0.497258 23:-2.164564 24:-0.764210 25:-1.037339 26:0.925411 27:1.007276 28:0.139082 29:-1.157094 30:0.477326 31:0.905821 32:-0.531569 33:2.341177 34:-0.713997 35:1.395058 36:-0.265214 37:0.257392 38:0.657032 39:-0.923029 40:-1.533865 41:-1.118849 42:0.272904 43:0.820628 44:1.570404 45:0.848173 46:0.514023 47:0.551902 48:0.272185 49:1.346668 50:-0.794273 51:-0.803468 52:-0.331598 53:-1.382775 54:-0.253520 55:0.383155 56:-0.062532 57:2.288821 58:-0.493264 59:-0.730257 60:-0.634899
-1 1:-0.852711 2:1.399477 3:1.169049 4:-0.416426 5:-1.726884 6:0.296498 7:-0.050410 8:0.173917 9:-1.379188 10:-2.140814 11:-0.594560 12:-0.714186 13:-1.195111 14:-0.538847 15:0.824633 16:1.005788 17:0.323154 18:-0.027807 19:0.714068 20:0.228997 21:0.584580 22:0.320224 23:-0.356234 24:-1.194222 25:1.047359 26:-0.069821 27:0.631595 28:-0.055496 29:0.575537 30:-0.705379 31:0.932564 32:0.479811 33:0.611010 34:-0.872297 35:1.418311 36:-0.347533 37:0.053806 38:-1.100223 39:0.022036 40:0.207559 41:-1.960725 42:1.839303 43:-0.386853 44:-0.064376 45:-1.148933 46:-0.141144 47:0.633363 48:0.434501 49:-0.390030 50:-0.832443 51:-0.120518 52:-0.050155 53:-1.052655 54:-1.458323 55:0.048025 56:-0.147175 57:0.546955 58:-0.526539 59:-0.682126 60:-0.153461
-1 1:-1.009124 2:-0.552416 3:0.146352 4:1.040157 5:-1.681245 6:1.251481 7:1.041221 8:-0.252786 9:-0.407091 10:-0.179709 11:-0.426755 12:0.338275 13:0.647484 14:-0.049307 15:-1.091561 16:-1.371815 17:1.050386 18:1.317424 19:-0.889725 20:0.829461 21:0.411506 22:0.228068 23:0.198454 24:1.477520 25:-0.564144 26:2.461276 27:1.435819 28:-0.707221 29:2.236275 30:0.808112 31:-2.103485 32:-1.511831 33:0.037462 34:0.996714 35:1.487240 36:0.221073 37:-0.618038 38:0.093083 39:0.494608 40:0.174079 41:-0.530626 42:2.210535 43:0.475795 44:-0.659298 45:-1.759831 46:0.586182 47:-0.562784 48:0.341385 49:0.082140 50:-0.195834 51:0.922568 52:-1.122777 53:0.901292 54:0.401056 55:0.182091 56:0.057167 57:-1.002475 58:-0.473793 59:-0.531365 60:0.120356
-1 1:0.215487 2:-2.308392 3:1.260959 4:3.718988 5:-0.369233 6:-0.294964 7:0.425099 8:-0.674719 9:-0.343478 10:0.480081 11:0.168739 12:0.146986 13:-1.116270 14:0.998242 15:1.233940 16:1.454105 17:0.538321 18:1.414665 19:-0.297620 20:1.503581 21:0.168429 22:0.781708 23:-0.646538 24:2.151518 25:-0.253016 26:-0.005826 27:0.550760 28:1.489337 29:-1.994993 30:-0.225695 31:0.939114 32:0.174746 33:0.187296 34:0.649523 35:-1.713595 36:0.950691 37:1.417263 38:-0.323693 39:-0.033026 40:-0.733939 41:-1.660857 42:-0.166104 43:-0.884653 44:2.243975 45:0.926315 46:-0.368446 47:0.510793 48:-0.156280 49:-0.028108 50:0.127284 51:-0.099310 52:-0.439230 53:-0.892533 54:0.472104 55:1.321785 56:0.196829 57:0.416246 58:-1.520753 59:1.000535 60:1.030446
-1 1:-0.081795 2:0.426002 3:-1.105164 4:-0.189886 5:0.449082 6:-0.492542 7:-0.484007 8:-1.855034 9:0.704997 10:-1.085154 11:-0.577374 12:-0.263562 13:0.973003 14:-0.735981 15:-0.226344 16:-0.876039 17:-1.215169 18:-0.047280 19:1.574295 20:-1.632194 21:0.715208 22:-0.437650 23:-1.090940 24:0.390841 25:-0.822074 26:-0.867366 27:-0.554702 28:-0.684086 29:-0.974205 30:-0.044946 31:2.212710 32:1.004864 33:-0.160601 34:0.267546 35:0.037422 36:-0.916244 37:0.624213 38:-0.571224 39:-0.576113 40:0.478972 41:-0.072072 42:-0.555271 43:-0.637398 44:0.130750 45:0.254703 46:1.701452 47:-0.420163 48:1.804252 49:-1.882540 50:-0.540931 51:0.914247 52:-0.267450 53:1.947148 54:0.687494 55:-1.217442 56:-0.086277 57:2.427970 58:0.241972 59:-0.975965 60:-0.591991
-1 1:-0.863806 2:-0.398913 3:0.961117 4:0.641919 5:0.253606 6:0.867577 7:-1.166683 8:0.475556 9:1.266551 10:-1.329058 11:-0.027629 12:0.746023 13:-0.099867 14:0.888256 15:-0.452003 16:1.050525 17:0.367543 18:-0.464692 19:0.102285 20:0.390552 21:-1.625829 22:0.380404 23:-0.944527 24:1.358649 25:0.791363 26:0.879553 27:1.104805 28:-0.536257 29:0.736976 30:1.469136 31:1.927205 32:-0.673942 33:1.652174 34:-0.040024 35:-0.699912 36:1.393694 37:-0.054185 38:0.498921 39:-1.261309 40:-0.583395 41:0.701455 42:0.306605 43:0.192319 44:1.078358 45:-0.503267 46:-0.878351 47:0.837000 48:-1.186821 49:-0.498281 50:0.367823 51:-1.790006 52:-0.484436 53:1.266752 54:-0.078905 55:0.878616 56:-0.411195 57:-0.683857 58:-1.189119 59:-0.269756 60:0.319065
-1 1:1.206864 2:-0.302094 3:0.312676 4:0.159027 5:0.962920 6:-0.849901 7:-0.314996 8:0.851460 9:0.009545 10:0.290076 11:-1.133688 12:-0.407656 13:0.636882 14:0.533263 15:1.055254 16:-0.984819 17:0.578845 18:0.867368 19:-1.628438 20:-0.118463 21:0.801444 22:-1.389893 23:1.573953 24:-1.517663 25:0.399843 26:0.182723 27:0.110997 28:-0.164900 29:-1.199502 30:0.161781 31:-0.567067 32:1.390554 33:-1.802804 34:-0.102331 35:0.007690 36:-0.302974 37:0.863629 38:-2.099141 39:1.133502 40:-1.536197 41:-1.237293 42:-0.466662 43:0.429205 44:-0.312413 45:-1.504739 46:1.696972 47:0.214120 48:0.630206 49:0.983815 50:-1.123065 51:0.211528 52:-0.834890 53:0.221566 54:-0.744991 55:0.840161 56:0.598676 57:0.778563 58:-1.231644 59:0.567441 60:-0.516142
-1 1:0.345464 2:-0.027245 3:-0.566484 4:0.445478 5:0.890507 6:-0.634052 7:-0.261093 8:0.810197 9:0.573858 10:-0.028359 11:-1.482203 12:-0.748901 13:0.292888 14:2.199962 15:-0.405553 16:-0.406792 17:-0.169486 18:-0.414395 19:0.554998 20:0.655197 21:0.203495 22:-2.398262 23:-0.340057 24:0.486268 25:-1.584496 26:-1.328721 27:1.068791 28:-0.251043 29:-1.022593 30:0.028535 31:-1.521944 32:0.512029 33:0.635585 34:-0.509679 35:-0.077727 36:0.713294 37:-0.253523 38:-0.365489 39:-0.166549 40:0.327912 41:-0.399104 42:0.241217 43:0.062269 44:-0.689887 45:-1.019168 46:0.171575 47:0.814812 48:1.211057 49:0.581891 50:0.574345 51:0.198889 52:-0.576508 53:-0.621415 54:-0.007313 55:-0.331321 56:-0.032283 57:-0.014029 58:0.285039 59:-2.191839 60:-0.515910
-1 1:-0.121701 2:-0.462278 3:-1.217464 4:0.919059 5:-0.613212 6:-1.860058 7:0.897406 8:-0.671527 9:-0.066926 10:0.644372 11:-1.268446 12:1.097381 13:-0.854062 14:-0.925442 15:-0.297004 16:-1.019561 17:1.026797 18:0.835144 19:0.743399 20:-0.522576 21:0.457470 22:0.818635 23:-0.169636 24:0.790220 25:-0.069102 26:0.345296 27:2.916165 28:2.474344 29:1.048135 30:0.479657 31:-0.281148 32:-0.048500 33:1.094756 34:-1.331093 35:-0.386105 36:-0.550755 37:-0.861792 38:-0.295108 39:1.923495 40:0.801451 41:0.845818 42:0.485962 43:0.344444 44:-1.045345 45:-0.151211 46:-0.182741 47:-0.095340 48:0.776799 49:1.231300 50:0.156213 51:-0.472134 52:0.279533 53:-0.238598 54:0.357002 55:0.348377 56:-0.088961 57:-0.522769 58:-0.418528 59:-0.110729 60:0.416925
-1 1:-0.494352 2:0.858584 3:-0.610070 4:-0.921460 5:1.593346 6:0.077343 7:0.931795 8:-1.200196 9:0.002258 10:-0.022708 11:0.250893 12:-1.202413 13:2.466872 14:0.917156 15:0.222959 16:0.129310 17:1.513224 18:0.816820 19:-0.108008 20:-1.690727 21:0.195072 22:-0.054717 23:-2.246548 24:1.365164 25:-0.965131 26:1.582955 27:-0.811767 28:1.350690 29:-1.524397 30:1.683501 31:-0.306995 32:0.118484 33:0.993516 34:-0.130191 35:0.160001 36:0.572457 37:0.128788 38:-0.966555 39:-2.677719 40:-1.629561 41:0.727416 42:0.739078 43:-1.593301 44:0.270764 45:1.146498 46:0.054165 47:-0.597215 48:0.995666 49:0.765670 50:1.523735 51:0.363764 52:0.321840 53:0.877758 54:-0.088622 55:0.642477 56:-0.370420 57:0.131845 58:0.163187 59:-2.324405 60:-1.436866
-1 1:0.877789 2:-0.130495 3:-0.547616 4:0.217997 5:0.031204 6:0.177661 7:1.752455 8:-1.306049 9:0.602206 10:0.212244 11:-0.362009 12:1.347932 13:-0.413012 14:-0.735396 15:1.606532 16:0.603772 17:-1.494687 18:-0.860460 19:-2.463666 20:0.961814 21:-0.361045 22:-0.747725 23:1.231441 24:-0.030532 25:-0.238713 26:-0.094020 27:0.708523 28:0.197720 29:0.917437 30:0.519566 31:-0.720223 32:-0.629523 33:-1.016370 34:1.375372 35:-0.095768 36:-0.105010 37:-0.397307 38:0.011637 39:0.221538 40:0.326664 41:0.172581 42:0.639451 43:-0.341716 44:0.519003 45:0.430377 46:0.624787 47:0.060392 48:-0.551169 49:0.710306 50:-1.556660 51:0.055707 52:-1.409120 53:-1.920862 54:-0.267389 55:-0.928979 56:-0.373803 57:0.800064 58:1.609287 59:1.831586 60:-2.417388
-1 1:-1.619252 2:1.642328 3:0.046578 4:0.088681 5:-0.172379 6:-0.189240 7:0.070536 8:-0.864727 9:0.192282 10:-0.150494 11:2.418711 12:0.232151 13:-0.097007 14:0.226513 15:-0.699974 16:0.215946 17:1.356308 18:1.375009 19:-1.800563 20:-0.382485 21:-1.041171 22:0.549030 23:-0.201993 24:0.663317 25:1.783402 26:-0.201234 27:-1.710006 28:0.143320 29:-0.546621 30:-0.533012 31:-1.476550 32:1.985751 33:-0.306014 34:1.033045 35:0.884933 36:-1.780062 37:0.262556 38:0.260426 39:0.220698 40:-1.231982 41:0.374052 42:0.283764 43:0.451470 44:1.310757 45:-2.080545 46:0.592384 47:-0.443500 48:1.695143 49:-0.538118 50:-0.149816 51:0.263193 52:-0.238769 53:0.193694 54:0.483331 55:-0.849861 56:1.280600 57:1.639977 58:-0.320086 59:-0.962814 60:0.864084
-1 1:-0.504574 2:0.721049 3:-0.577894 4:-0.608861 5:-2.075367 6:-0.259413 7:2.671252 8:-1.167049 9:-2.409235 10:-0.106021 11:0.363194 12:-0.372846 13:-1.476032 14:-0.574153 15:0.719061 16:0.211344 17:-1.093373 18:-0.316322 19:0.162996 20:-0.201341 21:0.489178 22:1.484261 23:0.393037 24:-0.208454 25:-1.163632 26:-0.434945 27:-0.522886 28:-0.496056 29:0.111166 30:-1.404228 31:-1.399740 32:0.732627 33:0.625958 34:-0.996425 35:0.241431 36:-0.454347 37:-1.906391 38:1.199936 39:0.110862 40:0.520491 41:1.933643 42:-0.659590 43:1.063139 44:-0.546584 45:1.258296 46:0.577530 47:0.878193 48:0.740614 49:-0.942930 50:-0.767847 51:-0.387360 52:0.955388 53:-1.187706 54:0.604564 55:-0.694070 56:0.251953 57:-0.226736 58:0.714326 59:-0.570017 60:1.163739
-1 1:0.748768 2:-0.049437 3:0.522025 4:0.474582 5:0.991527 6:0.433969 7:0.348915 8:0.203202 9:-1.398433 10:0.948557 11:0.652265 12:-0.719922 13:0.199691 14:-1.210524 15:-1.019481 16:-0.353348 17:-0.002881 18:-0.255959 19:-0.061494 20:1.787006 21:0.167083 22:0.188256 23:-0.592714 24:-2.301163 25:1.145587 26:0.267142 27:-1.149529 28:-0.129665 29:0.867059 30:1.139009 31:-0.315680 32:0.910759 33:-1.378131 34:1.029770 35:-0.128680 36:0.122997 37:-0.038119 38:-0.342846 39:-0.167479 40:1.306701 41:-1.776484 42:0.834973 43:-0.621591 44:1.231701 45:-0.996251 46:0.763524 47:1.033476 48:-0.960247 49:-0.149337 50:-0.280198 51:0.338581 52:-0.005642 53:-0.355258 54:1.858945 55:-0.024177 56:0.987967 57:1.052833 58:1.486193 59:2.213384 60:1.024172
-1 1:0.863616 2:-1.999017 3:-0.103947 4:0.859266 5:-2.188436 6:-2.287794 7:-0.255179 8:1.144792 9:-0.611515 10:-0.019912 11:-1.383091 12:0.463776 13:0.493434 14:0.379004 15:-0.069110 16:-1.612624 17:-0.564421 18:0.050696 19:-1.196070 20:-0.624859 21:-1.746489 22:0.997643 23:1.280587 24:0.559677 25:-0.420855 26:-1.164049 27:-0.120164 28:-0.345261 29:-0.332354 30:0.369802 31:-0.439605 32:-1.170202 33:1.718006 34:1.168553 35:-0.404498 36:-1.119320 37:-0.871607 38:0.780563 39:-1.617075 40:-0.733678 41:-0.861374 42:-0.404915 43:0.598993 44:0.161143 45:-0.005335 46:1.271257 47:1.006965 48:-0.582000 49:0.849907 50:-1.076946 51:-1.114586 52:0.367658 53:-0.284177 54:0.142046 55:0.303934 56:-0.710470 57:-1.068527 58:-0.805570 59:-0.375412 60:0.927334
-1 1:0.725313 2:-0.399059 3:1.710044 4:0.544677 5:-0.623860 6:-1.215153 7:-1.807905 8:-1.103756 9:-0.847418 10:1.510169 11:-0.415755 12:1.778038 13:1.949900 14:0.313264 15:0.691265 16:0.192538 17:0.409347 18:-0.375757 19:-0.146930 20:0.389879 21:0.340759 22:0.232192 23:-0.303961 24:-0.505110 25:-0.302727 26:0.137261 27:-0.131400 28:-0.938961 29:0.673720 30:-2.747474 31:-0.354943 32:-0.979807 33:-0.463190 34:-1.162415 35:0.816000 36:-0.226150 37:-0.016932 38:-0.620008 39:0.512130 40:-0.571184 41:-0.436790 42:1.521972 43:-1.007682 44:0.612075 45:0.172031 46:0.111687 47:0.174624 48:-1.672032 49:1.378066 50:-1.630580 51:-0.025890 52:1.970416 53:0.681856 54:0.487044 55:0.166870 56:-0.992052 57:-0.120986 58:1.804972 59:0.169824 60:1.094595
-1 1:-0.902547 2:-0.485495 3:-0.458254 4:-0.237517 5:0.636666 6:0.503181 7:-0.338399 8:-0.019157 9:0.873311 10:0.456894 11:-0.926422 12:-0.164579 13:-0.946939 14:-2.699373 15:-2.264043 16:1.855264 17:0.096080 18:1.629775 19:0.568709 20:0.513176 21:1.764919 22:-1.491380 23:1.458260 24:0.916758 25:-0.013441 26:-0.230797 27:0.193481 28:-0.865377 29:0.101559 30:-0.960713 31:0.095650 32:-0.133101 33:0.558929 34:0.070271 35:1.082784 36:0.764365 37:-0.660827 38:-0.938868 39:0.857034 40:1.027489 41:-0.903563 42:1.598683 43:1.138429 44:1.030843 45:0.517307 46:-0.248687 47:0.541418 48:-0.480220 49:0.714301 50:0.779465 51:-0.727130 52:-2.637734 53:0.235596 54:0.063003 55:-1.602701 56:2.306133 57:0.632474 58:0.222540 59:-0.572236 60:-1.299045
-1 1:-0.601756 2:-0.417121 3:0.436623 4:-0.344173 5:-1.405553 6:0.900412 7:0.348830 8:-0.119210 9:-0.404129 10:-2.102809 11:0.183563 12:-0.406247 13:1.040245 14:0.011968 15:1.335536 16:0.142391 17:-0.635590 18:0.123021 19:0.174056 20:-0.864868 21:-1.155949 22:-0.068153 23:-0.361483 24:0.321729 25:0.758085 26:-0.139817 27:-0.232452 28:-0.371770 29:-0.645024 30:-0.006501 31:-0.414132 32:-0.469361 33:-1.600645 34:-0.459824 35:-0.142986 36:-0.674329 37:0.252255 38:1.563592 39:-0.032916 40:0.597385 41:-2.130975 42:-0.746430 43:0.911114 44:0.928319 45:-1.076667 46:1.902828 47:-2.031352 48:0.938837 49:0.336534 50:-0.559317 51:0.297763 52:-0.030066 53:-0.040222 54:-0.373881 55:0.765283 56:-0.384898 57:-0.527455 58:-0.401566 59:1.675949 60:-1.260689
-1 1:-1.084049 2:0.577574 3:0.645899 4:0.805300 5:-1.011653 6:-0.992422 7:-0.948911 8:-0.133375 9:0.665178 10:0.935352 11:-0.429051 12:0.031378 13:0.935110 14:-0.192687 15:-1.006727 16:0.542728 17:-0.214921 18:-0.316831 19:0.357818 20:-2.020718 21:-1.131699 22:1.151010 23:1.153879 24:0.461406 25:-0.561599 26:0.107713 27:-1.073154 28:0.103776 29:0.434502 30:-0.335299 31:-0.030507 32:-0.854707 33:-0.369426 34:-0.770401 35:-0.802374 36:-1.072587 37:-0.527428 38:1.508668 39:0.785537 40:-1.443260 41:-1.277839 42:1.095773 43:-2.263677 44:0.235714 45:1.779899 46:0.233386 47:-0.695198 48:0.525315 49:1.694546 50:-0.524737 51:0.484153 52:-1.884334 53:0.895400 54:-0.215214 55:1.418768 56:-0.259778 57:-1.516806 58:0.411349 59:0.734147 60:-0.378584
-1 1:-0.593015 2:-0.186394 3:0.313003 4:0.247197 5:0.489275 6:-0.970573 7:-0.663172 8:-1.564059 9:0.684039 10:0.536568 11:0.212972 12:-0.579013 13:-0.656198 14:2.907168 15:1.831573 16:0.392828 17:-0.767766 18:-0.090616 19:-1.020104 20:-0.819826 21:-0.493697 22:0.681355 23:-0.552708 24:0.046354 25:0.878811 26:-0.499345 27:0.693177 28:1.338183 29:-0.530081 30:-1.230591 31:-0.881217 32:-0.963064 33:-1.797020 34:0.102780 35:0.646249 36:-0.862550 37:-0.899136 38:0.824217 39:0.276528 40:-0.497933 41:-1.328857 42:-0.452385 43:-0.362740 44:-0.665702 45:0.845039 46:-0.064269 47:0.625406 48:0.854042 49:-0.155618 50:0.463749 51:0.947666 52:0.951430 53:-1.823687 54:-1.798383 55:-0.541289 56:-1.003142 57:-0.979495 58:-1.216756 59:-1.329414 60:2.351657
-1 1:-0.349788 2:0.692772 3:0.631192 4:-0.359450 5:0.487180 6:0.731677 7:0.462451 8:-0.738054 9:-0.715322 10:-0.680178 11:-0.575464 12:0.858641 13:-0.286255 14:-0.656245 15:0.612160 16:0.417689 17:1.225260 18:2.061498 19:-0.299651 20:-0.413475 21:-0.687399 22:-0.200034 23:0.264633 24:-0.247215 25:0.850131 26:-0.227690 27:0.569744 28:1.666861 29:1.167757 30:1.751568 31:0.799145 32:0.280341 33:-0.166749 34:0.251532 35:-0.303174 36:-0.206163 37:-0.107896 38:0.101264 39:-0.239112 40:-0.000798 41:-1.072051 42:-0.384714 43:1.949309 44:0.878842 45:-0.511667 46:-1.220493 47:-0.523908 48:-0.913035 49:-0.969439 50:-0.413275 51:-1.303305 52:1.333806 53:0.386472 54:1.709339 55:0.291437 56:0.927935 57:0.815096 58:-2.002193 59:0.174147 60:0.362376
-1 1:0.786896 2:-0.782955 3:0.380606 4:-1.521432 5:0.472502 6:-0.068541 7:-0.162352 8:-0.782585 9:2.202971 10:-0.647395 11:0.750209 12:2.232777 13:2.227865 14:-1.893099 15:-0.390512 16:0.099636 17:0.989038 18:0.455740 19:1.151505 20:-0.873333 21:0.695703 22:1.064767 23:0.303059 24:-0.023952 25:-0.127809 26:-2.993974 27:-0.139608 28:-0.780226 29:-0.283977 30:0.268073 31:-0.801036 32:2.871044 33:0.509576 34:-0.852477 35:0.012088 36:0.570134 37:1.261556 38:-1.902212 39:0.654560 40:0.376347 41:0.989722 42:0.825401 43:1.034988 44:-0.434186 45:1.263112 46:0.454677 47:1.375482 48:0.738238 49:0.258558 50:0.059968 51:-0.615840 52:1.703540 53:1.115281 54:-0.184903 55:-1.130204 56:-0.105325 57:1.117422 58:-0.960832 59:0.834239 60:-1.371454
-1 1:-1.525623 2:0.544469 3:1.212290 4:-0.465113 5:0.362521 6:0.502076 7:0.776190 8:-0.397889 9:0.826691 10:-1.831285 11:0.428695 12:-0.488922 13:1.393578 14:-0.286132 15:0.713629 16:0.212210 17:0.675319 18:0.155117 19:-0.598651 20:0.797332 21:-1.348689 22:-0.062176 23:0.637595 24:-1.660191 25:-1.515223 26:1.753298 27:1.206026 28:-0.656481 29:-0.053547 30:0.384054 31:0.267522 32:-0.069221 33:-0.386896 34:0.655253 35:0.887747 36:-0.185026 37:-1.680767 38:0.921286 39:-0.704015 40:0.572873 41:-1.567491 42:-0.316098 43:0.008070 44:-0.162378 45:-0.337336 46:0.310203 47:1.136741 48:-1.861776 49:-0.052412 50:0.317384 51:-1.207031 52:0.162812 53:-1.104017 54:1.368849 55:0.754288 56:-0.630209 57:1.034135 58:0.092981 59:0.396335 60:-1.168552
-1 1:1.361389 2:0.024989 3:0.277955 4:0.674895 5:-0.826494 6:-1.017422 7:0.350389 8:-0.563622 9:-2.003390 10:0.777571 11:-1.463881 12:-1.920913 13:-0.185024 14:-0.886212 15:0.000976 16:-1.379384 17:-1.369900 18:-0.820195 19:-1.627608 20:-0.596121 21:-1.395738 22:-0.452894 23:-1.013730 24:0.260745 25:1.069618 26:1.094496 27:-0.339960 28:2.075805 29:-0.969154 30:0.315072 31:-0.344299 32:-0.423323 33:0.876658 34:0.557721 35:0.535657 36:-1.238280 37:1.315305 38:-0.388038 39:1.758066 40:0.614614 41:-0.318218 42:0.165025 43:0.284003 44:1.368427 45:1.210544 46:-0.425514 47:0.745233 48:1.069354 49:0.447316 50:0.587231 51:0.427602 52:1.900506 53:1.000266 54:2.751386 55:-0.177071 56:0.277764 57:1.857673 58:-0.176926 59:-0.205765 60:-3.291972
-1 1:1.872321 2:0.447074 3:-1.056362 4:0.046836 5:0.610929 6:-0.505906 7:-0.531048 8:0.125700 9:-1.258406 10:-0.796947 11:1.172357 12:-0.641587 13:0.017980 14:-1.199561 15:-0.202871 16:-1.200149 17:1.501681 18:0.500525 19:-0.666331 20:1.887719 21:-0.968277 22:-0.835425 23:0.129552 24:-0.216572 25:-1.141730 26:-1.276482 27:-0.155312 28:0.542421 29:1.532303 30:2.415708 31:-0.129506 32:1.064348 33:-0.150707 34:-0.815865 35:0.681654 36:-0.322517 37:-0.464732 38:0.250046 39:-0.698868 40:0.359443 41:-0.088266 42:-1.432931 43:-1.608633 44:1.654121 45:1.315746 46:0.729950 47:-0.089399 48:0.187480 49:-0.935623 50:-1.337331 51:1.380982 52:-0.345608 53:-1.271890 54:0.330037 55:0.133145 56:-0.621122 57:1.370987 58:-0.612431 59:-0.671875 60:-1.634979
-1 1:-0.430550 2:0.230260 3:0.797177 4:-1.388267 5:1.570093 6:-0.768952 7:-1.028059 8:0.671908 9:1.819265 10:0.473600 11:-1.490889 12:0.578765 13:-1.070871 14:0.492800 15:0.359556 16:-0.924937 17:-1.005878 18:1.431126 19:1.324456 20:0.583275 21:-1.386032 22:1.663398 23:-0.764127 24:-0.157361 25:-0.155753 26:0.649748 27:-0.614099 28:-0.587894 29:0.483571 30:-0.743993 31:3.058161 32:1.703833 33:-1.069304 34:0.419564 35:1.221206 36:0.049571 37:-0.635339 38:-0.799719 39:0.431346 40:-1.544721 41:-0.202719 42:1.301455 43:0.450119 44:-1.382610 45:0.813144 46:-0.695002 47:-1.337048 48:-0.214564 49:0.949797 50:-0.994478 51:-1.164165 52:-1.114047 53:-0.904722 54:-0.509768 55:0.346232 56:-0.273476 57:-0.296407 58:0.265965 59:-1.474007 60:0.070822
-1 1:-1.606243 2:-1.398040 3:-0.847863 4:-1.087175 5:0.732333 6:-0.686701 7:-1.007858 8:0.801666 9:0.604636 10:-1.404614 11:0.152001 12:-1.322861 13:-0.291019 14:-1.190779 15:-1.401411 16:-1.139793 17:1.031994 18:-1.919593 19:0.239644 20:-1.211480 21:0.033516 22:0.770577 23:-0.146605 24:-0.893087 25:0.022586 26:0.601760 27:-0.898085 28:-0.332056 29:0.399189 30:-1.402145 31:0.832131 32:1.194440 33:-0.248199 34:-1.111299 35:-0.719082 36:-0.551278 37:0.272327 38:0.076975 39:0.579228 40:-1.323210 41:-1.553366 42:0.277737 43:-1.013877 44:-1.078789 45:2.676228 46:-2.325921 47:0.131365 48:-0.558317 49:1.532603 50:-0.048459 51:0.019355 52:-0.955788 53:1.718095 54:-0.411380 55:-0.172314 56:-0.626740 57:-0.311723 58:1.039687 59:0.199566 60:0.378139
-1 1:0.996501 2:1.336365 3:-0.271478 4:-0.357039 5:1.946905 6:-0.095894 7:-0.122346 8:-0.305096 9:-1.011648 10:0.152563 11:-1.100948 12:0.057847 13:1.121179 14:0.774656 15:0.889672 16:1.590394 17:1.674334 18:0.331848 19:-0.734890 20:2.978211 21:0.753921 22:-0.023658 23:-0.199139 24:-0.366215 25:0.445859 26:0.755507 27:-0.071430 28:-1.252625 29:-0.175377 30:-1.135275 31:1.131017 32:0.151401 33:-0.458810 34:-0.294857 35:-0.297443 36:-0.000306 37:-2.467433 38:-0.649204 39:-0.986571 40:-1.055167 41:-1.144308 42:0.907056 43:-0.156477 44:0.348033 45:-1.191558 46:-0.175250 47:-1.454818 48:-0.888612 49:-0.803337 50:1.252059 51:-1.609674 52:-0.425512 53:0.713903 54:0.065230 55:0.018230 56:0.290693 57:-0.361828 58:1.340655 59:0.307523 60:1.256177
-1 1:-0.809117 2:-1.427047 3:-0.589278 4:-0.510964 5:0.065921 6:0.674653 7:-0.371665 8:0.084157 9:-0.369413 10:1.774889 11:0.987908 12:2.547537 13:0.323565 14:1.833606 15:0.594135 16:-1.213190 17:-0.131540 18:0.254575 19:0.626776 20:0.302554 21:0.351960 22:0.632425 23:-1.165971 24:0.376677 25:-0.683694 26:0.149239 27:-0.396729 28:1.229317 29:0.331458 30:-0.871734 31:2.496864 32:-0.828636 33:0.147168 34:1.009229 35:-1.810601 36:-1.486458 37:-0.406728 38:-0.843716 39:-1.171564 40:-0.467167 41:0.229944 42:-0.436450 43:-0.718461 44:-1.019752 45:-1.321295 46:0.359862 47:-0.673681 48:-0.760159 49:0.508877 50:0.237224 51:0.151873 52:0.606450 53:0.644388 54:-0.782314 55:-0.594439 56:0.040868 57:-0.934537 58:-0.806885 59:-0.136677 60:1.641127
-1 1:0.255628 2:0.382681 3:0.008160 4:0.982002 5:1.760225 6:-1.151271 7:-1.527627 8:1.647891 9:-1.381399 10:-1.980923 11:-0.089198 12:0.158651 13:0.298483 14:2.161917 15:-1.058616 16:0.854960 17:0.361338 18:-1.819584 19:0.218692 20:0.542187 21:0.268519 22:0.054013 23:-0.624590 24:-1.789516 25:-1.138223 26:-0.104633 27:0.243287 28:1.179228 29:-1.465951 30:-0.237494 31:0.469760 32:0.715891 33:-0.171005 34:-2.140424 35:0.888548 36:0.887389 37:1.788143 38:-0.025979 39:0.316688 40:-0.476761 41:0.328599 42:0.430691 43:1.033971 44:-0.924798 45:1.694130 46:1.334222 47:1.139361 48:-0.695380 49:0.013100 50:-0.610021 51:-0.601045 52:-0.207980 53:0.834702 54:-0.380006 55:0.706044 56:-0.122324 57:-0.915163 58:-0.355975 59:1.456117 60:-0.551495
-1 1:-0.321435 2:1.257172 3:0.026515 4:1.514359 5:1.276805 6:1.447946 7:-1.083536 8:0.310895 9:0.743482 10:-0.075080 11:1.292125 12:0.348819 13:0.246180 14:0.041783 15:-0.960388 16:-0.585199 17:-0.882440 18:0.109626 19:-0.753284 20:-0.543021 21:0.532850 22:0.794889 23:-0.417598 24:1.238972 25:-1.185287 26:-1.895673 27:-0.246039 28:-1.469825 29:0.977835 30:1.140269 31:-0.023852 32:0.771384 33:0.200526 34:-1.316855 35:1.028630 36:0.642328 37:0.088605 38:-0.890229 39:-1.221376 40:-1.357127 41:-0.073557 42:0.913490 43:-1.022131 44:0.000804 45:1.810452 46:1.650272 47:-0.060503 48:1.301768 49:0.739546 50:-1.355172 51:1.248733 52:-0.564172 53:0.222491 54:1.050086 55:-0.622085 56:-1.853125 57:0.022720 58:0.746556 59:-0.766140 60:0.549940
-1 1:-0.811987 2:-1.463773 3:1.129551 4:-1.622706 5:-1.347611 6:1.231617 7:0.845245 8:-0.067988 9:-2.643275 10:1.005073 11:-0.986041 12:0.216551 13:-0.179693 14:1.146129 15:0.659349 16:-1.133018 17:-0.222605 18:0.620675 19:1.488529 20:-0.079997 21:0.281302 22:1.250881 23:-0.858519 24:0.089797 25:-0.793866 26:0.878394 27:-1.547701 28:-0.353688 29:0.598960 30:-1.009873 31:0.548379 32:0.886399 33:-0.692006 34:-1.077748 35:0.027359 36:-0.204881 37:0.521646 38:-0.101604 39:0.247797 40:0.827174 41:-2.318162 42:0.103278 43:1.492074 44:-0.771480 45:-1.154296 46:0.118597 47:0.524622 48:0.560706 49:-0.254072 50:0.954220 51:-0.221691 52:-0.537340 53:-0.560566 54:-0.355375 55:-0.377249 56:1.106448 57:0.091954 58:1.430558 59:-0.828691 60:-0.506200
-1 1:0.187413 2:-1.325680 3:0.244054 4:1.142911 5:-0.987439 6:-0.453077 7:-1.584629 8:-1.078513 9:1.548858 10:-0.766881 11:0.734434 12:-0.600107 13:1.734573 14:-0.734136 15:-0.393629 16:-0.372650 17:0.092719 18:0.393598 19:-0.646801 20:-0.142815 21:0.578848 22:-1.005798 23:1.023229 24:-0.551456 25:-0.131723 26:-0.786832 27:1.861477 28:0.559936 29:0.559495 30:0.737733 31:-1.216613 32:-1.086255 33:0.364478 34:-1.415530 35:0.072318 36:-1.293982 37:-1.676894 38:0.069479 39:0.329692 40:-1.409615 41:-0.551897 42:-1.351949 43:0.544273 44:0.728175 45:-0.367338 46:0.254048 47:0.466833 48:-0.420269 49:1.339118 50:-0.997831 51:-0.131461 52:1.956655 53:-0.244164 54:-1.254949 55:-0.514357 56:-0.200429 57:-0.081347 58:1.416753 59:-0.960593 60:0.779612
-1 1:1.190096 2:-0.867846 3:1.872118 4:-0.210164 5:-0.753480 6:-0.739192 7:-0.894729 8:-0.761138 9:-0.751218 10:1.396958 11:1.188818 12:-1.247048 13:0.108431 14:-0.880972 15:0.617621 16:-0.185562 17:-0.723834 18:1.912084 19:-1.110434 20:-0.229669 21:0.406550 22:0.694303 23:0.905314 24:-1.029695 25:0.032438 26:-0.911827 27:0.944593 28:-0.223493 29:2.937894 30:1.137658 31:-1.276873 32:-2.038164 33:0.093871 34:-0.199944 35:1.162371 36:-0.150442 37:-0.256784 38:-0.146842 39:0.428730 40:-1.536367 41:2.146325 42:1.039310 43:-0.530465 44:-2.493489 45:0.466171 46:-2.073290 47:-1.105590 48:0.378235 49:0.485614 50:1.216607 51:-1.051175 52:1.101884 53:1.456686 54:-0.390031 55:-0.156716 56:1.080538 57:-1.265463 58:-0.080362 59:-0.942437 60:0.329687
-1 1:-0.194768 2:-0.666995 3:1.272518 4:-1.558735 5:-1.306068 6:1.132080 7:0.311836 8:1.707482 9:-0.446296 10:-0.111814 11:1.120981 12:-0.383598 13:-0.698125 14:0.986088 15:-1.369527 16:0.745016 17:0.343459 18:0.569249 19:0.432807 20:0.766879 21:-0.631008 22:-1.205439 23:1.500805 24:0.989830 25:0.235473 26:-0.103643 27:0.154417 28:-0.277470 29:0.750261 30:-0.288129 31:1.633606 32:-0.061474 33:-0.904556 34:0.169646 35:0.904899 36:-2.251401 37:-1.916457 38:0.096356 39:-0.134892 40:-0.690010 41:0.371556 42:0.536769 43:1.060996 44:1.196456 45:0.506300 46:1.410893 47:0.958521 48:1.092824 49:0.764275 50:-0.127391 51:-0.425755 52:-1.094867 53:0.609841 54:0.565304 55:0.029191 56:2.027642 57:-0.683272 58:-1.072884 59:0.165039 60:-0.955081
-1 1:0.305703 2:-1.063526 3:1.045799 4:0.258546 5:0.299993 6:-0.465891 7:-1.371563 8:-0.205564 9:0.035907 10:0.379561 11:-0.081895 12:0.089708 13:2.144193 14:0.756057 15:0.642068 16:-1.877289 17:0.218418 18:-0.126946 19:1.620779 20:-1.832417 21:1.244993 22:-0.276476 23:1.915553 24:1.080849 25:0.214253 26:0.979209 27:0.586181 28:-1.467439 29:-0.336733 30:-0.130307 31:-1.113797 32:0.086760 33:-0.322003 34:1.158073 35:0.618322 36:0.052467 37:-0.404690 38:1.396565 39:0.916524 40:0.224482 41:-0.032125 42:0.134315 43:-0.718631 44:0.485521 45:-0.799503 46:0.749227 47:-0.487594 48:-0.484648 49:0.531013 50:0.679421 51:-1.031952 52:1.033217 53:0.326208 54:0.043916 55:-0.201255 56:-0.838562 57:0.231193 58:1.104598 59:-0.808296 60:-0.813969
-1 1:-0.475520 2:-1.029943 3:0.779095 4:-1.014687 5:-1.694662 6:-1.467514 7:0.594480 8:-0.309741 9:0.923587 10:-1.727251 11:0.103398 12:-1.291874 13:2.573137 14:2.070893 15:-1.606209 16:0.173115 17:0.571656 18:0.887801 19:-0.677113 20:0.187175 21:1.011390 22:0.196999 23:-0.232839 24:1.311510 25:-0.451487 26:-0.534294 27:-1.177903 28:-0.199975 29:0.371302 30:0.169129 31:-1.631162 32:0.274254 33:0.298872 34:1.660347 35:-0.819576 36:0.945080 37:1.006027 38:0.663019 39:0.059058 40:-0.647825 41:1.125785 42:0.015430 43:0.773936 44:-1.445262 45:-0.352634 46:0.763359 47:-0.501707 48:0.778389 49:0.825462 50:-0.653865 51:-0.603262 52:-0.963834 53:0.895450 54:0.110578 55:1.010117 56:-1.300394 57:-0.115102 58:-0.797653 59:-0.025388 60:-1.450532
-1 1:-1.338017 2:1.192108 3:-0.643049 4:-0.643234 5:1.415458 6:-0.220602 7:-2.230465 8:-1.497745 9:-0.198537 10:0.140095 11:2.410705 12:-0.036953 13:-1.043936 14:0.916038 15:-0.419069 16:-0.206666 17:-0.091070 18:0.601441 19:0.662659 20:0.039793 21:-0.023632 22:-0.918663 23:0.262374 24:-0.385626 25:0.667647 26:-0.614398 27:-0.989947 28:0.575037 29:1.409473 30:0.253842 31:-0.710948 32:0.408562 33:-0.857698 34:0.112483 35:-0.172154 36:1.886806 37:1.652618 38:-0.024303 39:1.258821 40:0.502268 41:-0.326251 42:0.090443 43:0.854065 44:0.158863 45:0.893973 46:0.198336 47:-0.265042 48:1.913702 49:-1.679300 50:-0.880040 51:0.855654 52:-0.298155 53:2.047617 54:0.655363 55:-1.475640 56:0.480833 57:-0.195057 58:-0.898398 59:-2.048666 60:-0.992490
-1 1:2.170979 2:-2.023185 3:1.416317 4:-0.772800 5:-0.855852 6:-0.062671 7:2.001972 8:1.723519 9:0.457936 10:-2.022800 11:1.013052 12:2.294656 13:0.572253 14:-0.094105 15:0.304195 16:-1.158744 17:0.554481 18:-1.165848 19:-0.413512 20:-0.318007 21:-0.909064 22:1.454497 23:0.172078 24:0.861154 25:-1.335701 26:0.253331 27:1.551947 28:-0.587547 29:0.058368 30:0.136049 31:-0.498367 32:-0.419858 33:0.094938 34:-0.372027 35:0.016293 36:1.111023 37:-0.272868 38:0.036569 39:0.639830 40:-0.410604 41:-0.321747 42:0.485822 43:0.479816 44:-0.582728 45:-0.279668 46:0.355087 47:0.807037 48:0.513740 49:-1.028910 50:1.551396 51:-1.537026 52:-1.656846 53:-0.317012 54:-0.259950 55:1.470244 56:-2.033889 57:1.057797 58:-0.732227 59:1.298029 60:-0.311308
-1 1:0.309213 2:-1.234284 3:1.326823 4:-1.088565 5:0.440908 6:-0.248591 7:0.616882 8:0.349792 9:2.308371 10:-0.805104 11:-0.164855 12:-2.412125 13:0.802184 14:0.778906 15:-0.678830 16:-2.320695 17:-0.424532 18:0.911920 19:0.923330 20:0.664875 21:1.282556 22:-0.015749 23:2.034521 24:-0.228014 25:1.655354 26:-0.111952 27:-1.545643 28:0.034833 29:-0.706660 30:0.237125 31:-1.144068 32:-0.156833 33:0.512618 34:0.302262 35:-0.989581 36:-1.453174 37:0.298215 38:-0.338444 39:2.900829 40:0.895310 41:0.920338 42:-1.305473 43:0.039313 44:-0.042665 45:0.361321 46:1.954585 47:-0.061775 48:-0.527051 49:-1.405751 50:2.174954 51:0.193177 52:0.010399 53:1.036407 54:0.882058 55:0.571635 56:1.332981 57:0.669949 58:0.466429 59:-0.963323 60:-1.130724
-1 1:0.787115 2:1.456677 3:-0.780953 4:-0.085099 5:-0.152669 6:1.637714 7:0.883443 8:-0.064521 9:-0.474663 10:1.333382 11:1.023229 12:1.910581 13:-1.022720 14:-0.697259 15:1.550934 16:-2.294416 17:-0.265233 18:1.408970 19:0.437186 20:-0.508642 21:-0.583815 22:0.257857 23:0.500458 24:-1.357382 25:-1.200736 26:-0.028203 27:-1.417411 28:0.025801 29:-0.919162 30:1.098004 31:-0.041846 32:0.726894 33:0.484755 34:-0.397458 35:0.213647 36:0.483572 37:0.026397 38:0.258528 39:1.312890 40:0.235763 41:-0.367704 42:-0.461591 43:-0.150921 44:-0.889132 45:-1.016322 46:0.286540 47:0.052833 48:0.248081 49:0.765671 50:-0.643485 51:0.814903 52:0.296801 53:-2.136602 54:0.436341 55:1.292112 56:0.826379 57:0.364991 58:-1.619047 59:-0.916598 60:-0.766253
-1 1:1.164846 2:0.050711 3:0.712978 4:-1.333901 5:0.469330 6:-0.587925 7:-0.202324 8:0.608219 9:0.119670 10:-0.361710 11:-0.322041 12:0.584537 13:1.557178 14:1.634761 15:0.832262 16:0.796609 17:0.514224 18:1.016533 19:0.917678 20:0.746055 21:-1.047973 22:-1.721247 23:1.304424 24:0.176531 25:0.683099 26:-0.607892 27:-0.144186 28:-0.406573 29:-1.508355 30:-0.790165 31:-0.911988 32:-1.226326 33:-0.077662 34:-1.319262 35:2.322484 36:0.571942 37:-0.269813 38:0.406702 39:-0.238232 40:-0.494183 41:-0.503777 42:-1.139700 43:-3.046967 44:0.330272 45:0.263293 46:0.404666 47:-1.861845 48:0.034364 49:-0.283928 50:0.225308 51:-0.339264 52:-1.186931 53:1.504199 54:-0.752046 55:-1.479000 56:-0.832301 57:-0.217006 58:-1.197284 59:-2.112984 60:-0.160070
-1 1:0.267265 2:0.949355 3:1.185627 4:0.851170 5:-1.822830 6:0.520938 7:0.537050 8:-0.232137 9:0.607233 10:1.095816 11:-1.718660 12:-1.592881 13:-0.529065 14:-0.863101 15:-1.189131 16:-0.131038 17:0.249177 18:0.880167 19:-0.146050 20:-0.173733 21:0.439621 22:0.081402 23:-0.478790 24:1.503286 25:0.910286 26:1.436739 27:-0.335116 28:-0.508632 29:-0.395662 30:-0.916780 31:-0.574920 32:0.207071 33:0.404410 34:1.508389 35:2.509494 36:-2.030299 37:1.017923 38:-0.481739 39:-0.556993 40:-0.388500 41:0.326852 42:-0.173550 43:-0.542657 44:-0.938183 45:-0.151026 46:0.280951 47:0.029597 48:-2.353513 49:1.130364 50:1.200063 51:-0.513456 52:0.468065 53:-0.154836 54:-1.344664 55:-0.474481 56:-0.721951 57:0.947351 58:0.015996 59:-0.302906 60:-0.070308
-1 1:-0.135826 2:-1.722872 3:0.814507 4:1.021259 5:1.748055 6:0.375358 7:-0.092955 8:0.008622 9:0.342882 10:1.108654 11:0.616890 12:-1.165798 13:0.935893 14:-0.320338 15:0.914446 16:0.410913 17:-0.396218 18:0.101311 19:-0.706736 20:-0.300557 21:0.880793 22:0.564831 23:1.083004 24:-1.631963 25:-0.510720 26:0.713000 27:-0.030940 28:0.944828 29:0.274477 30:-2.632157 31:0.102574 32:0.700318 33:0.181838 34:-0.216148 35:0.941611 36:0.497766 37:-0.891048 38:0.061530 39:-0.182696 40:1.012059 41:0.996962 42:-0.249874 43:1.116019 44:1.597915 45:0.294990 46:-0.017851 47:-0.171826 48:0.013260 49:0.797322 50:2.308599 51:-1.162437 52:-0.532772 53:0.477504 54:0.085190 55:1.075747 56:0.383043 57:-1.005133 58:1.800879 59:0.230466 60:0.005427
-1 1:-2.046998 2:-1.340216 3:0.209260 4:-0.388092 5:-0.945690 6:-0.017838 7:-0.726927 8:0.162496 9:-0.838763 10:-1.177403 11:-0.683344 12:-0.750552 13:1.444727 14:-0.715505 15:0.364328 16:0.123956 17:0.385487 18:-0.652861 19:-0.735898 20:1.465019 21:0.127035 22:0.526051 23:0.507723 24:-0.306660 25:0.654652 26:1.179399 27:-0.571280 28:1.449789 29:-0.653371 30:2.174515 31:-1.712128 32:0.417351 33:0.856732 34:0.240582 35:-0.063804 36:-2.012911 37:-3.010845 38:1.340582 39:0.070637 40:-1.317551 41:-0.973024 42:-1.018339 43:-0.262607 44:1.380289 45:-0.061596 46:1.296461 47:0.501230 48:-0.438357 49:2.517690 50:-0.567046 51:-0.632714 52:-1.855835 53:0.500378 54:0.538063 55:-0.699763 56:0.551601 57:0.089509 58:-0.762153 59:-1.155810 60:0.125963
-1 1:-0.125121 2:-1.749054 3:1.009969 4:0.181001 5:-0.790937 6:1.210819 7:-0.207050 8:-1.093575 9:0.819600 10:1.443879 11:-0.308725 12:-0.808852 13:-0.038208 14:0.774559 15:0.118148 16:-0.140303 17:0.559118 18:-1.468000 19:0.391542 20:1.099164 21:0.293274 22:0.331045 23:-0.684760 24:-1.046427 25:0.915626 26:-0.085822 27:1.996010 28:0.319549 29:0.924657 30:0.816739 31:2.248884 32:-0.617997 33:-1.219252 34:0.024865 35:0.149969 36:0.408278 37:-0.832710 38:-0.538647 39:-1.211904 40:-0.963441 41:-1.640635 42:1.435940 43:-1.851469 44:-1.295105 45:2.674778 46:-1.869043 47:0.083176 48:0.198718 49:1.335315 50:1.999344 51:0.321798 52:-0.825494 53:1.101894 54:0.051822 55:-1.302396 56:0.854177 57:-1.223791 58:-0.809388 59:0.126614 60:-0.684865
-1 1:0.013152 2:-0.481417 3:0.021623 4:0.465323 5:0.156612 6:-2.248223 7:-0.450248 8:0.027196 9:-0.583008 10:-0.409888 11:0.300561 12:-0.675069 13:-0.832458 14:-0.739293 15:-1.833526 16:-0.587187 17:-0.779553 18:-0.720776 19:1.207333 20:-0.293835 21:2.139036 22:-1.070637 23:-0.376647 24:-1.451024 25:1.265397 26:-1.408906 27:1.708443 28:0.861675 29:0.342384 30:1.592725 31:-0.788409 32:-0.966310 33:-0.486530 34:0.572929 35:0.920321 36:1.354971 37:0.030650 38:-1.668320 39:0.633654 40:0.146585 41:-0.342652 42:0.539623 43:-0.200670 44:-0.746243 45:-1.290406 46:1.030955 47:1.486536 48:0.775261 49:-0.399100 50:-0.005854 51:0.204340 52:0.509148 53:-0.632344 54:0.805862 55:-0.644368 56:-0.772680 57:1.320317 58:0.488733 59:0.488519 60:0.379857
-1 1:-0.421977 2:0.440523 3:-0.024369 4:0.440441 5:0.360908 6:1.646837 7:-0.022612 8:0.776274 9:0.350963 10:0.321062 11:1.313414 12:-0.296732 13:1.998211 14:-1.671351 15:-0.043008 16:-0.276816 17:0.833674 18:-0.947647 19:-0.510902 20:-0.465103 21:-0.039589 22:1.082743 23:-0.297774 24:-1.427698 25:-0.701175 26:1.456848 27:-0.746358 28:-0.177451 29:-0.745878 30:0.731127 31:0.956837 32:3.187433 33:-1.842243 34:-0.826443 35:0.227440 36:0.434657 37:-0.311227 38:1.357832 39:0.361894 40:0.835661 41:-1.990652 42:-0.361000 43:1.614988 44:1.223408 45:-0.328787 46:-0.046298 47:-0.657454 48:0.158261 49:-1.702354 50:1.115924 51:-0.756260 52:0.483613 53:1.303113 54:-0.338232 55:0.347130 56:1.511036 57:-1.800376 58:-0.932458 59:-0.951799 60:0.278047
-1 1:-0.379417 2:0.932549 3:0.283046 4:-1.835897 5:-1.153188 6:-0.150626 7:0.401030 8:-1.060314 9:-0.788969 10:0.496126 11:-0.774683 12:0.904683 13:-0.082421 14:-0.589854 15:-0.723072 16:0.395152 17:-0.797937 18:0.956301 19:0.098328 20:-0.403636 21:-0.661677 22:-0.964450 23:-0.759858 24:-0.607612 25:-0.385491 26:0.156835 27:-1.089515 28:-0.144150 29:0.240614 30:-1.967117 31:0.138910 32:-0.597785 33:1.268106 34:-1.499834 35:-0.043450 36:-0.644808 37:-0.431921 38:0.427127 39:-1.647377 40:0.359703 41:0.562996 42:1.272375 43:0.159907 44:-0.026657 45:-0.001009 46:-0.952609 47:-0.952023 48:-0.011651 49:-1.494437 50:-0.162628 51:-1.081129 52:0.423307 53:0.207496 54:-0.223416 55:1.577757 56:0.681306 57:-0.605889 58:-1.374560 59:-0.028982 60:-1.278660
-1 1:1.090417 2:-0.870790 3:-0.880593 4:1.864310 5:0.169263 6:-0.290806 7:-0.550180 8:0.042410 9:1.511581 10:-0.253875 11:-0.704999 12:0.200971 13:1.199296 14:0.703471 15:-1.427323 16:2.015442 17:-0.469497 18:1.389390 19:-1.104087 20:0.281592 21:-0.340855 22:0.906528 23:-1.762553 24:0.525417 25:-0.271167 26:-0.821182 27:-1.317287 28:0.934556 29:1.460011 30:-0.714530 31:-0.137166 32:0.768422 33:1.256749 34:-1.003803 35:0.415062 36:-0.350555 37:-1.236777 38:0.871050 39:1.641027 40:-0.696285 41:-0.352717 42:-1.422100 43:-0.872451 44:0.503594 45:0.139350 46:1.345982 47:0.423420 48:0.254811 49:-1.639079 50:-0.970954 51:-1.209166 52:-1.234435 53:0.527555 54:-0.144284 55:-1.564889 56:0.350074 57:0.795680 58:0.188956 59:-1.027010 60:0.394251
-1 1:-0.648420 2:-1.914678 3:0.878278 4:-0.473525 5:0.569575 6:-0.403485 7:-0.121915 8:1.098675 9:1.580258 10:-0.320480 11:-0.090082 12:-2.912356 13:1.257328 14:-0.316539 15:1.104656 16:-1.133904 17:-0.075766 18:0.065277 19:1.220959 20:-0.263139 21:-0.778094 22:1.252583 23:0.477088 24:-0.162774 25:1.447839 26:1.414037 27:-0.358573 28:-0.615376 29:-0.865972 30:-0.706774 31:-1.112812 32:-0.381145 33:0.200253 34:0.761489 35:1.396127 36:0.032239 37:-0.210965 38:-1.197892 39:0.700809 40:-0.960988 41:1.335328 42:0.594470 43:0.612298 44:2.129851 45:-1.421214 46:-2.781432 47:-0.605760 48:-1.966005 49:1.180394 50:2.791012 51:-1.058858 52:-0.500458 53:0.098353 54:-0.100006 55:-1.602231 56:0.393340 57:-0.321923 58:-1.645675 59:-1.161081 60:1.673617
-1 1:2.439956 2:2.447745 3:0.531930 4:0.651524 5:-0.318284 6:0.900559 7:-0.487590 8:-1.230467 9:0.198137 10:1.058071 11:0.251499 12:0.769030 13:-0.540799 14:-1.524137 15:2.175627 16:-2.880999 17:-0.491133 18:0.805187 19:-1.057920 20:-1.042327 21:-0.378061 22:0.844505 23:0.906694 24:0.368981 25:-1.114058 26:0.334682 27:-2.106704 28:0.399120 29:-1.642219 30:-0.047371 31:-0.283302 32:0.603591 33:-0.653888 34:0.633261 35:0.587311 36:1.211073 37:0.351427 38:-0.639329 39:0.113682 40:-0.089948 41:0.182473 42:-1.022908 43:-0.302480 44:-0.685238 45:0.235534 46:-0.181999 47:1.063966 48:-0.079773 49:0.515857 50:-0.151714 51:0.657224 52:-1.084477 53:-1.302813 54:-1.983218 55:-0.432888 56:0.445768 57:0.473568 58:-1.307674 59:0.047014 60:1.007039
-1 1:-1.167671 2:-0.508221 3:0.538512 4:0.314930 5:-1.438252 6:-0.600395 7:-0.933239 8:2.654266 9:1.623868 10:0.879698 11:-0.605361 12:-1.180620 13:-1.780361 14:0.877750 15:-0.438693 16:0.481858 17:0.495014 18:-1.063146 19:-1.638203 20:-0.151845 21:-1.144076 22:0.692261 23:0.956964 24:-0.257969 25:-0.920496 26:-0.129892 27:1.037917 28:0.703913 29:1.507613 30:0.490441 31:1.354232 32:-0.057168 33:1.416995 34:-0.490750 35:0.068543 36:1.309328 37:1.116286 38:1.385458 39:-0.256294 40:0.697099 41:0.149910 42:1.427357 43:-0.615445 44:-0.785255 45:1.441803 46:-0.775173 47:-0.331813 48:0.538141 49:-0.535207 50:-0.134225 51:-0.527167 52:0.221775 53:-0.130337 54:0.295073 55:-0.420650 56:-1.338836 57:0.168067 58:0.303693 59:-0.731873 60:-0.778390
-1 1:0.098210 2:-0.186473 3:-0.429191 4:0.840296 5:-0.218062 6:-0.576956 7:-0.571005 8:0.310987 9:1.056148 10:-0.626824 11:0.351424 12:1.156782 13:-0.536523 14:2.102259 15:0.804347 16:0.989439 17:0.886937 18:0.423083 19:0.608449 20:1.296560 21:-1.186434 22:-1.635770 23:0.293431 24:-0.001657 25:0.760419 26:-0.470173 27:1.147961 28:-2.055879 29:1.341360 30:-0.607354 31:-0.486696 32:0.519501 33:-1.339393 34:0.876143 35:0.153324 36:0.017680 37:0.993230 38:-1.058730 39:-0.758072 40:0.404922 41:1.455177 42:0.662691 43:1.761928 44:0.472840 45:-0.534284 46:-1.207405 47:-1.009591 48:1.462858 49:-1.390407 50:-0.654155 51:0.127458 52:-0.378158 53:0.131401 54:0.222560 55:-0.360520 56:1.046016 57:-0.244162 58:-0.049788 59:0.660032 60:-0.158573
-1 1:-0.539122 2:0.722678 3:-1.672119 4:0.293922 5:0.324734 6:-0.784791 7:-0.082855 8:-0.383937 9:-0.944099 10:-1.847389 11:0.616557 12:-0.235995 13:-1.927130 14:0.688477 15:-0.565858 16:0.779742 17:1.543836 18:0.683432 19:0.516338 20:-0.690118 21:-0.622488 22:-0.368828 23:0.760290 24:0.881004 25:-0.400001 26:1.415675 27:0.904496 28:-1.133202 29:-1.488197 30:-1.326297 31:0.513284 32:0.337003 33:-0.592975 34:0.464240 35:0.238101 36:-2.397570 37:1.384419 38:0.518189 39:-1.081750 40:-0.175466 41:-0.455902 42:1.487086 43:-0.717325 44:0.716985 45:1.863323 46:-1.060741 47:-0.358220 48:-0.756487 49:0.271051 50:-0.019678 51:0.286824 52:0.586868 53:-0.230858 54:-0.069804 55:1.518947 56:-1.042288 57:0.789504 58:0.892111 59:0.133991 60:1.723321
-1 1:-1.185690 2:1.438687 3:0.840782 4:0.548439 5:0.041347 6:-0.480844 7:-0.020795 8:-1.165100 9:-0.911261 10:-1.080498 11:-1.589821 12:-1.000109 13:-0.632657 14:-0.570827 15:-1.112106 16:0.271225 17:2.147961 18:0.419383 19:1.954817 20:0.839085 21:-0.963584 22:-0.151380 23:0.325095 24:-0.236412 25:0.591651 26:0.719451 27:-0.567009 28:-1.097085 29:-1.417924 30:-0.448040 31:1.697499 32:-1.545253 33:-0.380199 34:0.683179 35:-1.582821 36:-0.409799 37:1.527556 38:-0.510290 39:1.361239 40:-1.254269 41:0.453098 42:-0.115833 43:0.558613 44:0.579462 45:0.499098 46:-0.922766 47:1.284536 48:0.165251 49:-0.178167 50:-1.703810 51:-1.996296 52:-0.620951 53:-1.328320 54:-0.932282 55:-1.190873 56:-1.501926 57:-1.354945 58:-0.907979 59:-0.447089 60:1.195937
-1 1:1.654886 2:1.190332 3:-1.605838 4:-1.032946 5:0.891165 6:1.635003 7:0.700255 8:0.194083 9:0.206815 10:0.473541 11:0.568991 12:-2.060547 13:-0.033674 14:1.678045 15:-0.691689 16:0.983051 17:0.262678 18:0.695959 19:1.685453 20:0.050425 21:0.120548 22:0.434836 23:-0.495945 24:0.302945 25:0.146448 26:0.431953 27:0.449128 28:-0.277372 29:-0.664199 30:0.925098 31:-0.545263 32:-0.414993 33:-0.115859 34:-0.961128 35:-0.865109 36:1.667711 37:0.857533 38:-1.026187 39:-0.768357 40:-0.767347 41:1.294113 42:0.849591 43:0.027620 44:0.209408 45:1.087193 46:-0.678815 47:0.041072 48:0.213763 49:-0.342014 50:-0.220103 51:-0.929743 52:-0.616946 53:0.915762 54:-0.357245 55:-2.108506 56:0.424374 57:1.763897 58:-0.267246 59:0.830934 60:1.108714
-1 1:-0.559901 2:-0.838106 3:0.091238 4:0.455110 5:-0.068710 6:-0.204604 7:-0.202478 8:0.717705 9:-0.353092 10:1.085459 11:0.548988 12:-0.043773 13:1.828977 14:-2.294329 15:-1.948483 16:-0.436731 17:-0.066945 18:-0.206299 19:0.268961 20:-0.112615 21:-0.349251 22:1.237888 23:1.954763 24:1.098622 25:-0.077883 26:-1.690844 27:-1.512305 28:-0.457326 29:-0.366116 30:0.577451 31:1.127310 32:-0.613934 33:0.190066 34:1.801893 35:0.402071 36:-1.691645 37:0.293889 38:1.273186 39:-3.142713 40:-0.253431 41:0.885409 42:1.324630 43:0.088010 44:-0.910818 45:0.990761 46:-0.028077 47:0.346496 48:-0.538239 49:1.051457 50:0.486615 51:0.173211 52:1.382562 53:-0.501885 54:-1.410933 55:-0.132293 56:-1.114576 57:-0.524966 58:-0.624898 59:-0.335707 60:-0.895352
-1 1:-0.364870 2:0.371877 3:0.479125 4:1.409715 5:0.859674 6:-0.173408 7:0.408323 8:-0.962436 9:-0.250671 10:0.931258 11:-0.364221 12:0.106965 13:0.336425 14:1.590767 15:-0.803355 16:-0.044271 17:-0.968734 18:0.305819 19:0.112991 20:-0.110940 21:1.165806 22:-1.095907 23:0.522597 24:0.667943 25:-0.509343 26:1.352161 27:1.039949 28:0.920443 29:-0.221800 30:-1.626959 31:1.079800 32:-1.747980 33:-1.015273 34:-0.160761 35:0.218888 36:-0.952780 37:-0.846443 38:0.445715 39:0.346161 40:0.621277 41:2.109014 42:-1.493226 43:-0.698019 44:0.412003 45:0.137445 46:-0.278363 47:-0.124166 48:0.862058 49:0.131703 50:0.182951 51:0.165889 52:-0.639846 53:-0.389749 54:-0.011252 55:0.759461 56:0.527623 57:-2.914300 58:-1.460947 59:0.917591 60:0.835242
-1 1:-1.381684 2:-0.686411 3:0.868580 4:-0.179441 5:0.169639 6:0.814682 7:0.133043 8:0.312504 9:1.304979 10:0.902807 11:-1.964806 12:0.352753 13:-0.363879 14:0.230061 15:0.730767 16:0.187265 17:-0.306551 18:0.183283 19:1.769399 20:-1.470723 21:-0.312744 22:-0.617865 23:-0.187737 24:0.326463 25:-0.419977 26:-0.046845 27:-2.107534 28:0.046212 29:0.041766 30:0.540007 31:-0.734111 32:-0.483795 33:-0.433341 34:-0.924362 35:0.878720 36:0.029080 37:-0.008164 38:0.103987 39:2.036291 40:-0.096820 41:-0.366890 42:0.735911 43:-0.473511 44:-0.830793 45:-0.355551 46:0.710556 47:0.180517 48:1.295030 49:-0.844406 50:-0.395090 51:-2.067390 52:-1.239022 53:-0.274752 54:-0.841326 55:1.136379 56:-0.829040 57:1.824484 58:1.652377 59:0.536467 60:-0.294917
-1 1:-0.207883 2:0.263431 3:1.016971 4:-0.720470 5:-0.484076 6:-0.309553 7:-1.064184 8:2.372429 9:1.020241 10:0.045083 11:0.637628 12:0.139062 13:-0.880678 14:0.533241 15:0.082381 16:0.420991 17:-0.817330 18:-1.123289 19:-1.547615 20:0.814395 21:0.163485 22:0.337517 23:-0.276202 24:-0.352105 25:0.224493 26:-0.397283 27:0.713428 28:-0.962928 29:-0.036120 30:-0.580163 31:-0.754663 32:0.214784 33:0.854997 34:-1.536291 35:-0.874353 36:-0.004312 37:-1.384575 38:0.537707 39:-0.518331 40:-1.375445 41:-1.926927 42:-0.125204 43:-0.542029 44:1.382668 45:0.245284 46:1.409732 47:0.332318 48:0.897062 49:-0.832237 50:-0.255093 51:1.048161 52:0.550901 53:-1.295180 54:0.474382 55:0.066902 56:-1.779368 57:-1.385838 58:-1.178897 59:-0.126353 60:-0.795810
-1 1:-0.800309 2:0.190579 3:-0.282485 4:-2.099818 5:-2.546247 6:-0.874784 7:-0.011838 8:0.226826 9:-0.356736 10:-2.071798 11:0.417593 12:0.769666 13:-0.225871 14:-1.109988 15:1.594397 16:1.179941 17:-0.651886 18:0.220235 19:0.273065 20:-0.538983 21:0.040436 22:1.100292 23:1.038102 24:-0.604658 25:0.231101 26:-1.846960 27:1.382122 28:-2.266888 29:1.183010 30:0.014099 31:0.492068 32:-0.092030 33:0.089373 34:-0.265536 35:-0.405706 36:0.379814 37:0.902923 38:-0.556661 39:1.097455 40:0.516186 41:0.587929 42:-0.964522 43:-0.179800 44:-1.666447 45:-0.387139 46:-0.842928 47:-1.221582 48:0.741851 49:-0.388533 50:0.140719 51:-1.052864 52:0.433223 53:0.961677 54:-1.881466 55:-1.356997 56:-0.592941 57:0.257586 58:0.657706 59:2.488832 60:1.767611
-1 1:-0.593163 2:-1.064873 3:-1.114285 4:-1.149328 5:0.411188 6:0.309310 7:-0.814790 8:0.622952 9:-0.285422 10:-0.087746 11:2.242748 12:-1.148363 13:-1.026464 14:-0.891570 15:0.208128 16:-2.502010 17:1.463441 18:-0.773718 19:1.078089 20:-0.794633 21:-0.784128 22:0.248460 23:1.166684 24:0.537412 25:1.419489 26:0.307863 27:0.834253 28:0.649695 29:-0.259906 30:0.307468 31:-0.642883 32:-1.799829 33:-0.230563 34:1.033098 35:-0.147846 36:-0.905637 37:1.195570 38:-0.468478 39:-0.079827 40:2.353133 41:0.637240 42:-1.129820 43:-1.264712 44:0.789014 45:-0.100542 46:0.713897 47:0.813105 48:0.792928 49:0.440742 50:-0.480944 51:0.001989 52:-0.547300 53:-0.793386 54:-1.342637 55:-2.282254 56:-0.837805 57:1.504287 58:-1.272187 59:1.014276 60:1.111201
-1 1:0.893696 2:0.226642 3:0.776962 4:1.113085 5:0.531052 6:1.351022 7:-1.184198 8:-0.439164 9:0.995052 10:-0.188902 11:-0.695974 12:0.122399 13:0.520389 14:-1.722978 15:0.673905 16:1.302334 17:-0.051883 18:0.288753 19:-2.638295 20:-0.160326 21:-0.162263 22:0.196994 23:0.150943 24:1.016919 25:-1.108990 26:-0.257902 27:-0.817177 28:-1.341589 29:0.315091 30:0.256809 31:0.084319 32:-1.010003 33:0.083113 34:-1.232060 35:1.284716 36:-1.094961 37:-1.110589 38:-1.096423 39:-1.194719 40:-0.174124 41:-1.148459 42:-0.349703 43:0.672293 44:-0.071499 45:1.382200 46:0.892249 47:1.286472 48:-0.382035 49:0.041426 50:1.474527 51:0.540337 52:1.653545 53:-1.253159 54:-0.682934 55:-0.307412 56:0.222583 57:-0.424468 58:-0.719620 59:-0.409558 60:-0.810691
-1 1:-0.314112 2:0.264055 3:-0.928328 4:0.632827 5:-0.202980 6:-1.880301 7:-1.257749 8:1.608948 9:-1.157976 10:-0.272646 11:1.586383 12:-0.684025 13:-0.340521 14:-1.697533 15:1.031313 16:-0.496242 17:0.935744 18:-1.060099 19:-1.528568 20:0.008464 21:-1.153631 22:0.468159 23:0.272673 24:-1.270783 25:0.261650 26:-0.986127 27:-0.735667 28:0.865102 29:-0.207023 30:-0.650898 31:0.410204 32:1.200589 33:-0.691033 34:1.659847 35:1.020130 36:1.289894 37:-1.024431 38:-2.697506 39:0.669313 40:-0.268465 41:0.860336 42:-1.489791 43:-0.183297 44:1.208728 45:-0.394346 46:-0.117383 47:-3.177724 48:-0.886451 49:0.168403 50:-0.752582 51:-0.828903 52:0.625230 53:-0.160976 54:-0.638008 55:0.362795 56:0.605327 57:-0.968956 58:0.558596 59:-0.839343 60:0.876354
-1 1:-0.893115 2:0.847268 3:1.511513 4:-2.201267 5:-0.503046 6:0.305213 7:-0.861309 8:0.058937 9:0.484143 10:0.988537 11:1.190222 12:0.850846 13:1.311375 14:0.179080 15:0.647405 16:0.415265 17:0.834701 18:-2.351516 19:0.476086 20:1.178555 21:-0.385692 22:-1.106927 23:-1.287803 24:1.628080 25:1.567016 26:0.099132 27:2.352334 28:-1.025071 29:-0.934195 30:-0.182218 31:-0.881625 32:0.635670 33:-1.957339 34:1.111778 35:-0.172548 36:-1.670906 37:-0.687947 38:1.820772 39:1.714896 40:1.034537 41:0.324931 42:0.051806 43:0.299598 44:-1.684598 45:-0.108929 46:-0.015388 47:2.179254 48:-1.533990 49:0.284942 50:-2.581317 51:0.425036 52:-0.698211 53:0.659433 54:-1.865544 55:0.718348 56:0.172009 57:-0.351378 58:0.699596 59:0.560306 60:-0.414834
-1 1:1.379327 2:-1.019629 3:1.257534 4:-1.126670 5:1.845506 6:-1.356299 7:1.315928 8:1.970997 9:-0.435871 10:1.357949 11:0.792616 12:1.177657 13:0.731032 14:0.743521 15:-1.552365 16:0.797287 17:0.884687 18:0.656748 19:0.548029 20:0.377067 21:-0.336467 22:-0.866672 23:0.576735 24:-0.809333 25:0.429903 26:1.181539 27:-1.234422 28:0.380425 29:0.777146 30:-0.536940 31:1.978858 32:0.374282 33:0.312366 34:0.887290 35:-0.336270 36:-0.274550 37:0.227410 38:-1.988928 39:-0.681223 40:-0.222514 41:0.078680 42:1.825371 43:1.561599 44:0.365374 45:-0.210107 46:1.062489 47:-1.273133 48:-0.822888 49:0.053360 50:1.271513 51:0.808593 52:-0.941199 53:-1.256759 54:-0.528273 55:-1.113049 56:0.225177 57:2.447182 58:-0.495937 59:0.259244 60:-0.797327
-1 1:0.223980 2:-1.982518 3:1.237079 4:-0.068259 5:-1.634860 6:0.696805 7:-1.222970 8:-0.420843 9:0.879455 10:-0.390214 11:0.509601 12:-0.044655 13:-1.283777 14:0.771708 15:0.914102 16:0.235671 17:0.671516 18:-0.506878 19:-0.402415 20:0.702051 21:0.549709 22:1.674213 23:1.053799 24:-0.186424 25:-0.633066 26:-0.610374 27:0.167266 28:1.194138 29:1.485850 30:1.190527 31:1.536900 32:1.340572 33:-0.038223 34:2.187109 35:0.396344 36:0.686844 37:0.091967 38:0.135696 39:-0.304425 40:0.263559 41:-0.560819 42:-0.091861 43:-1.026348 44:-1.115297 45:-1.301400 46:0.051141 47:-1.599911 48:0.255609 49:-0.213139 50:-0.194684 51:-0.195963 52:-0.076114 53:-2.070290 54:-0.488173 55:-0.796472 56:0.478621 57:0.087579 58:-0.178071 59:-0.028973 60:-1.040509
-1 1:-0.375783 2:-0.018056 3:-1.863070 4:-2.127689 5:0.604610 6:-0.114856 7:-1.585997 8:-1.427275 9:-0.413879 10:-0.379424 11:1.492215 12:0.603169 13:-1.641420 14:0.516598 15:0.019170 16:0.063856 17:0.546298 18:0.039737 19:1.424042 20:1.115016 21:0.242032 22:-0.341096 23:1.047268 24:0.865381 25:1.119194 26:-1.618880 27:-0.245237 28:-0.560342 29:-0.666128 30:-2.279451 31:-0.829055 32:-0.808382 33:0.730411 34:0.222908 35:0.049001 36:-0.876430 37:0.287303 38:0.573649 39:-0.906261 40:1.164785 41:-0.660529 42:-0.743153 43:2.142450 44:-1.660137 45:-0.277327 46:-0.763141 47:-0.908934 48:-0.595953 49:-0.144487 50:0.265625 51:0.893981 52:0.420349 53:-0.860059 54:0.345870 55:-0.623050 56:-0.685245 57:0.461489 58:-1.499861 59:-0.163466 60:0.777453
-1 1:-1.975506 2:-0.527986 3:1.344481 4:-1.290021 5:1.080904 6:1.438888 7:-1.399734 8:1.060751 9:-0.388981 10:-0.475745 11:-1.140623 12:0.908186 13:0.725838 14:0.391435 15:-0.673135 16:0.854907 17:1.333431 18:-0.640573 19:-2.400489 20:0.317336 21:-0.116271 22:1.671910 23:0.074562 24:0.342905 25:-1.882136 26:-0.555319 27:-0.921168 28:-0.421752 29:-1.858244 30:1.674424 31:0.709292 32:0.604246 33:-1.160209 34:1.654620 35:0.907687 36:-0.334639 37:-0.951606 38:-0.199233 39:-1.405471 40:-1.657831 41:0.249323 42:2.113434 43:-0.535189 44:-1.565608 45:-2.288363 46:-0.156193 47:-0.989553 48:-0.599968 49:0.205829 50:0.872038 51:-0.752988 52:1.774882 53:0.411551 54:1.425089 55:-0.674540 56:-0.072653 57:1.698262 58:0.230877 59:2.128006 60:-2.230438
-1 1:0.107111 2:-0.051351 3:1.654891 4:0.043261 5:0.970737 6:-1.167502 7:-0.408365 8:0.196983 9:0.342116 10:0.353514 11:0.115426 12:-0.523326 13:-0.586633 14:-0.963458 15:-1.512860 16:0.189771 17:0.621381 18:-2.331436 19:0.046447 20:2.190440 21:-0.258624 22:0.842025 23:0.336768 24:-0.528762 25:0.646420 26:1.216723 27:0.934971 28:-1.660211 29:1.344678 30:0.506834 31:0.311292 32:-0.080919 33:1.752434 34:0.942409 35:-1.553394 36:-2.213953 37:-0.846868 38:0.437387 39:-0.558931 40:-0.919199 41:-0.555343 42:-0.775665 43:1.485091 44:-1.357309 45:1.834533 46:0.457696 47:0.079334 48:0.260312 49:-1.872630 50:-1.333233 51:-0.701024 52:-0.181359 53:0.409731 54:-0.668312 55:0.925989 56:-0.256549 57:2.595788 58:-0.177005 59:0.587058 60:-0.255003
-1 1:-0.564990 2:-0.126629 3:0.487052 4:-0.727080 5:-0.286000 6:-0.596806 7:0.093232 8:-0.942375 9:-1.372119 10:-1.488771 11:0.003765 12:0.601836 13:1.145635 14:-0.846800 15:0.175494 16:-0.558169 17:1.132847 18:0.389958 19:-1.097479 20:-0.862115 21:0.368320 22:0.370497 23:-0.875399 24:-1.255524 25:-0.077256 26:0.431453 27:0.433450 28:-0.198040 29:-0.580774 30:0.019212 31:0.237580 32:1.104877 33:1.250037 34:0.489968 35:0.604377 36:1.702707 37:-0.759235 38:1.540598 39:-0.446476 40:-0.578039 41:0.636738 42:0.795566 43:-0.431040 44:-1.353782 45:-1.370124 46:-0.557920 47:-0.372816 48:-0.820181 49:-0.156056 50:0.045481 51:-0.586589 52:-1.920923 53:0.082862 54:0.959702 55:0.036021 56:0.895987 57:-0.177632 58:1.566001 59:-0.939158 60:-0.314012
-1 1:-0.563491 2:-0.640519 3:-0.180990 4:1.139542 5:0.390844 6:-0.580516 7:-0.368855 8:1.320501 9:0.612448 10:0.642870 11:-0.597218 12:0.973467 13:-2.725130 14:2.257953 15:0.346778 16:-1.501100 17:-1.441638 18:-0.821653 19:-0.543215 20:-1.159518 21:-0.627796 22:1.220108 23:-0.199963 24:0.573659 25:1.233092 26:-0.491288 27:-1.055733 28:2.346966 29:-0.183178 30:1.756569 31:0.756573 32:0.383205 33:1.130034 34:-0.219008 35:-0.035718 36:2.745787 37:-0.139052 38:-0.057109 39:-0.972921 40:1.869134 41:1.128347 42:1.082635 43:-0.191502 44:-1.573662 45:1.386542 46:0.015726 47:-1.312567 48:-1.934191 49:0.634129 50:0.460819 51:-1.424118 52:-0.013674 53:0.659372 54:1.243271 55:0.339982 56:1.366069 57:-0.187864 58:-2.924508 59:0.295906 60:1.595000
-1 1:0.146352 2:-0.042136 3:-0.183688 4:-1.377705 5:-0.369414 6:-0.017404 7:-0.132110 8:-0.938308 9:-1.152390 10:0.541253 11:0.931584 12:-0.787909 13:0.005845 14:-1.141171 15:-1.185833 16:2.399347 17:1.777723 18:-1.427284 19:-0.114226 20:-0.228760 21:-0.122476 22:1.592298 23:0.845244 24:1.313632 25:-0.435383 26:0.921058 27:0.652519 28:1.212275 29:0.764799 30:0.520977 31:1.387875 32:0.724460 33:-2.159274 34:-0.823232 35:-1.849448 36:1.396484 37:0.932965 38:-1.995648 39:-0.865948 40:-0.413146 41:0.391194 42:-0.892083 43:1.204780 44:0.833696 45:-2.169390 46:-1.745351 47:-1.165703 48:-2.301412 49:1.053619 50:-0.911329 51:0.370941 52:-1.124357 53:-1.278008 54:-1.370500 55:-0.626748 56:-0.348781 57:-0.264683 58:-0.711974 59:-0.824419 60:-1.828430
-1 1:1.099546 2:0.111462 3:-0.647392 4:0.389195 5:-0.985596 6:0.110278 7:0.867804 8:0.362109 9:1.676007 10:0.350349 11:-0.507436 12:-0.813346 13:1.699559 14:-2.504534 15:-1.780442 16:0.036717 17:-0.053531 18:-0.662287 19:-0.085267 20:0.045640 21:0.654917 22:0.989266 23:-0.201834 24:0.194790 25:0.558889 26:-0.158745 27:0.657059 28:0.336600 29:-0.603210 30:1.186675 31:-1.522795 32:-1.898788 33:-0.953059 34:0.285447 35:-0.124519 36:2.038238 37:1.228800 38:-0.654882 39:1.739443 40:-0.772211 41:-0.687663 42:-1.924142 43:-0.669094 44:-0.708640 45:-0.780044 46:0.582948 47:-1.302993 48:-0.550823 49:0.144806 50:0.716405 51:0.047230 52:-0.849501 53:-0.356738 54:1.115505 55:-0.745119 56:-0.817376 57:-0.299905 58:-0.644213 59:0.456482 60:-0.088144
-1 1:-0.808827 2:-1.034718 3:1.266090 4:-0.719647 5:0.564150 6:0.874291 7:0.324078 8:-1.000891 9:-1.252897 10:-1.860843 11:0.792504 12:0.061986 13:-0.866301 14:-0.352098 15:-1.659800 16:-1.264610 17:-1.378955 18:0.481194 19:0.153551 20:-0.401317 21:0.337757 22:-1.050411 23:1.085514 24:-0.171930 25:-0.780106 26:-1.002206 27:2.189647 28:0.837665 29:0.002969 30:-0.743124 31:0.439902 32:-1.104645 33:-1.170795 34:0.689069 35:-1.717500 36:-0.943623 37:-0.030057 38:-0.300911 39:-1.632851 40:0.002514 41:1.149692 42:-0.410583 43:0.053799 44:0.702232 45:-1.439290 46:0.930187 47:0.004188 48:-1.319482 49:1.228898 50:0.454598 51:-0.768703 52:-1.406630 53:1.438800 54:-0.499307 55:0.823805 56:-0.156548 57:-2.309817 58:0.559582 59:2.177626 60:0.386261
-1 1:-0.537876 2:1.258620 3:0.306349 4:0.875360 5:0.524613 6:-0.713420 7:0.893256 8:-0.683264 9:-1.240472 10:0.116799 11:0.233296 12:0.402791 13:0.437855 14:0.049197 15:-0.638174 16:0.569575 17:-0.912539 18:0.333906 19:-1.086107 20:0.481701 21:-0.777968 22:-0.216670 23:0.282430 24:-0.525885 25:-2.053844 26:-0.433956 27:-0.274711 28:1.023166 29:-0.186803 30:0.269794 31:0.870438 32:0.499016 33:0.104401 34:-0.773198 35:-2.456557 36:0.140306 37:-1.566706 38:0.279055 39:0.753484 40:1.549471 41:-0.102405 42:0.175070 43:0.734265 44:-0.456983 45:0.018565 46:-0.250543 47:0.176065 48:0.649402 49:0.024445 50:-1.076856 51:1.736402 52:0.614872 53:0.875756 54:0.729999 55:0.252554 56:0.667753 57:-0.874599 58:-0.508910 59:0.743676 60:1.503716
-1 1:-1.815654 2:-0.873386 3:0.012746 4:-0.570082 5:-0.415329 6:-0.220241 7:1.012284 8:-1.319877 9:-0.958210 10:0.157716 11:1.382785 12:0.562861 13:0.167681 14:0.326143 15:-2.255700 16:-0.988560 17:0.076469 18:-0.432147 19:-0.881583 20:-0.109573 21:0.104676 22:-1.260439 23:-0.311509 24:-1.928953 25:0.156235 26:-1.383339 27:1.512638 28:1.368460 29:-2.123173 30:0.364633 31:-0.791030 32:-0.938202 33:-0.279884 34:-2.460942 35:0.203481 36:0.374486 37:-1.540002 38:-0.886834 39:-0.140426 40:-1.031583 41:-1.534463 42:0.334499 43:2.868528 44:-2.564084 45:-0.024403 46:1.872876 47:-0.830807 48:0.113136 49:-0.047089 50:-0.129740 51:0.190635 52:-0.990576 53:-1.446038 54:1.782943 55:1.391883 56:-0.439166 57:0.805392 58:1.242855 59:1.648192 60:0.383349
-1 1:1.002038 2:0.032700 3:-0.198887 4:2.155655 5:0.219333 6:-1.555348 7:-1.180253 8:0.773871 9:-0.887270 10:-0.539430 11:0.122583 12:-1.235828 13:1.647987 14:-1.439347 15:-0.152744 16:-0.772583 17:1.932634 18:0.632564 19:-0.029203 20:-0.149487 21:-0.161038 22:-0.278452 23:0.523492 24:1.229993 25:1.531915 26:-0.774716 27:0.655872 28:0.560625 29:-0.656457 30:-0.420750 31:0.943179 32:0.489001 33:0.098031 34:0.883662 35:1.537339 36:-2.687855 37:1.979751 38:1.349710 39:1.233313 40:1.372344 41:1.060549 42:0.323581 43:0.093715 44:-1.043323 45:-0.165294 46:-0.468772 47:-0.753362 48:-0.384382 49:-0.949637 50:0.720096 51:0.847255 52:0.775598 53:-0.684898 54:-0.624577 55:2.149101 56:-1.855940 57:-0.746667 58:1.071043 59:-0.441899 60:-0.376061
-1 1:-0.340260 2:-0.421198 3:1.637924 4:-0.793014 5:-0.889964 6:0.327616 7:0.173883 8:0.752716 9:-0.028066 10:0.499688 11:-0.700641 12:-0.219071 13:0.300997 14:0.504065 15:-1.485276 16:0.544723 17:-1.081613 18:-0.978267 19:-0.227798 20:0.321388 21:-0.327488 22:0.573579 23:1.179300 24:0.513728 25:0.828700 26:-0.825545 27:0.291172 28:-1.936171 29:0.232006 30:0.058640 31:-0.783695 32:-1.461397 33:-0.867040 34:-1.491120 35:0.054054 36:0.344090 37:0.771315 38:-0.080064 39:0.585622 40:-0.641715 41:-0.665241 42:-1.039643 43:0.250457 44:-0.720831 45:-0.270772 46:0.793156 47:0.992154 48:-0.234054 49:-0.998819 50:-2.083955 51:0.312745 52:-0.577249 53:-2.190618 54:0.624615 55:-0.791750 56:-0.140437 57:-2.164425 58:0.606425 59:0.910239 60:-1.567123
-1 1:-0.056499 2:-0.130256 3:0.240797 4:-0.269521 5:-0.679964 6:-0.346998 7:-0.687166 8:0.596260 9:-0.107881 10:0.747716 11:-0.954548 12:0.942832 13:0.603325 14:0.357528 15:0.301578 16:0.911185 17:0.346699 18:-0.162089 19:0.608065 20:-1.490198 21:1.515414 22:-0.334084 23:1.110690 24:0.503866 25:1.574578 26:1.410779 27:-0.891136 28:-0.716448 29:-0.388527 30:-0.375123 31:-1.030782 32:-0.806695 33:-0.260703 34:0.797050 35:0.319020 36:-0.564544 37:-0.340581 38:-0.745725 39:1.504594 40:0.353065 41:0.850460 42:1.253068 43:0.017968 44:-1.105224 45:1.302205 46:0.213748 47:0.596970 48:0.817856 49:-1.143138 50:-0.145600 51:1.721749 52:-1.864861 53:-0.433947 54:-0.260497 55:0.061817 56:-1.548381 57:-0.571615 58:-0.280976 59:0.682664 60:-0.317887
-1 1:-0.005572 2:1.475434 3:-0.392450 4:-1.091666 5:1.646285 6:-0.533206 7:0.611707 8:0.510656 9:-0.028096 10:-1.952836 11:0.012371 12:-0.425251 13:0.915344 14:0.907687 15:-0.164866 16:0.680842 17:-1.533795 18:-0.934044 19:0.593961 20:2.559760 21:-0.316109 22:-0.268293 23:0.008782 24:-0.317605 25:-1.662096 26:-0.023307 27:-0.024685 28:1.822384 29:-0.929635 30:-1.268612 31:-0.473481 32:-1.265626 33:2.165961 34:2.139875 35:-0.198844 36:0.996386 37:-0.785814 38:-0.012463 39:0.947762 40:1.233134 41:1.016471 42:0.246046 43:-0.190180 44:2.032521 45:0.004693 46:-0.628376 47:1.543821 48:-0.929527 49:0.122091 50:-1.081945 51:0.697473 52:1.144104 53:-0.273670 54:-1.213007 55:-1.509657 56:-0.726648 57:0.488157 58:1.318892 59:-0.368859 60:1.475286
-1 1:-0.791728 2:0.914557 3:0.205045 4:-0.892666 5:0.720219 6:-0.990752 7:2.493862 8:-0.232612 9:-0.064295 10:0.775723 11:-1.867965 12:-1.359986 13:2.512938 14:0.387616 15:-0.181960 16:2.179047 17:0.231547 18:0.906811 19:1.866880 20:0.476489 21:-0.528146 22:0.418430 23:0.031028 24:1.128553 25:1.840358 26:-0.312238 27:-0.497134 28:-0.629940 29:0.239374 30:-0.052401 31:0.271653 32:0.348462 33:0.172947 34:2.015641 35:-0.718393 36:0.749252 37:1.305348 38:-0.993374 39:1.678002 40:0.238098 41:-0.333925 42:0.447342 43:0.150181 44:1.166338 45:1.832067 46:-1.930757 47:-0.532577 48:0.152802 49:0.838270 50:-0.084665 51:1.887662 52:-0.801887 53:0.183302 54:-0.618382 55:1.409079 56:0.607919 57:0.814091 58:-1.318413 59:1.036274 60:-1.181365
-1 1:2.494023 2:0.540601 3:-0.449510 4:-0.609393 5:0.396303 6:-0.077154 7:-0.265388 8:-0.446256 9:2.048784 10:-1.798758 11:-0.540011 12:-3.123322 13:0.223277 14:-0.554340 15:-1.352311 16:-1.164387 17:-0.964711 18:-0.169059 19:-1.023833 20:0.053129 21:-1.127051 22:-1.153134 23:0.370795 24:0.543616 25:1.258285 26:-1.405517 27:-1.093185 28:-0.804782 29:-0.768739 30:-0.296199 31:0.202816 32:-0.425477 33:-0.909797 34:0.150967 35:0.432638 36:1.217217 37:0.025249 38:-0.129413 39:0.154558 40:0.554117 41:-1.400088 42:0.677087 43:-1.509578 44:-0.633943 45:-0.661928 46:0.246206 47:0.168268 48:-0.079485 49:1.783156 50:-0.823134 51:0.099026 52:1.184194 53:1.360757 54:-0.895944 55:0.365392 56:1.261329 57:-1.310910 58:0.602278 59:-0.289369 60:0.785945
-1 1:0.033215 2:-2.225592 3:0.511339 4:-0.600403 5:1.282941 6:0.749724 7:0.341796 8:1.388081 9:-0.400608 10:0.325150 11:0.943280 12:-0.991502 13:1.253728 14:0.226594 15:0.729672 16:-0.808545 17:0.960846 18:0.991437 19:1.144767 20:0.013865 21:-0.409779 22:0.265905 23:0.466686 24:0.638893 25:-0.436364 26:-0.457713 27:-1.429872 28:0.954107 29:-0.352567 30:-0.515271 31:0.993135 32:-0.550900 33:-0.778714 34:0.259856 35:-0.981103 36:0.911035 37:-0.868906 38:-0.084935 39:0.941061 40:-0.197600 41:1.170256 42:-2.045704 43:-0.158065 44:-1.238713 45:-1.190608 46:-1.095785 47:-1.640195 48:1.521281 49:0.171746 50:-0.890140 51:0.583318 52:1.490310 53:-0.965162 54:1.114060 55:0.269637 56:1.673561 57:-0.312519 58:-0.283971 59:0.998092 60:1.399508
-1 1:1.167669 2:-1.180295 3:0.118950 4:0.401264 5:1.163255 6:0.932965 7:0.549258 8:0.033101 9:-1.596068 10:-0.531503 11:0.443420 12:0.970828 13:-0.714422 14:0.292043 15:1.459036 16:0.775332 17:-0.942581 18:1.032342 19:-1.505313 20:0.184967 21:-0.469064 22:-0.605910 23:0.727436 24:-0.458102 25:2.307877 26:1.327194 27:-0.641633 28:0.858829 29:0.342379 30:-1.445833 31:1.145088 32:-0.332397 33:1.095191 34:0.341542 35:-0.036127 36:-1.562133 37:2.074844 38:0.203465 39:-0.655372 40:-1.312631 41:0.158385 42:-0.666607 43:-0.939372 44:-1.731809 45:0.285254 46:-0.132935 47:0.662800 48:-0.128097 49:0.228922 50:0.007898 51:0.835632 52:0.992385 53:0.594059 54:-0.497099 55:-0.873201 56:-0.828559 57:-0.053422 58:2.313126 59:1.185712 60:1.768999
-1 1:-1.671281 2:2.111027 3:1.979411 4:0.645109 5:1.571816 6:-0.974763 7:0.282844 8:0.573893 9:-0.530083 10:-0.256677 11:1.986730 12:-0.345348 13:1.513549 14:0.816686 15:0.445373 16:0.734444 17:1.234702 18:0.018537 19:-0.487224 20:-1.754712 21:0.736530 22:2.166926 23:-0.462964 24:-1.374509 25:-1.405555 26:-0.504824 27:0.969928 28:-0.709898 29:-0.492768 30:-0.193274 31:-0.087020 32:-1.317671 33:-0.229793 34:-0.790877 35:0.517648 36:-1.609876 37:-0.640335 38:-0.611856 39:-1.023462 40:0.420501 41:-0.044419 42:-0.280726 43:-0.184862 44:-0.160225 45:-1.444418 46:-0.894958 47:-0.092741 48:-0.818188 49:1.219487 50:0.356110 51:2.660405 52:-0.396618 53:0.843675 54:1.094534 55:1.594897 56:-0.977337 57:-1.485040 58:-0.782019 59:0.161085 60:1.208095
-1 1:0.969089 2:0.467923 3:0.072219 4:1.099680 5:0.236975 6:2.135328 7:-0.492302 8:0.393964 9:-1.038690 10:0.393660 11:0.590325 12:0.091824 13:-0.579553 14:-0.233464 15:1.144230 16:-0.644674 17:-0.506307 18:-0.177105 19:0.011025 20:1.921956 21:-0.653840 22:2.405020 23:0.527282 24:-0.110074 25:0.028565 26:-0.034955 27:-0.289650 28:0.968113 29:-1.107127 30:-0.309142 31:-0.594331 32:0.931196 33:0.224921 34:0.158156 35:1.462908 36:1.306303 37:2.060371 38:1.613058 39:1.029167 40:-0.086253 41:1.127887 42:-0.923319 43:-0.470761 44:-0.862684 45:-1.351697 46:-0.315947 47:-0.560694 48:0.019249 49:-0.798223 50:-1.267608 51:-1.371869 52:0.045592 53:-1.951342 54:0.242356 55:-0.575264 56:0.672436 57:0.685314 58:0.150783 59:0.428762 60:-0.410195
-1 1:-0.863955 2:0.151576 3:0.112081 4:-1.578136 5:0.265236 6:-0.200162 7:0.437001 8:0.599129 9:1.257412 10:0.912669 11:1.265061 12:-0.405079 13:0.874487 14:0.119415 15:-0.055618 16:-2.485520 17:-1.800574 18:0.969057 19:-0.459635 20:1.166788 21:1.889161 22:-0.225587 23:-1.792981 24:-2.327751 25:1.757994 26:-0.442423 27:1.304288 28:0.356096 29:-0.110311 30:-0.561581 31:1.929011 32:-0.976484 33:-1.112321 34:-2.172330 35:0.515195 36:1.421978 37:0.048048 38:-0.034714 39:-0.183317 40:0.406131 41:0.056653 42:1.353593 43:-1.082102 44:-0.601903 45:0.593873 46:-1.290724 47:-0.109566 48:-1.474896 49:0.058958 50:-0.204252 51:-2.383668 52:-0.460744 53:-0.413590 54:-0.579692 55:1.545977 56:-1.704926 57:-2.634886 58:0.106910 59:-1.066079 60:-0.388815
-1 1:-1.096280 2:-0.003994 3:0.152296 4:-1.416479 5:-1.729544 6:-0.710662 7:1.829256 8:-0.037087 9:1.000281 10:0.531754 11:-0.886886 12:2.206074 13:0.329964 14:-0.295270 15:1.391611 16:-0.629191 17:-1.902841 18:2.764958 19:1.289215 20:-1.144448 21:0.010010 22:-0.797409 23:-0.101467 24:-0.884962 25:1.305089 26:-0.354843 27:-0.938623 28:1.077557 29:-0.611885 30:0.234347 31:-0.750690 32:-0.463576 33:0.255142 34:0.943536 35:-0.003131 36:-0.637929 37:-0.809402 38:0.509425 39:0.141843 40:0.031180 41:0.048973 42:-0.147231 43:-1.710620 44:0.271495 45:-1.012480 46:0.004261 47:0.750574 48:0.530615 49:-1.510378 50:-0.518811 51:0.648283 52:-1.141838 53:-0.374025 54:-1.832406 55:0.157496 56:1.442140 57:-0.747461 58:-0.048432 59:0.427782 60:-2.124800
-1 1:-1.406567 2:0.535656 3:-0.418168 4:0.425581 5:-1.071940 6:-1.057223 7:1.099710 8:0.337426 9:0.461812 10:-0.101531 11:-1.461908 12:-0.422979 13:-0.397019 14:-0.017737 15:-0.417831 16:-1.432322 17:-0.073379 18:-0.545982 19:0.287377 20:-0.138805 21:0.503334 22:-1.172376 23:-1.685680 24:0.323905 25:-2.301325 26:-0.457709 27:0.249296 28:0.749281 29:1.456984 30:-0.352294 31:-0.215379 32:-0.040656 33:0.070394 34:1.910962 35:0.585269 36:-0.447944 37:-0.214367 38:-1.070960 39:0.876822 40:-2.069119 41:-1.423803 42:1.275432 43:0.137263 44:-0.288924 45:0.918760 46:-0.338482 47:-0.926957 48:0.381488 49:-0.026153 50:0.434510 51:0.440037 52:-1.582824 53:-0.716716 54:-0.153894 55:-0.965604 56:0.772171 57:0.537649 58:-0.332802 59:-0.678650 60:-0.325937
-1 1:2.304881 2:-0.995828 3:-1.510462 4:-2.306946 5:0.150096 6:0.266434 7:0.675165 8:0.118550 9:-1.536404 10:2.145060 11:0.093699 12:0.167564 13:-0.985730 14:1.346660 15:-2.426966 16:0.021721 17:-1.403939 18:0.518448 19:0.516722 20:0.757520 21:-0.015071 22:-0.219485 23:1.166693 24:-1.449772 25:1.170547 26:1.437158 27:-1.757611 28:1.116032 29:1.152607 30:0.677108 31:-0.491495 32:1.221303 33:0.430864 34:-0.590984 35:-1.206013 36:-0.649806 37:0.866185 38:2.764330 39:0.680288 40:-0.020965 41:-0.058522 42:0.187199 43:0.864840 44:-0.353217 45:-0.604654 46:1.020437 47:0.933664 48:0.293074 49:0.065516 50:-0.829393 51:-1.299437 52:-0.820135 53:-0.135136 54:-1.847576 55:1.141166 56:0.811785 57:-0.371527 58:1.223080 59:0.332332 60:-0.676947
-1 1:-1.136216 2:1.198710 3:0.381003 4:0.737696 5:-0.789851 6:0.173325 7:-0.951093 8:0.540062 9:-0.895193 10:0.390874 11:0.841699 12:-0.273007 13:-0.621500 14:0.256347 15:0.242836 16:-0.378010 17:-0.257042 18:-1.233769 19:-0.212594 20:-1.951029 21:0.262086 22:-1.414058 23:0.498319 24:0.214698 25:0.113588 26:-1.206362 27:1.150485 28:0.938774 29:-1.748642 30:-1.300230 31:0.490491 32:-0.883174 33:0.396846 34:0.838870 35:-1.167596 36:-0.437077 37:0.037954 38:-0.901498 39:-1.328912 40:-0.213826 41:0.170392 42:1.333745 43:0.094879 44:-0.674795 45:-0.399311 46:-0.217365 47:0.947909 48:-1.316645 49:1.782330 50:0.545626 51:-0.101806 52:-0.348076 53:-2.842577 54:0.663831 55:-1.995210 56:-2.273463 57:0.638039 58:-2.034849 59:-0.779154 60:-1.838508
-1 1:-0.136986 2:0.255098 3:-0.110819 4:-0.968338 5:-0.681956 6:1.044067 7:-1.841353 8:1.033341 9:0.790575 10:0.512272 11:-2.255450 12:-0.454048 13:1.957690 14:-1.037152 15:0.985298 16:-1.059750 17:1.355020 18:0.708523 19:0.267009 20:0.139736 21:1.915931 22:1.089944 23:-1.428460 24:0.052312 25:0.265807 26:-0.634260 27:-0.125962 28:0.516720 29:-1.713948 30:-1.621793 31:0.347354 32:-0.436788 33:-0.219345 34:0.370396 35:0.713111 36:-1.476156 37:0.539544 38:-0.233235 39:0.137971 40:-1.491595 41:-0.357279 42:0.784047 43:-0.388210 44:-0.811946 45:-0.066033 46:-2.276845 47:-1.584162 48:-0.937405 49:0.432159 50:-0.438682 51:-1.036211 52:-0.816799 53:-0.022038 54:-0.184763 55:0.172825 56:1.328741 57:0.080942 58:-1.339669 59:1.895650 60:0.314543
-1 1:0.043162 2:-1.392550 3:-1.627807 4:0.852988 5:0.782488 6:1.495533 7:1.287658 8:0.783432 9:-1.167374 10:-1.314268 11:-1.239378 12:0.190159 13:0.682483 14:0.771794 15:0.825034 16:-0.432013 17:-0.703025 18:0.314680 19:-0.324426 20:0.727837 21:2.251005 22:1.112416 23:0.924721 24:-1.500278 25:2.381125 26:-0.512348 27:-0.055960 28:-0.460124 29:-0.147682 30:0.963414 31:-0.842644 32:-0.450811 33:-1.412469 34:0.378919 35:-1.886996 36:0.411448 37:-0.918243 38:0.105676 39:-0.967219 40:-1.567452 41:-0.042480 42:-0.438639 43:-2.152383 44:0.449403 45:0.272113 46:0.210889 47:1.566910 48:0.974169 49:0.894162 50:2.248605 51:-0.053058 52:-0.475445 53:0.170962 54:-1.332138 55:0.937384 56:-0.546851 57:0.501514 58:1.236882 59:-0.154989 60:-1.222746
-1 1:0.054094 2:-0.679281 3:-0.256262 4:0.069293 5:1.354449 6:0.133552 7:-1.624184 8:-0.965166 9:-0.424451 10:-1.474885 11:-0.106776 12:-1.097990 13:-1.291139 14:1.574990 15:-0.556619 16:0.402144 17:-1.015064 18:-0.542276 19:-0.240495 20:0.567307 21:-0.857048 22:2.259198 23:1.151451 24:1.137712 25:0.682937 26:0.444599 27:1.204063 28:-1.712684 29:-0.125175 30:2.173931 31:0.922164 32:0.201255 33:0.640310 34:-1.905233 35:0.567828 36:-0.458236 37:-0.883042 38:-0.481144 39:-1.188933 40:-0.723333 41:-0.095795 42:0.263144 43:0.682362 44:-0.863435 45:2.020313 46:0.846784 47:1.239189 48:-0.909419 49:-0.705057 50:1.363439 51:-0.205045 52:-1.182742 53:1.166784 54:-0.612178 55:0.101350 56:1.387698 57:-1.873967 58:-0.220698 59:0.213135 60:1.956060
-1 1:1.190612 2:0.875605 3:1.013944 4:-0.734431 5:0.474911 6:-0.789779 7:-0.759806 8:-0.385406 9:1.199589 10:0.129028 11:-1.278147 12:-0.173591 13:-2.415532 14:0.807129 15:0.552141 16:0.182125 17:-0.820593 18:-1.448142 19:-0.615560 20:0.184244 21:-0.820016 22:1.568896 23:0.595009 24:1.572576 25:-1.908654 26:0.869521 27:1.180790 28:-1.020302 29:1.272632 30:-2.117470 31:0.518906 32:0.708775 33:0.169854 34:0.012012 35:-1.270396 36:-0.268710 37:0.090197 38:-0.382212 39:-1.329322 40:-0.859111 41:0.514306 42:-1.252274 43:-0.241071 44:2.235265 45:0.079797 46:0.403652 47:1.312839 48:-1.307149 49:0.275814 50:-0.899273 51:-0.999346 52:0.643352 53:-1.024512 54:0.440783 55:-2.313873 56:-0.752801 57:-1.190498 58:-0.525034 59:0.111007 60:-0.363768
-1 1:-1.155056 2:0.121150 3:-0.525474 4:-0.920842 5:-0.859514 6:-0.309559 7:1.101307 8:-0.120560 9:0.033058 10:-0.319067 11:-0.255818 12:-2.655004 13:-0.717469 14:-0.814919 15:1.678193 16:0.000839 17:-1.432411 18:1.013337 19:-0.121253 20:0.499371 21:-0.226456 22:0.049148 23:1.387033 24:0.484907 25:-0.282165 26:-0.079513 27:2.003919 28:0.470754 29:0.478437 30:-0.310782 31:0.942432 32:-1.198555 33:-0.826702 34:-0.795808 35:1.010858 36:-0.414122 37:0.949934 38:-0.132936 39:2.858674 40:0.876758 41:-0.947915 42:0.392095 43:-0.499801 44:0.213321 45:-0.492334 46:-0.959865 47:0.083966 48:-0.883363 49:-0.641706 50:-2.043872 51:0.241921 52:0.020426 53:-0.160979 54:-1.946687 55:-0.507404 56:-0.013021 57:1.351352 58:0.131929 59:-0.545528 60:-1.141780
-1 1:-0.421369 2:0.747300 3:0.250393 4:-0.248343 5:0.962640 6:0.154105 7:-1.422039 8:0.026918 9:-0.438745 10:-0.920324 11:-1.075015 12:-1.183171 13:0.930095 14:0.451139 15:-0.413950 16:-1.801648 17:-0.210680 18:-0.734389 19:-2.539904 20:0.861989 21:-1.541231 22:-1.243007 23:-1.075566 24:-0.389700 25:-1.340490 26:1.141614 27:1.955638 28:-0.376087 29:0.465711 30:-0.794475 31:1.687797 32:1.850993 33:-0.407021 34:-0.952526 35:-0.200163 36:-0.605635 37:0.551267 38:0.416468 39:0.634340 40:-1.819239 41:-1.534987 42:-0.005440 43:0.960456 44:0.783800 45:0.636545 46:-1.086978 47:1.019442 48:0.683230 49:0.203527 50:-0.457948 51:-1.083500 52:0.048988 53:0.410937 54:-0.527645 55:1.278817 56:-0.475083 57:-1.190708 58:1.147509 59:0.873449 60:0.017148
-1 1:1.017315 2:0.463441 3:1.073929 4:1.787431 5:0.084254 6:0.686160 7:-0.128265 8:0.169959 9:-1.039678 10:0.467151 11:0.814886 12:1.615004 13:0.291959 14:-0.167285 15:0.525071 16:0.825975 17:0.047697 18:0.282691 19:-1.513943 20:0.796422 21:-1.626986 22:0.345478 23:-1.157121 24:0.506812 25:0.659512 26:1.250588 27:-1.785875 28:1.232088 29:-0.261512 30:1.445840 31:-1.305315 32:-1.128398 33:-0.329469 34:1.215562 35:0.538260 36:-1.036688 37:1.717419 38:0.809389 39:0.087128 40:1.434472 41:-0.369050 42:-0.708532 43:1.264567 44:-0.509935 45:1.352918 46:-0.975897 47:1.422359 48:0.608398 49:-1.342274 50:-0.293669 51:0.441011 52:1.446919 53:0.904657 54:-0.546250 55:-0.632060 56:2.085497 57:0.267995 58:-1.511556 59:-1.169283 60:0.901534
-1 1:0.163239 2:0.184397 3:-0.427859 4:0.757655 5:2.833856 6:0.267200 7:0.441943 8:0.975329 9:1.346694 10:-1.529796 11:0.203729 12:1.505404 13:-0.255839 14:-2.334127 15:-0.099525 16:2.037467 17:-0.603161 18:1.238086 19:0.978893 20:-0.358569 21:0.309126 22:-1.092525 23:1.086670 24:-0.563584 25:0.680025 26:-0.381315 27:0.180028 28:-0.522092 29:1.450623 30:0.073042 31:-0.342369 32:1.168338 33:0.639552 34:0.516654 35:1.329630 36:-0.268732 37:1.297705 38:0.889298 39:-0.075246 40:-1.446580 41:-1.389092 42:1.885921 43:0.170870 44:0.312307 45:0.428234 46:0.979605 47:-0.746644 48:-0.996517 49:-0.625938 50:0.977424 51:-0.153793 52:0.032367 53:2.252608 54:1.870229 55:0.440131 56:-0.300970 57:-0.983988 58:0.444328 59:-0.644397 60:1.372090
-1 1:1.484594 2:-2.102008 3:0.039023 4:-1.357908 5:-1.571493 6:-1.199495 7:1.125497 8:-0.107843 9:-2.199349 10:0.925184 11:0.073095 12:0.366425 13:0.154424 14:-0.141146 15:-1.661863 16:-0.497573 17:-0.200885 18:-0.898920 19:-0.387988 20:1.362005 21:-0.091055 22:1.565666 23:0.343885 24:0.047234 25:0.208171 26:-0.751647 27:-1.067198 28:-0.692938 29:1.259540 30:-2.246845 31:-0.414361 32:1.263777 33:-0.793071 34:-1.471623 35:-1.661040 36:0.354092 37:-0.232921 38:-0.757323 39:0.619935 40:-0.382806 41:-0.158264 42:-0.288478 43:-0.105796 44:-0.169026 45:-1.116609 46:-0.719257 47:-0.859845 48:0.138755 49:1.489766 50:-2.087298 51:1.977629 52:1.412906 53:0.860136 54:0.571298 55:1.439490 56:-0.447896 57:0.371151 58:-0.292099 59:-0.589163 60:-0.695950
-1 1:1.966356 2:0.812812 3:0.138105 4:0.940087 5:-0.659770 6:0.637905 7:1.469211 8:0.707861 9:0.656644 10:-0.073047 11:0.848710 12:0.190069 13:-2.480782 14:0.848010 15:1.442946 16:-1.482279 17:0.822549 18:-0.537170 19:0.533838 20:-0.952575 21:0.240297 22:-1.169688 23:0.070364 24:0.639963 25:-0.321282 26:0.245509 27:-1.239491 28:-1.406349 29:1.909576 30:0.993902 31:0.235371 32:-0.874983 33:-0.243617 34:-0.236273 35:-0.219326 36:0.271312 37:0.439723 38:-0.208331 39:1.459705 40:-1.468870 41:-0.446513 42:0.256524 43:0.184137 44:-0.445037 45:0.812160 46:-1.194860 47:0.739467 48:-2.251433 49:-0.877054 50:-0.700683 51:0.980479 52:-0.049523 53:-0.072866 54:0.231518 55:1.125073 56:-0.852464 57:0.652540 58:1.318223 59:1.937940 60:0.051388
-1 1:-1.339160 2:-0.415816 3:0.150919 4:-1.256330 5:-0.393918 6:0.272150 7:-0.301721 8:0.765231 9:-1.089094 10:-0.182310 11:-1.316287 12:-1.603407 13:-1.179873 14:0.123167 15:1.486298 16:0.399766 17:0.858893 18:0.183959 19:0.711410 20:-0.904636 21:0.082592 22:-0.254391 23:-0.408749 24:0.310582 25:-0.969489 26:-0.533532 27:0.582498 28:0.985743 29:0.232438 30:0.496616 31:-0.893368 32:0.257292 33:-0.550638 34:-0.236787 35:-0.210222 36:0.453174 37:-1.433102 38:-0.473818 39:-0.201205 40:1.530402 41:-0.596091 42:-0.258106 43:1.077060 44:0.468718 45:0.556370 46:1.094525 47:0.411825 48:-0.086688 49:-0.098806 50:0.327925 51:1.086067 52:-0.947078 53:2.094200 54:1.097368 55:0.849801 56:-0.313034 57:-0.181288 58:-1.107050 59:1.114214 60:-1.018418
-1 1:0.564055 2:0.036340 3:0.346113 4:-1.341344 5:-0.098703 6:0.909997 7:0.453844 8:-2.284171 9:-0.402990 10:1.124105 11:-0.034486 12:-0.696656 13:2.126874 14:-0.250673 15:1.356522 16:1.535939 17:-1.260218 18:-0.863127 19:-0.471770 20:-1.144069 21:-0.250472 22:-0.528093 23:-0.421563 24:-0.032125 25:-0.648921 26:0.577757 27:0.224395 28:-0.006771 29:0.372667 30:0.205606 31:-0.638587 32:-0.872412 33:0.208764 34:-1.907458 35:-0.250009 36:-0.310164 37:-1.750217 38:1.201658 39:1.077488 40:-1.314937 41:0.109971 42:1.902577 43:-0.921888 44:2.073279 45:0.053536 46:-0.372402 47:-0.588918 48:-0.787037 49:0.852056 50:-1.716688 51:-0.030830 52:-0.504513 53:-0.522676 54:0.037807 55:-1.068166 56:-1.562009 57:-0.144582 58:-0.382073 59:0.042339 60:-1.625549
-1 1:-0.503260 2:-0.545711 3:0.858199 4:-0.677335 5:-0.738677 6:0.728925 7:0.495448 8:1.797124 9:-0.221695 10:0.603185 11:-0.064152 12:2.333496 13:-1.008304 14:-1.438725 15:0.028694 16:-0.199819 17:-1.521933 18:-1.950918 19:-0.210895 20:-0.300844 21:-1.011366 22:0.439137 23:2.152623 24:0.074972 25:-2.116842 26:1.747503 27:1.733792 28:-0.268354 29:-0.789314 30:0.955476 31:-1.120204 32:0.270971 33:0.350719 34:0.462526 35:-0.342979 36:-1.760145 37:-0.306056 38:-0.520537 39:0.207448 40:-0.020979 41:0.959068 42:-0.074983 43:1.621302 44:-0.116011 45:-0.614520 46:-0.292063 47:0.911216 48:-2.021568 49:-1.420945 50:1.781256 51:2.103335 52:0.206074 53:2.485648 54:-1.829308 55:-0.339772 56:0.786745 57:0.458712 58:-0.472153 59:-1.124263 60:2.166584
-1 1:-0.723642 2:0.217507 3:-1.355548 4:1.457568 5:0.924309 6:-0.061313 7:-1.034023 8:0.711251 9:-1.049285 10:-1.883516 11:-0.768745 12:0.818339 13:0.577109 14:-0.300698 15:0.456097 16:0.501029 17:-0.018604 18:-2.401768 19:0.708892 20:1.354200 21:2.071991 22:2.356548 23:-1.128519 24:-0.706530 25:0.886681 26:1.218599 27:-0.235603 28:-1.148519 29:0.471260 30:-0.793395 31:-0.663252 32:-0.498207 33:0.036927 34:0.791069 35:0.552640 36:0.444049 37:-1.476778 38:-0.312677 39:-0.951736 40:0.618048 41:0.385632 42:-0.033356 43:-0.492167 44:-0.090401 45:-0.426408 46:0.950383 47:-1.153232 48:1.826833 49:-0.040241 50:-2.272280 51:-0.840015 52:-1.259735 53:-1.338893 54:-0.053595 55:1.514371 56:1.372285 57:-0.896532 58:-0.242946 59:-1.878657 60:-1.460819
-1 1:-0.504260 2:1.295914 3:1.383831 4:0.281873 5:0.956362 6:-0.353001 7:-1.065901 8:1.522782 9:-0.016308 10:1.045023 11:-0.425349 12:1.041454 13:0.039785 14:0.726592 15:0.617671 16:0.784971 17:-0.163801 18:-0.646809 19:-0.586171 20:0.749081 21:0.549387 22:0.490267 23:-1.129662 24:-0.854015 25:-0.425297 26:-0.422496 27:-0.159784 28:-0.877789 29:-2.066163 30:-0.523013 31:-1.567933 32:-0.114271 33:-0.533271 34:-0.624198 35:2.005174 36:-1.098899 37:-0.406980 38:-0.184635 39:-1.867881 40:0.841702 41:0.437022 42:1.037393 43:-0.392147 44:0.244275 45:0.728453 46:0.327867 47:-1.057618 48:-0.749471 49:-2.303502 50:0.846436 51:0.176221 52:0.609992 53:-0.270629 54:-0.153482 55:1.308646 56:-1.759852 57:1.529681 58:1.068911 59:-0.268271 60:1.741071
-1 1:-0.148429 2:-0.404968 3:0.143075 4:2.151932 5:-1.723258 6:-0.877274 7:-1.019526 8:-0.310128 9:0.469638 10:-0.159163 11:0.787007 12:1.016741 13:0.023088 14:-1.062864 15:0.646439 16:-0.073676 17:-0.287653 18:-2.553252 19:-1.675491 20:-1.098946 21:1.934408 22:0.162534 23:-1.019877 24:0.127231 25:1.415337 26:0.159363 27:0.467785 28:2.533466 29:-0.239928 30:0.268830 31:-0.047982 32:-0.880445 33:-0.906562 34:-1.953877 35:-2.202728 36:0.294644 37:0.240243 38:-0.489612 39:1.437213 40:-1.653402 41:-1.417608 42:0.262654 43:-0.842126 44:1.520406 45:0.276527 46:-0.373180 47:1.726706 48:-0.324046 49:-0.331419 50:0.457491 51:-0.689457 52:1.992869 53:1.317336 54:-0.070304 55:0.592631 56:-0.186190 57:1.030459 58:0.097948 59:1.596027 60:-0.585168
-1 1:-1.632522 2:0.101527 3:0.226651 4:0.501968 5:1.032191 6:-0.477904 7:1.234071 8:-1.852563 9:-0.708355 10:0.137594 11:0.201677 12:-0.135286 13:-1.825537 14:0.987277 15:0.958135 16:0.901855 17:-1.215939 18:-1.170958 19:1.978900 20:-0.609467 21:-0.486453 22:-0.837043 23:-0.554767 24:-0.968842 25:0.109535 26:-1.086083 27:-1.348706 28:0.653128 29:-0.733405 30:1.583138 31:-1.049315 32:0.480330 33:-0.731912 34:-0.809661 35:1.475425 36:-0.278215 37:-1.018479 38:0.483470 39:0.287432 40:-0.076100 41:0.650816 42:-1.643520 43:-0.896599 44:-0.574897 45:0.826690 46:-1.020852 47:-0.431715 48:-1.651474 49:-0.225070 50:-1.764624 51:2.242818 52:-0.748153 53:1.383653 54:1.166897 55:0.291544 56:0.205663 57:0.318876 58:1.014052 59:-2.165661 60:0.794117
-1 1:0.201277 2:1.396422 3:0.362248 4:0.077159 5:-0.942588 6:1.132017 7:-2.231410 8:-0.643223 9:-0.358115 10:0.505713 11:0.140179 12:0.026973 13:-0.096923 14:0.055776 15:2.037815 16:-0.194704 17:-0.490294 18:-1.453538 19:1.476116 20:1.521695 21:1.919528 22:-0.045597 23:-1.265300 24:-1.386713 25:0.609511 26:-0.227540 27:-1.080774 28:-1.006638 29:-0.745397 30:0.307945 31:-2.269069 32:1.030595 33:-0.973758 34:-1.644701 35:-1.588289 36:0.917781 37:1.282159 38:-1.481249 39:0.847149 40:0.686173 41:1.163177 42:-0.768242 43:0.469928 44:-0.394223 45:0.879879 46:-0.404794 47:1.742277 48:2.544981 49:0.175532 50:0.508002 51:-0.156940 52:0.105695 53:1.034225 54:-0.056742 55:-0.644634 56:1.064326 57:-0.471807 58:-1.198230 59:0.267582 60:0.307149
-1 1:3.178085 2:1.271734 3:0.336459 4:0.519113 5:-0.074797 6:0.891006 7:-0.853753 8:0.710584 9:-0.945072 10:0.235455 11:1.122994 12:2.804390 13:0.548451 14:1.960994 15:2.196443 16:-0.097479 17:1.255008 18:0.415400 19:-1.079736 20:-2.434102 21:1.439704 22:-1.241249 23:1.567988 24:-1.323356 25:0.699043 26:-0.247419 27:0.010209 28:-0.219203 29:-0.501125 30:-0.663850 31:1.476995 32:-0.728501 33:-0.097498 34:0.477098 35:0.874754 36:1.286017 37:-1.794639 38:-2.122069 39:0.252898 40:-0.325509 41:-1.439312 42:0.020529 43:0.229004 44:-1.354521 45:0.358244 46:0.464600 47:0.786378 48:0.433629 49:-0.676536 50:-0.530179 51:-1.136301 52:1.621877 53:-0.392018 54:-0.196501 55:1.853700 56:2.301880 57:-0.657669 58:-0.634070 59:0.807235 60:-0.276328
-1 1:0.430055 2:0.289429 3:0.836511 4:-1.632045 5:0.406948 6:-0.647710 7:0.114398 8:0.799264 9:1.691395 10:1.666658 11:0.217352 12:-0.403157 13:0.473033 14:-0.153264 15:1.145248 16:0.579588 17:0.551980 18:1.213063 19:0.772995 20:-1.071021 21:-0.934209 22:1.974593 23:-0.820389 24:0.497421 25:-2.009547 26:0.599712 27:-1.413571 28:0.395825 29:-1.573073 30:0.746708 31:0.314700 32:-0.671212 33:-0.359440 34:0.169124 35:0.544456 36:0.971896 37:0.440675 38:0.125768 39:-1.445133 40:0.621824 41:-0.001814 42:-0.619179 43:-0.895690 44:0.292331 45:-0.284034 46:-0.234260 47:0.835396 48:-0.716186 49:-2.726157 50:-0.991648 51:0.223444 52:-2.280278 53:0.654272 54:0.256904 55:-1.655733 56:-0.215715 57:0.352676 58:-1.683482 59:1.886150 60:-0.686410
-1 1:1.266707 2:0.434269 3:0.102169 4:0.679122 5:0.232093 6:-0.073967 7:-0.223784 8:-0.353337 9:-0.926861 10:0.611748 11:0.540246 12:-0.391012 13:-1.419516 14:1.250914 15:-0.807008 16:0.320822 17:-1.767496 18:-0.438913 19:-1.347644 20:-1.294081 21:-1.310797 22:-0.356767 23:-1.421296 24:0.182303 25:0.047985 26:1.191219 27:0.882489 28:0.829643 29:0.008948 30:-0.488948 31:-0.660439 32:0.278030 33:-2.502757 34:-1.878719 35:0.020560 36:0.401366 37:2.324320 38:-0.594060 39:1.094747 40:0.045337 41:2.148213 42:-0.544310 43:-0.710110 44:1.023844 45:1.131638 46:1.721797 47:0.335853 48:0.547050 49:-0.069947 50:-0.167414 51:0.220347 52:-0.669394 53:-0.931769 54:-0.878000 55:-0.390897 56:0.212253 57:1.152739 58:-1.189638 59:-1.991856 60:-0.663422
-1 1:-0.832143 2:0.427822 3:-1.522957 4:0.628636 5:-1.140295 6:1.518955 7:2.343952 8:1.467396 9:-1.301543 10:0.479491 11:1.825911 12:0.013300 13:-0.778528 14:-0.605269 15:-0.113934 16:2.166535 17:1.326497 18:2.707906 19:-1.918640 20:-1.210682 21:0.589948 22:0.083486 23:0.124168 24:-0.179748 25:-1.402194 26:0.778586 27:-0.272290 28:0.450657 29:0.543497 30:0.705967 31:1.011562 32:0.906121 33:0.673822 34:-0.802741 35:-0.898656 36:-0.540792 37:-1.491739 38:-1.074078 39:-0.287930 40:-0.325217 41:-0.912047 42:-1.022717 43:0.586717 44:0.051934 45:-1.355325 46:0.010125 47:1.052660 48:-0.264315 49:-1.276262 50:0.188568 51:0.540616 52:1.014962 53:-0.580222 54:-0.790107 55:0.592029 56:0.485122 57:1.142944 58:0.439761 59:-1.488066 60:-2.277580
-1 1:-0.277561 2:0.827985 3:-0.845846 4:-0.655455 5:-1.380845 6:-1.311496 7:0.919056 8:0.044846 9:-0.817226 10:-0.608758 11:0.698777 12:0.449580 13:0.695349 14:-0.807367 15:0.549113 16:-0.648148 17:1.054244 18:-0.314792 19:-1.336949 20:1.523342 21:-0.515069 22:0.170976 23:0.868416 24:0.425186 25:0.286432 26:-0.201607 27:-0.694949 28:0.181587 29:0.704048 30:0.304110 31:0.136769 32:0.870210 33:1.042203 34:-1.135957 35:-1.155167 36:-0.075317 37:-1.369345 38:0.369333 39:-0.492459 40:-0.592187 41:0.672298 42:-0.499778 43:0.142176 44:0.579303 45:0.428682 46:0.931112 47:1.388854 48:1.236706 49:-0.344523 50:-0.974515 51:0.794885 52:-0.600558 53:1.070862 54:0.569961 55:-0.446983 56:1.056031 57:-2.158118 58:-0.719296 59:-0.424973 60:1.563993
-1 1:-1.320740 2:1.650395 3:-1.498408 4:1.288548 5:-0.272048 6:0.272228 7:1.040270 8:-0.373218 9:0.540131 10:1.571746 11:-0.394564 12:0.204567 13:1.522989 14:-1.109429 15:0.285900 16:0.701997 17:-0.056714 18:-0.210442 19:0.373453 20:-1.504803 21:0.163666 22:-0.330982 23:1.116365 24:-0.378012 25:0.893044 26:0.120568 27:0.452175 28:-0.400212 29:2.651221 30:-0.107982 31:0.618409 32:3.017270 33:0.111242 34:-0.527094 35:0.441719 36:-1.783492 37:-1.599685 38:1.049436 39:0.700271 40:1.615446 41:-0.902755 42:1.407814 43:0.019726 44:-0.362402 45:-1.290993 46:0.166572 47:-0.100641 48:-0.434158 49:-0.266503 50:0.169557 51:1.411498 52:1.031739 53:0.324211 54:0.131810 55:-0.649197 56:0.120751 57:-1.823225 58:0.178408 59:0.586626 60:0.159988
-1 1:0.026739 2:-0.153942 3:0.273698 4:-0.336035 5:-0.782617 6:0.332651 7:0.499112 8:-2.566631 9:-1.874527 10:-1.124692 11:-0.358676 12:1.388519 13:0.698369 14:-0.129683 15:0.841006 16:0.524077 17:-0.854779 18:-0.002894 19:0.509154 20:-0.066690 21:0.000268 22:0.782423 23:-0.027091 24:-0.319562 25:0.319471 26:-1.017018 27:-1.289413 28:0.019545 29:-0.485531 30:0.083492 31:-0.123053 32:-1.416930 33:0.715909 34:0.176938 35:0.811043 36:-0.596134 37:-0.525883 38:-0.617554 39:1.119467 40:-0.116934 41:-0.102186 42:-0.953265 43:-0.710333 44:-2.063756 45:0.028720 46:-1.152671 47:-0.450848 48:1.473664 49:-1.822219 50:-0.901037 51:0.594509 52:-0.420154 53:-2.719144 54:-0.642548 55:-0.143330 56:0.625670 57:2.132557 58:-0.227844 59:-0.188000 60:0.127780
-1 1:0.083889 2:-1.388693 3:-0.323506 4:-1.046285 5:-0.780325 6:0.328379 7:0.102498 8:0.481550 9:0.901523 10:-0.745667 11:0.237832 12:-1.110357 13:0.661788 14:0.001143 15:0.641537 16:-1.716819 17:1.308882 18:0.446619 19:-1.173607 20:0.327537 21:0.088409 22:0.153691 23:-0.575234 24:-1.333996 25:-0.208131 26:0.128992 27:0.607499 28:-0.115481 29:0.065331 30:0.403985 31:0.048981 32:1.013641 33:0.084088 34:0.471025 35:-0.797144 36:0.068344 37:0.444823 38:0.778878 39:-0.618307 40:0.730601 41:0.872060 42:-0.466741 43:-1.281715 44:1.757199 45:-0.396226 46:1.816996 47:0.779406 48:0.160371 49:-1.180518 50:-0.759558 51:0.249414 52:0.529204 53:1.563488 54:0.250707 55:-0.272256 56:-0.911636 57:0.185497 58:-0.507952 59:2.402385 60:-0.676783
-1 1:-0.519343 2:-0.522064 3:1.154565 4:-0.957957 5:0.435869 6:1.002554 7:-0.652357 8:-1.092247 9:-0.679339 10:-0.508257 11:1.115567 12:0.149026 13:0.319775 14:-1.164823 15:0.326108 16:-0.404624 17:-1.868430 18:-0.415676 19:-0.498786 20:-0.393160 21:-0.414738 22:0.304388 23:-0.352819 24:1.017634 25:-1.155824 26:0.868323 27:0.149680 28:-1.160223 29:-2.177992 30:-0.604981 31:-0.155968 32:1.070280 33:-0.305239 34:-0.828200 35:-0.911465 36:0.126306 37:-0.585478 38:0.033675 39:-0.154972 40:0.458596 41:-0.505116 42:0.999598 43:-1.518472 44:2.529876 45:-1.218854 46:0.651132 47:-2.734478 48:0.399590 49:-0.188916 50:0.533341 51:0.946800 52:-2.445844 53:0.841053 54:-0.076859 55:0.675810 56:1.242808 57:1.069522 58:1.064194 59:-0.012981 60:-0.311727
-1 1:-0.171084 2:0.370594 3:0.166024 4:2.631808 5:0.041650 6:-1.230867 7:-1.612985 8:0.497358 9:0.731451 10:1.172604 11:-1.099018 12:0.519709 13:-0.258654 14:-0.171001 15:0.906823 16:-1.153657 17:-0.935505 18:-0.868500 19:-0.088752 20:0.533858 21:-2.693684 22:-0.382533 23:-0.375244 24:-1.423358 25:-0.621306 26:-0.738757 27:-1.395890 28:-0.286473 29:0.150355 30:-1.227977 31:0.249166 32:-0.416902 33:0.752971 34:0.802380 35:0.043449 36:-0.393928 37:-0.143803 38:-0.168177 39:-0.050910 40:1.333370 41:0.860007 42:-0.215603 43:-0.527636 44:-0.850474 45:0.060643 46:-0.195237 47:-0.848449 48:2.016678 49:0.272413 50:0.075092 51:0.532529 52:-0.434428 53:-0.584840 54:-0.360087 55:0.144238 56:0.414437 57:-1.340880 58:0.429570 59:-0.240613 60:0.252133
-1 1:0.429263 2:0.174626 3:-2.086252 4:0.868056 5:-0.193433 6:-0.929269 7:-1.019350 8:-1.315556 9:0.616333 10:0.699435 11:-1.323910 12:0.454465 13:-0.468856 14:1.050865 15:-1.304569 16:-0.820619 17:-1.193434 18:0.668221 19:-0.036422 20:-0.165829 21:0.233966 22:0.726419 23:-0.528668 24:-1.509231 25:-0.398002 26:-0.311919 27:-0.196486 28:1.433357 29:1.179344 30:0.315266 31:-0.544445 32:-0.925367 33:-0.887348 34:-0.653758 35:1.041028 36:1.017736 37:0.766809 38:1.377541 39:0.129104 40:-0.523386 41:-0.862599 42:-0.836275 43:1.628823 44:2.058185 45:-0.579310 46:-0.531570 47:0.115554 48:-0.699947 49:-0.729511 50:-0.790829 51:-1.762510 52:-0.727544 53:2.577624 54:-1.016749 55:-0.283285 56:-1.038159 57:0.415611 58:-0.746445 59:-0.694047 60:-1.163154
-1 1:0.496965 2:1.113027 3:0.444265 4:0.136294 5:1.523112 6:-0.408928 7:0.615097 8:-1.080271 9:-0.519596 10:-1.285859 11:-0.067644 12:0.782131 13:1.851329 14:0.797350 15:-0.573278 16:-0.182358 17:0.805246 18:-1.032171 19:-0.914740 20:1.041219 21:-2.031281 22:0.425569 23:1.104026 24:-0.043855 25:-0.523877 26:-0.758093 27:0.371844 28:0.138013 29:-1.996685 30:0.753212 31:0.979252 32:-0.033919 33:0.513438 34:-0.479841 35:-0.922578 36:0.960760 37:-1.046211 38:0.044724 39:-0.066783 40:1.584188 41:-1.566781 42:1.020337 43:-1.166492 44:-0.809886 45:-0.619702 46:1.194663 47:1.933362 48:1.050202 49:0.176662 50:0.975127 51:-3.068277 52:-0.932147 53:-0.169480 54:0.670734 55:-1.214266 56:0.641594 57:1.128718 58:-1.008214 59:-1.385446 60:0.649157
-1 1:1.413663 2:-0.819318 3:0.490154 4:-0.269873 5:1.266642 6:1.007414 7:-0.654594 8:0.977675 9:0.100594 10:-0.092476 11:2.882454 12:0.918028 13:-1.421272 14:-1.151035 15:0.391042 16:0.476571 17:-0.325716 18:0.350664 19:0.089882 20:-1.134225 21:1.034513 22:1.325270 23:1.038277 24:-0.741646 25:2.575335 26:-0.317582 27:-0.347935 28:-1.954900 29:0.747715 30:1.316012 31:0.285579 32:-0.583128 33:-0.884795 34:-1.101863 35:-0.125149 36:0.059727 37:1.985436 38:1.572308 39:-1.574294 40:0.606179 41:-0.386222 42:0.553026 43:-0.418104 44:-0.110444 45:-0.567198 46:1.776659 47:1.069640 48:-1.404323 49:1.499578 50:0.556031 51:2.153729 52:-1.256076 53:0.980500 54:0.204180 55:-0.349152 56:-1.391785 57:-1.903974 58:-0.057640 59:1.099388 60:0.446230
-1 1:-0.357808 2:0.822339 3:1.526568 4:-1.281403 5:-1.301182 6:1.082832 7:0.841088 8:-0.511152 9:0.261323 10:-1.189376 11:-0.325124 12:0.079043 13:0.065637 14:-0.829143 15:-0.307069 16:-1.167192 17:0.753133 18:-0.121467 19:-0.299896 20:-1.434518 21:0.743383 22:-0.853787 23:0.609184 24:-0.719761 25:-0.439595 26:0.061764 27:0.453068 28:-0.335500 29:0.870481 30:0.223827 31:0.933724 32:-0.176125 33:0.410260 34:-0.468307 35:1.157199 36:0.255735 37:1.072855 38:-2.272125 39:-0.437610 40:0.897759 41:-0.812787 42:-1.734917 43:1.549548 44:-1.847668 45:0.660173 46:0.182888 47:0.160951 48:-0.703057 49:-0.206287 50:-1.200804 51:-0.931530 52:-0.697946 53:0.564541 54:1.113691 55:-0.838063 56:-0.974803 57:-0.083130 58:0.383049 59:-0.343302 60:-0.753175
-1 1:-0.824069 2:0.297017 3:0.408971 4:0.257953 5:0.698864 6:0.445359 7:-0.513365 8:-1.701676 9:-1.222745 10:0.202277 11:0.183078 12:-0.354440 13:0.492458 14:-1.131291 15:-0.921541 16:0.720799 17:-0.924478 18:0.640472 19:2.252338 20:0.733880 21:1.498150 22:-1.453826 23:-2.154101 24:0.942916 25:0.911477 26:0.989500 27:-0.008163 28:-0.425498 29:-0.801788 30:1.882965 31:2.611230 32:-1.742895 33:0.328069 34:0.888375 35:0.208629 36:-0.443173 37:0.139012 38:-1.107970 39:1.127512 40:-0.535349 41:-0.192486 42:-0.800758 43:-0.640288 44:-0.413757 45:-1.947559 46:-0.138396 47:-0.985659 48:-0.244097 49:-0.717640 50:-1.280788 51:-0.032292 52:1.136719 53:-0.368969 54:1.255604 55:0.250571 56:0.042358 57:0.306161 58:0.228112 59:0.774188 60:-1.716690
-1 1:-0.539315 2:-1.458401 3:0.676295 4:1.509948 5:-0.308726 6:0.334437 7:0.774608 8:-0.603306 9:0.945022 10:-0.534568 11:-0.304034 12:-0.416385 13:0.564232 14:0.216682 15:1.174228 16:0.950455 17:-0.761755 18:-0.238733 19:-0.321401 20:-0.085294 21:-0.028985 22:0.051464 23:1.200544 24:-0.063780 25:0.590531 26:-0.959494 27:0.879926 28:0.575004 29:-0.255750 30:-0.195681 31:-0.519129 32:1.315085 33:-0.168859 34:-0.542163 35:-0.499394 36:1.169508 37:1.810911 38:0.542134 39:2.289593 40:-0.283581 41:1.810528 42:-2.733661 43:-0.189910 44:1.261607 45:0.211672 46:-0.323950 47:-0.260779 48:-0.651236 49:0.110616 50:-1.226338 51:0.140028 52:1.445123 53:-0.354213 54:-1.140553 55:0.026846 56:-1.870207 57:0.897097 58:-1.403233 59:1.421205 60:-0.057737
-1 1:0.313003 2:-0.626279 3:0.694656 4:0.760552 5:0.661679 6:-0.459217 7:0.312681 8:-0.588332 9:0.855196 10:0.735496 11:0.562887 12:-0.106421 13:0.121283 14:-0.145253 15:-0.237958 16:-1.161884 17:0.576574 18:-0.101271 19:-2.082656 20:0.563852 21:-1.079109 22:1.199638 23:0.368599 24:1.116995 25:0.264920 26:-1.205928 27:0.874803 28:-0.024937 29:-0.537622 30:-0.124778 31:-0.897462 32:1.008916 33:0.099534 34:-1.566793 35:0.905944 36:1.247400 37:-1.636812 38:0.854371 39:0.210155 40:-1.200589 41:-1.199356 42:-0.533191 43:1.264299 44:0.727705 45:0.274288 46:1.484132 47:0.372012 48:1.246820 49:-0.430340 50:-1.623457 51:2.580920 52:-0.613802 53:-1.054184 54:2.242842 55:-0.323369 56:-0.217306 57:-0.568290 58:-0.122559 59:-0.527262 60:-0.101896
-1 1:-1.915875 2:-0.780298 3:0.105465 4:-0.426303 5:0.044342 6:0.342040 7:-0.476337 8:0.591848 9:-0.605145 10:0.638157 11:-0.452473 12:0.096222 13:1.509893 14:1.953454 15:1.329608 16:-0.469594 17:-0.292952 18:1.476109 19:0.308205 20:0.106242 21:-1.024658 22:1.104739 23:0.018616 24:0.397446 25:-1.507196 26:0.173433 27:-0.513291 28:-1.416192 29:-0.902160 30:0.705986 31:-0.255163 32:-0.884914 33:0.947936 34:-0.997277 35:-1.259231 36:2.065496 37:-0.016795 38:-0.400974 39:0.675625 40:0.008805 41:-1.073476 42:-0.333053 43:-0.088522 44:0.754665 45:0.706804 46:0.594498 47:-1.723692 48:0.419105 49:-0.090926 50:0.588646 51:0.675017 52:-0.515137 53:0.335130 54:0.379485 55:2.511546 56:-0.711269 57:-0.983838 58:0.309270 59:0.144950 60:0.955525
-1 1:1.062731 2:1.337733 3:-1.717462 4:-0.836710 5:0.954546 6:0.590180 7:0.331190 8:-1.327302 9:0.288501 10:-0.021376 11:1.589263 12:-0.485179 13:-1.990477 14:-1.025682 15:-0.831776 16:-1.291921 17:-0.629017 18:-0.404979 19:0.323918 20:-0.216484 21:0.670110 22:1.240323 23:-0.074042 24:0.232898 25:0.776982 26:1.662838 27:-0.213700 28:-0.241147 29:0.950339 30:-1.763198 31:-0.155469 32:0.171325 33:-0.333733 34:0.925862 35:1.043569 36:0.837814 37:0.593383 38:-2.340569 39:-0.544644 40:-0.280305 41:-0.539307 42:-1.595138 43:1.106518 44:1.064434 45:0.084410 46:-0.884126 47:0.490693 48:-0.804843 49:0.184102 50:1.323686 51:0.167998 52:-2.147286 53:0.382221 54:-0.355743 55:-0.821223 56:-1.187025 57:-1.535918 58:0.810320 59:-0.503618 60:-1.141583
-1 1:0.020549 2:1.606725 3:-2.067012 4:-0.576236 5:2.020347 6:2.000916 7:0.303985 8:-2.134722 9:1.101203 10:-0.685094 11:0.970110 12:0.441334 13:-1.079986 14:1.901856 15:-1.479224 16:0.543745 17:2.422958 18:0.245638 19:1.834784 20:-0.209702 21:-1.306576 22:-2.036936 23:-0.018623 24:-0.954591 25:-0.238980 26:0.919939 27:-0.206564 28:0.206714 29:-0.098707 30:0.527369 31:0.207557 32:-0.207219 33:0.273341 34:-0.158889 35:-0.857238 36:0.117592 37:-0.133996 38:2.929130 39:-0.094441 40:0.926609 41:-0.150124 42:0.149295 43:1.036933 44:0.307730 45:-1.667348 46:0.202319 47:-0.169268 48:1.352850 49:-0.634516 50:0.250452 51:-0.294179 52:-1.146708 53:0.281661 54:0.355080 55:2.356824 56:0.198201 57:-2.653329 58:1.446502 59:1.157193 60:1.486033
-1 1:0.009563 2:-1.233780 3:-0.180724 4:-0.923434 5:0.470527 6:-1.034992 7:0.042725 8:0.814542 9:1.886365 10:-0.335249 11:1.515700 12:-0.019149 13:-0.236256 14:0.672512 15:0.397891 16:1.616589 17:-0.743858 18:1.158166 19:1.026134 20:0.110385 21:-1.441300 22:-1.489580 23:0.770316 24:-0.253247 25:-0.610439 26:0.816470 27:0.514728 28:0.912398 29:-0.038472 30:1.708122 31:0.403645 32:-1.326496 33:1.522881 34:-1.085402 35:-1.049940 36:0.246009 37:0.745460 38:-0.299996 39:-1.391821 40:-1.403936 41:0.681924 42:0.725072 43:1.110391 44:1.092955 45:-1.479435 46:0.671018 47:-0.411409 48:-0.696744 49:-0.700717 50:0.575439 51:-0.837338 52:0.094876 53:-1.429021 54:-0.254116 55:-1.140252 56:0.615696 57:0.892229 58:1.426264 59:0.264356 60:0.078830
-1 1:0.253706 2:-0.774355 3:1.235563 4:-0.055332 5:0.381293 6:1.485374 7:-2.320501 8:-0.287617 9:1.611675 10:-1.793674 11:0.122737 12:-1.145775 13:0.113154 14:-0.935177 15:-1.139862 16:-0.058877 17:-1.010304 18:0.325529 19:-1.137407 20:-0.723544 21:0.486823 22:-0.766121 23:1.495621 24:-0.993370 25:1.049260 26:-0.575436 27:-0.984530 28:1.015604 29:0.691362 30:-1.241612 31:-0.748670 32:-0.572670 33:1.139445 34:-0.753211 35:-0.209549 36:-0.675157 37:-1.489966 38:-0.730560 39:1.208693 40:1.476522 41:-1.096877 42:0.927215 43:0.252628 44:-0.036840 45:-0.392653 46:-0.368236 47:1.883299 48:0.558952 49:1.396514 50:-0.876097 51:1.418155 52:-1.584732 53:0.510247 54:-1.173521 55:1.420213 56:-0.501887 57:0.947298 58:0.040527 59:2.426012 60:-0.555225
-1 1:-0.636946 2:0.916555 3:-0.702790 4:1.954663 5:0.226404 6:0.102140 7:-0.875060 8:0.598463 9:0.512091 10:0.109242 11:-0.648887 12:0.752545 13:2.547943 14:1.753868 15:-1.429889 16:-0.693096 17:0.830085 18:-1.704712 19:-0.519829 20:-0.001189 21:-0.328622 22:-1.864059 23:-0.289790 24:-0.418685 25:0.296927 26:0.144219 27:-0.337144 28:0.810216 29:-0.461953 30:0.372711 31:-0.560246 32:-0.591825 33:1.142312 34:-1.869579 35:0.065618 36:0.424736 37:0.910323 38:0.772695 39:-0.440976 40:0.264390 41:0.244701 42:-1.156716 43:-0.827693 44:0.287114 45:0.762568 46:-0.366553 47:1.335532 48:-0.763292 49:-0.115479 50:0.577338 51:0.949926 52:0.104097 53:-0.076808 54:-0.575354 55:-1.774731 56:-0.446688 57:-0.060770 58:-0.171254 59:-0.967117 60:-0.004504
-1 1:0.587314 2:0.996089 3:0.808495 4:-0.510779 5:0.000168 6:-2.423846 7:-1.293671 8:-0.638892 9:0.958995 10:2.306923 11:-0.168183 12:0.011283 13:1.053340 14:0.236587 15:-0.585012 16:-1.886254 17:-0.681294 18:0.161001 19:1.157718 20:1.124318 21:-1.263480 22:0.908336 23:0.489613 24:1.027664 25:1.325862 26:-1.192613 27:0.544812 28:2.657642 29:0.105241 30:1.308093 31:-1.288047 32:-0.219414 33:0.997956 34:0.353108 35:-2.791969 36:-0.692349 37:-0.134139 38:-0.350538 39:0.402259 40:0.337428 41:-0.006215 42:0.618480 43:0.644926 44:-0.421383 45:1.059575 46:-1.606808 47:-0.609792 48:1.306418 49:1.020748 50:1.275050 51:1.489789 52:0.615860 53:-1.394131 54:0.434976 55:-1.038023 56:-1.168292 57:-1.416338 58:0.043536 59:0.901006 60:-1.471522
-1 1:-0.129728 2:-1.135206 3:0.240065 4:-0.583046 5:-1.756578 6:0.381981 7:0.038166 8:-0.684931 9:1.839065 10:0.562894 11:-0.283475 12:-1.746073 13:-0.790187 14:-1.365682 15:0.348200 16:0.843590 17:0.735648 18:-1.527096 19:0.416170 20:-1.369317 21:0.389818 22:0.691271 23:-0.323014 24:-0.685241 25:-0.917542 26:-0.587764 27:0.186002 28:-2.043084 29:-0.381368 30:-2.142113 31:-0.298648 32:-1.510973 33:-0.308677 34:-1.502332 35:1.388051 36:0.864058 37:1.214405 38:-0.559836 39:0.348441 40:0.508821 41:-0.310542 42:0.070210 43:-1.947962 44:1.607451 45:1.133980 46:-0.761857 47:-0.296635 48:-1.748864 49:-0.729659 50:-0.479116 51:1.610946 52:1.049116 53:2.836975 54:-0.166409 55:0.467240 56:-0.372862 57:0.007245 58:0.774280 59:1.346077 60:0.342497
-1 1:2.289520 2:-1.337795 3:0.695270 4:-1.155861 5:1.267703 6:0.857818 7:0.536707 8:0.030708 9:0.583189 10:0.949183 11:-0.038101 12:0.499160 13:-0.654628 14:-0.545937 15:0.608751 16:0.372409 17:-0.052213 18:-2.026275 19:-1.007329 20:-1.140372 21:-0.497936 22:0.560369 23:-1.040559 24:1.340134 25:-0.778944 26:0.786257 27:-1.520102 28:-0.116927 29:-1.107790 30:0.307619 31:2.987949 32:1.456181 33:-0.160979 34:0.410495 35:0.635560 36:-0.683042 37:-1.031095 38:-1.653962 39:1.239569 40:-1.187056 41:0.243982 42:0.902489 43:-0.184021 44:0.356765 45:0.239785 46:-1.215449 47:-0.264164 48:0.161917 49:1.172124 50:0.269479 51:-0.019240 52:-0.258804 53:-0.482722 54:0.719768 55:0.249176 56:-0.950619 57:-0.031096 58:-1.122980 59:1.140915 60:0.353915
-1 1:0.257149 2:1.250318 3:-0.943672 4:-0.390845 5:-2.813099 6:1.185578 7:-0.006633 8:0.781081 9:0.262424 10:0.470080 11:0.553118 12:-0.897061 13:0.589142 14:-3.160979 15:-0.478205 16:1.306951 17:0.715969 18:-0.602466 19:1.034706 20:0.659740 21:-1.104337 22:0.828383 23:1.054289 24:-1.216604 25:0.885641 26:-1.061088 27:0.148724 28:1.323560 29:-0.802808 30:-0.714782 31:1.744258 32:1.863177 33:0.657006 34:-1.602521 35:-0.264317 36:-1.592727 37:-0.099447 38:0.798487 39:-0.000184 40:0.415551 41:1.398241 42:-0.673212 43:-0.931346 44:-1.250963 45:-0.442788 46:-0.687042 47:0.406247 48:-0.701642 49:-2.021405 50:0.484769 51:-1.919238 52:2.218671 53:0.112839 54:-1.340272 55:0.452410 56:1.401591 57:-1.290618 58:-0.976752 59:-0.794139 60:1.280805
-1 1:-0.709974 2:0.788245 3:0.496237 4:-0.753404 5:1.122779 6:1.070774 7:0.344499 8:1.117088 9:0.144561 10:0.101302 11:-0.376368 12:-0.071882 13:-0.355547 14:-0.550196 15:-0.999373 16:-0.008821 17:-0.149162 18:2.565920 19:0.539263 20:0.156120 21:0.814826 22:1.897152 23:-0.715385 24:0.438235 25:1.065994 26:0.206333 27:0.165246 28:0.562834 29:1.629862 30:-0.284738 31:-0.248861 32:-0.707462 33:1.209655 34:-1.195866 35:-0.392572 36:-0.268730 37:0.309801 38:-1.219347 39:1.140368 40:1.014641 41:-0.522352 42:1.763955 43:-1.568579 44:1.066945 45:0.396302 46:-0.645241 47:-1.446825 48:-0.526509 49:-1.165705 50:1.584914 51:-0.599955 52:-1.722850 53:-0.398234 54:-1.665711 55:1.979479 56:0.999124 57:-0.003455 58:0.879153 59:1.665194 60:-0.493360
-1 1:0.345300 2:-0.871728 3:0.510979 4:0.068583 5:-1.791748 6:-1.138779 7:0.488933 8:0.487030 9:-2.047273 10:0.342394 11:-1.153397 12:1.317046 13:-0.449906 14:-0.272142 15:1.279313 16:-2.049029 17:-1.207273 18:-1.477914 19:-1.318933 20:1.322876 21:0.118909 22:-0.102269 23:-0.026424 24:-1.038307 25:0.387528 26:-0.477157 27:0.663708 28:0.670866 29:-0.654555 30:0.017423 31:-1.410975 32:1.652772 33:0.176652 34:0.323203 35:-0.969680 36:0.459190 37:0.495225 38:-0.061642 39:-1.171920 40:-0.094499 41:1.382970 42:0.091276 43:0.209895 44:-0.301719 45:0.850086 46:-0.181526 47:0.310423 48:0.589595 49:0.776326 50:1.237993 51:-0.308279 52:1.033987 53:1.239068 54:-1.202459 55:0.287386 56:-0.228031 57:-0.285020 58:-0.635233 59:0.848315 60:0.643321
-1 1:0.781648 2:-0.222523 3:1.502392 4:0.474394 5:-1.135069 6:0.231986 7:0.058540 8:-0.334088 9:-1.213412 10:0.429108 11:-0.394593 12:-1.220930 13:1.121958 14:1.490594 15:-0.013922 16:1.246579 17:0.639874 18:0.234699 19:1.812674 20:-0.929136 21:1.595495 22:0.636064 23:-1.227964 24:0.235213 25:-0.583025 26:-1.282589 27:-2.763521 28:0.868977 29:-0.642341 30:0.434061 31:1.364428 32:0.838650 33:-2.003339 34:-0.501671 35:-1.564208 36:2.905952 37:-0.989756 38:0.983649 39:0.093542 40:-1.263801 41:0.174625 42:-1.285667 43:0.278012 44:0.285094 45:1.503723 46:-1.356010 47:1.017839 48:0.317838 49:0.019709 50:0.304235 51:0.421644 52:-0.299166 53:-1.779945 54:1.094897 55:1.174096 56:-1.086676 57:-1.933205 58:-1.591864 59:0.480737 60:-1.494381
-1 1:-0.705283 2:-0.635709 3:-0.569351 4:-1.713471 5:0.603529 6:0.926519 7:-2.017385 8:0.144476 9:-0.335148 10:1.579922 11:0.891159 12:-0.581597 13:0.498773 14:2.014114 15:-0.137923 16:-0.316353 17:-0.391725 18:-0.768063 19:-1.132090 20:0.063744 21:0.097257 22:0.499085 23:0.353141 24:-0.385897 25:0.109562 26:0.178606 27:-1.577401 28:0.752771 29:0.166158 30:1.423839 31:0.559551 32:-1.589371 33:-0.916092 34:0.283587 35:-0.730894 36:-0.666207 37:0.012811 38:-0.175144 39:-2.136382 40:0.148135 41:-1.143547 42:-0.504283 43:0.204112 44:2.544445 45:1.866353 46:-2.455389 47:-0.905650 48:-0.120147 49:-1.544502 50:1.544087 51:1.104950 52:0.950335 53:1.694451 54:-1.238278 55:-0.686668 56:0.536234 57:-0.254343 58:0.183555 59:0.777980 60:1.818735
-1 1:2.509639 2:-1.617343 3:-0.970966 4:0.163473 5:0.046303 6:0.323325 7:0.398120 8:-0.027206 9:-0.403064 10:-0.330969 11:0.341072 12:0.554313 13:0.710147 14:-0.085920 15:0.176454 16:-1.723029 17:0.007052 18:-0.137079 19:-0.185782 20:-0.681096 21:2.543506 22:1.263815 23:-0.531592 24:-0.937988 25:0.664471 26:-1.694299 27:1.252062 28:-0.772975 29:-0.502049 30:-0.201104 31:1.461948 32:2.700145 33:-0.388308 34:-0.161700 35:1.571265 36:0.194126 37:0.937730 38:-0.480994 39:1.251442 40:0.706893 41:1.146543 42:-1.057374 43:0.426597 44:-0.849569 45:-0.802593 46:0.529274 47:1.071319 48:-0.268691 49:0.666472 50:2.905740 51:-0.596012 52:-0.728868 53:0.523156 54:1.078084 55:0.487490 56:1.798354 57:0.679428 58:-0.578451 59:1.184833 60:1.732517
-1 1:0.254203 2:1.510019 3:0.407539 4:-0.466094 5:-1.118880 6:0.235208 7:-0.514739 8:0.323938 9:0.257087 10:-1.032036 11:0.501974 12:-1.139920 13:-0.335285 14:-1.161386 15:1.876250 16:-0.881204 17:-0.386949 18:-0.363266 19:-1.124003 20:0.174507 21:0.199784 22:0.514478 23:-0.132034 24:-0.418907 25:-1.807885 26:-0.655497 27:-0.135611 28:0.360111 29:-1.176189 30:-0.195370 31:0.834627 32:-1.670674 33:0.690025 34:0.218638 35:-0.777956 36:-0.720245 37:0.107259 38:0.364379 39:0.459132 40:0.514806 41:-0.576375 42:-0.129584 43:-0.395534 44:-0.652372 45:-0.901454 46:-0.396531 47:0.735304 48:-1.015811 49:0.107898 50:-1.146051 51:1.734178 52:0.336133 53:-0.422675 54:-0.014980 55:2.175860 56:-0.277781 57:2.152282 58:-0.086399 59:0.685702 60:0.573287
-1 1:0.473340 2:1.091979 3:1.446981 4:0.470348 5:0.055597 6:-0.234622 7:-0.161459 8:0.877179 9:0.254347 10:1.085990 11:-1.487191 12:-0.808481 13:-2.836075 14:-0.291580 15:0.586066 16:-1.954453 17:0.925075 18:0.767402 19:2.104370 20:-0.598165 21:-0.889165 22:0.439798 23:0.914852 24:-0.339033 25:-0.410042 26:-0.273680 27:0.538185 28:1.752512 29:-0.685583 30:-0.411242 31:-1.725029 32:-0.502211 33:-1.243270 34:-1.352690 35:-0.153004 36:-0.313289 37:0.172084 38:-0.325118 39:0.169790 40:-0.714426 41:-0.532245 42:1.493153 43:0.356997 44:0.138011 45:-0.265992 46:-1.328675 47:-1.810252 48:-0.246686 49:-0.862120 50:0.441622 51:-0.684252 52:-0.736134 53:1.799913 54:-0.654286 55:-0.333776 56:-0.625008 57:0.352207 58:1.073546 59:1.104167 60:-0.755066
-1 1:0.828817 2:0.433630 3:-2.535715 4:0.352067 5:0.655119 6:-1.088215 7:-0.093517 8:1.095963 9:-0.261887 10:1.720972 11:-1.364618 12:0.418664 13:1.193460 14:1.574450 15:0.464705 16:-0.066155 17:0.025162 18:-0.726461 19:0.186419 20:-0.527795 21:0.418357 22:-1.191453 23:0.657280 24:1.669424 25:-1.015894 26:0.596017 27:0.681721 28:0.310148 29:-1.264568 30:0.811116 31:-0.032995 32:-1.928948 33:0.039038 34:-0.867941 35:-1.327880 36:-0.930841 37:-1.076768 38:0.611104 39:-0.949623 40:0.110126 41:0.519212 42:-0.285993 43:0.529923 44:-0.775337 45:1.011513 46:-0.510702 47:0.357139 48:0.023698 49:-2.224962 50:-0.012810 51:1.817676 52:-0.111461 53:2.758010 54:1.131473 55:-0.409522 56:-0.558894 57:0.294100 58:0.525692 59:-1.669717 60:-0.188252
-1 1:0.871429 2:1.036568 3:1.074166 4:-1.077187 5:0.309055 6:0.002063 7:1.126229 8:0.383300 9:-2.009905 10:-0.357156 11:0.386970 12:3.422053 13:-1.304378 14:-0.764721 15:0.169677 16:0.941572 17:0.559806 18:0.667501 19:-1.003813 20:1.945035 21:-1.440639 22:-0.203142 23:1.030720 24:-0.080472 25:-2.414843 26:0.264741 27:0.618912 28:-0.367547 29:0.688100 30:-1.101863 31:2.706835 32:-0.115301 33:-1.806647 34:-0.082984 35:-1.774318 36:0.072305 37:0.136792 38:-0.443012 39:-0.441199 40:0.055945 41:0.957738 42:-1.222403 43:-1.120957 44:1.295750 45:-0.370268 46:0.378638 47:-0.267632 48:0.280574 49:1.011705 50:-0.278217 51:-0.394440 52:-0.947985 53:-0.384471 54:1.930922 55:1.181574 56:-0.596595 57:-0.452756 58:0.463533 59:-0.873931 60:2.485004
-1 1:-0.705040 2:1.426272 3:0.837678 4:-1.771751 5:-1.209633 6:0.507830 7:1.419813 8:-0.591651 9:-1.036751 10:-0.973355 11:0.516867 12:1.400611 13:1.561755 14:1.217367 15:0.696991 16:-2.050559 17:-0.563755 18:0.970629 19:-0.718915 20:-1.339017 21:0.020082 22:0.136392 23:-0.364783 24:-0.347564 25:1.557966 26:1.206580 27:-0.299188 28:0.283130 29:0.256513 30:-0.623444 31:0.686046 32:-1.817513 33:0.394250 34:-0.355013 35:-1.195660 36:1.367964 37:1.122851 38:-0.144502 39:-0.071893 40:-0.521764 41:0.206190 42:-1.497726 43:1.408493 44:-1.708405 45:-1.495843 46:-0.704493 47:-0.773895 48:1.123400 49:-1.430738 50:0.819862 51:-0.701330 52:-0.702882 53:0.836438 54:1.071309 55:-0.828838 56:1.275206 57:0.027683 58:0.481154 59:-0.659705 60:2.020490
-1 1:0.159868 2:0.162793 3:0.203402 4:-1.160605 5:-0.604486 6:2.351596 7:-0.320929 8:0.646789 9:-1.271653 10:-1.069911 11:-0.127889 12:-0.005305 13:0.563005 14:0.035320 15:1.856132 16:1.259245 17:1.194853 18:0.629729 19:-0.819896 20:-1.014520 21:-0.022590 22:-0.754296 23:0.164913 24:0.343218 25:-0.675290 26:-2.452871 27:0.370456 28:-0.521387 29:0.849194 30:0.873158 31:0.044243 32:0.954219 33:-0.814868 34:0.134535 35:0.876293 36:0.705198 37:-0.507607 38:-1.340144 39:-0.464904 40:0.606138 41:0.922375 42:-1.100662 43:-1.343940 44:-0.057443 45:0.993714 46:-0.692164 47:-0.313183 48:-1.006438 49:1.183377 50:0.001499 51:-0.870313 52:0.712353 53:-1.295110 54:-1.925230 55:-1.376373 56:-0.093486 57:0.346246 58:0.118892 59:0.478933 60:-0.488809
-1 1:-1.370325 2:0.468701 3:-0.287636 4:1.497153 5:-0.587583 6:0.724067 7:-0.018064 8:-1.243271 9:0.019283 10:0.774403 11:0.893085 12:-0.373619 13:-1.807343 14:1.482587 15:-0.812591 16:0.108685 17:0.261471 18:-0.756712 19:-0.125282 20:0.825263 21:-1.220995 22:-0.960013 23:-0.042569 24:-1.380121 25:-0.835779 26:1.773565 27:-1.012685 28:-0.065359 29:-0.622440 30:-0.609634 31:0.860937 32:-0.858474 33:-0.544681 34:1.490953 35:1.412662 36:0.893653 37:-1.951266 38:0.244493 39:-1.107428 40:-1.687541 41:0.232135 42:-0.201060 43:0.104590 44:-0.298416 45:-0.224047 46:0.719770 47:1.427783 48:0.117783 49:-0.274689 50:-1.387864 51:0.580824 52:0.353138 53:-0.942164 54:2.774573 55:0.230993 56:0.038749 57:1.090261 58:0.147827 59:-0.323461 60:0.582960
-1 1:-0.844237 2:-1.071144 3:1.425157 4:0.622999 5:0.280422 6:-0.887467 7:-0.919308 8:-1.641833 9:-1.150991 10:-0.923089 11:1.254226 12:0.790089 13:1.170214 14:1.706260 15:-0.210760 16:-0.603366 17:-1.775648 18:-0.509390 19:-1.068238 20:-1.025407 21:0.539972 22:-0.366154 23:0.914689 24:-0.736443 25:0.176308 26:-0.739397 27:-0.076566 28:0.823275 29:-0.144738 30:-0.493291 31:0.013046 32:1.591564 33:0.346855 34:-0.170280 35:-1.164433 36:2.848505 37:-0.306591 38:0.623816 39:0.099907 40:1.455715 41:-0.946324 42:-0.353231 43:0.347548 44:-1.371015 45:-1.296195 46:-0.829222 47:0.437758 48:-2.905362 49:-1.238985 50:0.437119 51:0.080725 52:0.106921 53:0.430218 54:0.445401 55:-0.337297 56:0.680837 57:0.233426 58:-1.174303 59:0.141216 60:-2.726827
-1 1:1.354783 2:-0.071301 3:1.346518 4:1.429053 5:1.551508 6:-0.818304 7:-0.527458 8:-0.771625 9:0.020919 10:1.060208 11:-0.847452 12:-1.105311 13:0.071278 14:-0.954358 15:-1.393567 16:-1.114825 17:1.773037 18:-0.148958 19:-1.451005 20:0.720586 21:-1.284958 22:0.516187 23:1.235068 24:-0.022230 25:-0.729994 26:-1.219074 27:0.253341 28:-0.389639 29:1.833316 30:-0.518449 31:-1.492513 32:0.213148 33:-0.770787 34:0.167360 35:-0.577707 36:0.516725 37:0.533096 38:-0.607082 39:-1.852797 40:-1.624551 41:1.460327 42:-0.296634 43:0.866648 44:0.214565 45:-0.997224 46:0.148545 47:-0.323965 48:0.179879 49:-0.604146 50:-2.233699 51:0.991196 52:-0.991129 53:1.063520 54:0.256594 55:-0.058927 56:-0.803166 57:-1.060169 58:-0.029200 59:0.750583 60:0.494946
-1 1:-0.164314 2:-0.989459 3:-0.767948 4:0.416916 5:-0.128918 6:-0.559944 7:0.071530 8:-1.800195 9:-1.204150 10:0.199592 11:-0.802312 12:-0.457965 13:0.802973 14:-0.737673 15:0.205985 16:-0.333696 17:-1.352235 18:-0.944889 19:0.306433 20:0.773007 21:-0.497174 22:-1.072720 23:-1.087763 24:0.771305 25:-1.362383 26:-0.622196 27:0.512955 28:-0.939248 29:-0.944889 30:1.410999 31:-1.037836 32:-2.201144 33:0.127562 34:-1.109314 35:-1.114371 36:-0.324734 37:-1.443827 38:-0.825712 39:-0.913420 40:1.820963 41:0.571712 42:-0.984664 43:-0.524522 44:0.287782 45:2.309075 46:0.288367 47:-0.797737 48:-0.502520 49:0.250242 50:-0.706813 51:0.362450 52:-1.281604 53:0.280077 54:0.078443 55:-1.133201 56:0.113429 57:0.428841 58:0.915581 59:-0.174208 60:0.695545
-1 1:-0.804068 2:-0.660078 3:-1.228885 4:0.590628 5:1.965977 6:0.470474 7:0.214866 8:2.341982 9:0.051460 10:-0.191952 11:-0.674777 12:-0.302402 13:1.231016 14:0.765135 15:-0.308573 16:-1.879044 17:2.105812 18:-1.252586 19:2.781938 20:0.042266 21:0.693526 22:0.061620 23:-1.564961 24:1.100561 25:-0.172149 26:-0.855544 27:1.356961 28:0.749309 29:-0.889039 30:-1.369177 31:2.561223 32:-1.117261 33:-0.674957 34:1.015154 35:-1.571002 36:-0.826593 37:0.630867 38:0.782551 39:0.144926 40:0.676431 41:-0.826838 42:-1.082551 43:-0.819616 44:0.989457 45:-0.102304 46:-2.315226 47:1.062933 48:-1.016873 49:-0.200956 50:-0.221354 51:0.612575 52:1.171206 53:-0.871712 54:0.813209 55:0.160067 56:-1.713449 57:-1.069354 58:-1.317886 59:-0.160281 60:1.125720
-1 1:-2.141273 2:-1.188238 3:-1.518665 4:-0.960737 5:0.388101 6:-1.637201 7:0.949986 8:0.145067 9:-0.161148 10:0.352475 11:-0.741477 12:-1.649311 13:1.719056 14:-1.041279 15:-0.353236 16:1.099156 17:1.548677 18:1.093985 19:-0.007313 20:0.212712 21:-0.176749 22:-0.522106 23:0.797468 24:1.021632 25:1.169485 26:0.204109 27:-0.782306 28:-0.304270 29:0.123630 30:0.789034 31:0.229716 32:-0.631069 33:0.746490 34:1.207612 35:-1.723858 36:1.914728 37:-1.479495 38:0.470404 39:1.167932 40:-1.931479 41:0.029355 42:1.234422 43:0.025609 44:-0.444276 45:-0.066426 46:-0.118407 47:-0.530304 48:1.714261 49:0.082234 50:-1.084086 51:1.086881 52:1.574898 53:1.410795 54:0.041034 55:-1.518969 56:0.287006 57:0.395152 58:-0.479592 59:-0.200029 60:0.606274
-1 1:-0.421225 2:0.694394 3:0.476453 4:-0.714407 5:-1.875776 6:0.592516 7:1.737941 8:-1.774813 9:-0.409013 10:0.014946 11:1.007708 12:2.095981 13:0.734963 14:-0.949571 15:1.095453 16:-0.196664 17:-0.268587 18:0.870044 19:1.631711 20:-0.179478 21:-0.547595 22:1.236534 23:1.224264 24:-0.102647 25:0.861655 26:-1.144737 27:-0.690220 28:-0.664214 29:1.248220 30:-0.498045 31:-0.816446 32:1.210234 33:-1.494025 34:0.534738 35:0.310196 36:-0.050108 37:-1.181849 38:-0.126942 39:-1.060364 40:0.891471 41:-0.953036 42:0.786622 43:0.561253 44:-1.357608 45:-0.984267 46:-0.250800 47:0.497405 48:1.204933 49:-0.159405 50:-0.381737 51:0.002130 52:1.327660 53:0.436367 54:-0.063006 55:1.988638 56:-0.055603 57:0.855190 58:0.268139 59:-1.188017 60:-0.352815
-1 1:-0.763635 2:1.141300 3:0.445306 4:1.310945 5:-0.273905 6:0.429527 7:0.892695 8:-0.353126 9:-1.055215 10:-0.269504 11:0.199319 12:2.395395 13:1.598855 14:-0.337039 15:0.484416 16:-0.843726 17:1.306427 18:-0.345017 19:-0.071558 20:-3.252633 21:0.545980 22:-0.462183 23:0.748292 24:1.705787 25:0.118490 26:1.304520 27:1.148870 28:1.529318 29:0.379309 30:-0.158982 31:1.017326 32:-1.373176 33:0.030001 34:-1.095962 35:-0.365628 36:-1.645392 37:-0.106775 38:0.852375 39:0.256094 40:-0.966208 41:-0.263154 42:0.079812 43:0.622566 44:0.876048 45:1.013093 46:-1.349364 47:2.567073 48:0.458729 49:1.458570 50:-0.353383 51:0.711866 52:1.453071 53:-1.765386 54:-0.310579 55:-1.211240 56:-0.768414 57:0.710238 58:1.789940 59:-0.039811 60:0.898450
-1 1:-0.052696 2:1.912932 3:-0.462784 4:0.395237 5:1.040171 6:-1.539374 7:0.709030 8:3.435959 9:-0.143405 10:-1.666094 11:1.107461 12:-2.346734 13:0.499400 14:-0.657925 15:0.718064 16:-0.330776 17:-1.520585 18:0.932892 19:1.309465 20:0.526436 21:-0.041521 22:-0.512510 23:0.936108 24:1.515787 25:-1.835283 26:-0.330332 27:0.666024 28:-1.169372 29:0.093761 30:-0.727620 31:-1.260160 32:0.667363 33:1.090289 34:1.451413 35:1.031130 36:-0.662098 37:0.855318 38:1.063344 39:-0.469708 40:2.425410 41:-1.089494 42:1.305407 43:-0.481922 44:-1.188341 45:2.971819 46:-0.635903 47:-0.352218 48:-0.837858 49:-2.155514 50:-1.658766 51:-0.453169 52:-0.172550 53:-0.492720 54:-0.156116 55:0.059365 56:1.203215 57:-0.751103 58:0.447093 59:-0.526222 60:-1.731827
-1 1:-0.508381 2:-0.329459 3:-1.831226 4:-0.501949 5:-0.474159 6:-0.800309 7:2.053625 8:1.246067 9:1.014568 10:-1.594394 11:0.274868 12:-1.383336 13:0.907589 14:-1.224240 15:-0.693760 16:0.794821 17:1.071172 18:-0.279201 19:-0.057789 20:0.465854 21:1.802301 22:1.821502 23:0.561203 24:-2.773928 25:-0.717669 26:0.571437 27:0.488088 28:-0.211908 29:-1.600452 30:-1.340290 31:-2.908212 32:-0.104486 33:1.015502 34:1.312190 35:0.840432 36:0.538353 37:0.265017 38:-0.383816 39:1.402751 40:0.701067 41:0.164382 42:-0.349589 43:1.369315 44:-0.822767 45:0.387299 46:0.839163 47:-1.532634 48:-0.861256 49:0.210983 50:-0.746224 51:-0.021475 52:-0.178369 53:0.792767 54:-0.598118 55:0.196254 56:0.110953 57:0.555025 58:-0.683409 59:1.275702 60:-0.975379
-1 1:-0.891110 2:-0.906537 3:1.514785 4:1.979913 5:1.409715 6:2.133156 7:0.158971 8:2.148155 9:-1.242798 10:-0.195300 11:0.311177 12:0.316336 13:-0.754140 14:0.916235 15:-0.394426 16:-0.317581 17:1.418111 18:0.116474 19:-0.736095 20:-1.298681 21:1.492018 22:-0.290348 23:-0.779271 24:-0.098268 25:1.410361 26:-0.355999 27:1.367985 28:-0.753365 29:-0.346588 30:-1.134354 31:0.787146 32:0.966421 33:-1.577244 34:1.472924 35:2.414841 36:0.324729 37:-1.284842 38:-0.137939 39:-0.303572 40:0.339040 41:0.165825 42:0.200039 43:1.243950 44:2.665898 45:-1.317746 46:-0.006398 47:-2.104669 48:-0.345579 49:-1.255294 50:0.769289 51:-0.064205 52:-1.055300 53:-0.066617 54:-0.306096 55:0.099346 56:-0.291553 57:0.098928 58:1.047277 59:0.968275 60:0.215585
-1 1:0.002096 2:-0.595446 3:-0.613581 4:0.555708 5:-0.054593 6:1.057700 7:-1.406463 8:0.032113 9:-0.055408 10:-0.643321 11:0.474670 12:-0.125564 13:0.422325 14:0.279129 15:-0.634664 16:0.072470 17:0.156334 18:1.008898 19:1.102252 20:-1.164839 21:1.561279 22:-1.452006 23:-0.947230 24:0.855513 25:-0.574867 26:-2.045985 27:-0.975323 28:-1.086683 29:0.643462 30:1.042353 31:-0.729943 32:0.286183 33:-1.031166 34:-1.430427 35:0.908262 36:-0.485475 37:1.015305 38:0.893904 39:0.031248 40:-2.001301 41:-0.646194 42:-1.058961 43:-0.454983 44:-0.317610 45:0.207565 46:-1.595277 47:-1.534376 48:-0.952019 49:-1.974057 50:0.797807 51:-1.569100 52:-0.375501 53:0.249389 54:-0.618541 55:1.728558 56:0.220813 57:-0.244915 58:0.673337 59:-0.157612 60:0.845971
-1 1:0.128582 2:-1.268649 3:-1.094596 4:-0.692927 5:0.879964 6:-0.246886 7:0.105594 8:-0.337548 9:-0.243375 10:-0.845528 11:-1.701871 12:0.911127 13:0.147617 14:-0.389525 15:-0.255609 16:-0.173258 17:-0.828914 18:0.400355 19:-1.955691 20:0.048823 21:-0.089632 22:-0.692109 23:-1.560909 24:-0.512035 25:0.799944 26:-0.899747 27:1.114860 28:0.252275 29:-0.089084 30:0.606915 31:-0.583577 32:-0.694384 33:-0.707752 34:-0.566608 35:0.938599 36:-0.570823 37:-0.145631 38:-1.210226 39:3.081563 40:0.092140 41:-0.508077 42:-1.138900 43:1.836323 44:-1.326060 45:-1.085254 46:-0.222249 47:-1.353573 48:-0.381705 49:-1.476989 50:0.930682 51:-1.706590 52:1.528364 53:0.144633 54:1.682247 55:-0.164920 56:0.755499 57:0.167842 58:-0.025606 59:1.652334 60:-1.009797
-1 1:-0.295946 2:1.154814 3:-0.029890 4:-0.598527 5:0.657212 6:1.910491 7:0.291542 8:-0.045521 9:0.555555 10:0.246457 11:1.316113 12:1.780615 13:0.946746 14:-0.139471 15:2.203606 16:1.427319 17:-0.562127 18:1.050893 19:-1.783377 20:-0.408001 21:0.235707 22:1.040250 23:-0.860973 24:-0.177510 25:-0.602979 26:-0.030816 27:0.085043 28:-1.610370 29:-0.231663 30:0.903030 31:-0.149015 32:0.468815 33:-0.391479 34:1.047440 35:0.561954 36:0.309896 37:-0.559906 38:-0.553794 39:0.589086 40:1.395766 41:0.104707 42:-0.246425 43:-0.206219 44:-2.483858 45:1.064689 46:-0.122702 47:-2.557731 48:1.209118 49:-0.892317 50:0.710739 51:0.735217 52:-0.000582 53:-0.350416 54:-0.892570 55:0.240861 56:0.887285 57:0.645950 58:-0.879113 59:-0.336534 60:1.105670
-1 1:0.403983 2:-0.342240 3:-0.214579 4:0.596865 5:2.120457 6:0.026774 7:-0.556786 8:0.905690 9:-0.396112 10:0.332245 11:-0.254170 12:0.661784 13:0.710890 14:1.083486 15:-1.354370 16:-1.212726 17:-0.742008 18:-0.851524 19:1.275493 20:0.370050 21:-1.079466 22:0.888824 23:-0.816372 24:-2.442791 25:0.240873 26:0.048977 27:-1.181202 28:-0.053271 29:1.220819 30:-0.109660 31:1.785413 32:1.226276 33:-0.134164 34:2.178544 35:-1.311224 36:-0.429845 37:-0.059582 38:-0.525089 39:1.248542 40:1.811094 41:0.456343 42:-0.044828 43:0.724125 44:1.687873 45:0.441198 46:0.111860 47:-0.313149 48:-0.235071 49:0.605625 50:-1.387062 51:1.014014 52:-2.475117 53:0.789211 54:-0.824783 55:-0.498739 56:0.646295 57:-0.218541 58:-0.236141 59:-0.501907 60:-0.871306
-1 1:0.091560 2:-0.226516 3:0.582735 4:1.180130 5:-0.998678 6:1.243457 7:-0.203500 8:-0.355322 9:0.906012 10:-0.793592 11:-0.941376 12:-1.216097 13:0.418833 14:0.586489 15:-0.802419 16:-1.913175 17:0.633710 18:0.248007 19:0.245491 20:-1.344451 21:-1.283689 22:0.213225 23:-2.584018 24:-0.312795 25:0.755426 26:0.637831 27:0.353454 28:0.469783 29:0.757419 30:0.053117 31:0.611239 32:1.012856 33:2.413189 34:0.728497 35:-0.613703 36:0.242126 37:0.532524 38:-0.340033 39:-0.258999 40:-1.585903 41:-0.595133 42:-0.602294 43:0.802857 44:0.946253 45:2.733548 46:-0.037916 47:1.732604 48:-1.624628 49:-1.262557 50:1.753779 51:-0.536929 52:0.822143 53:0.286642 54:-0.646419 55:-0.630555 56:-0.271071 57:-0.911869 58:0.107435 59:0.421888 60:-1.005380
-1 1:0.025889 2:0.617882 3:1.236344 4:-1.084967 5:-1.128874 6:1.097460 7:-1.412167 8:-0.075878 9:0.882753 10:-0.534602 11:-1.605264 12:0.548063 13:0.263143 14:1.148752 15:0.583962 16:-0.000089 17:-0.217060 18:1.039709 19:-0.744597 20:-0.049446 21:-1.163424 22:1.356264 23:0.821611 24:-0.319348 25:-0.579442 26:-0.267127 27:-0.867751 28:-0.486435 29:-0.119126 30:-1.391620 31:1.766517 32:1.679973 33:-0.354401 34:1.439757 35:0.098532 36:1.430042 37:0.573738 38:0.125295 39:0.706461 40:-0.249157 41:-0.659963 42:0.353523 43:0.237848 44:-0.110570 45:1.148562 46:0.450660 47:1.848701 48:1.033973 49:1.273365 50:1.673880 51:-2.686906 52:-1.513488 53:-0.494672 54:0.410520 55:0.439063 56:0.633277 57:1.643401 58:-0.331953 59:-0.307421 60:1.170267
-1 1:-0.494455 2:0.471420 3:-0.148018 4:-0.200547 5:0.959665 6:-0.410565 7:-1.081012 8:0.330316 9:0.259629 10:-0.682328 11:1.242205 12:1.052048 13:1.192719 14:-0.798235 15:1.897710 16:-0.523297 17:0.147369 18:-1.230316 19:2.520334 20:-1.984737 21:-0.631295 22:0.746962 23:1.072689 24:-0.416080 25:0.972796 26:0.013019 27:2.373530 28:-1.024186 29:-0.911608 30:-0.212835 31:-0.586101 32:2.034472 33:-0.595796 34:-1.804078 35:-1.760585 36:-0.042497 37:1.760186 38:-0.337762 39:-0.316792 40:-0.203598 41:-1.308462 42:0.016362 43:0.424008 44:-0.314795 45:0.591991 46:0.421964 47:0.902113 48:-0.413274 49:2.085905 50:-0.648048 51:0.785203 52:0.315972 53:0.323963 54:0.410339 55:0.125885 56:1.537406 57:-0.419438 58:1.380522 59:-0.313843 60:-0.525595
-1 1:-2.517586 2:0.051964 3:0.925183 4:-0.893337 5:-0.686629 6:-0.283745 7:-0.398490 8:-0.111918 9:-2.101144 10:1.541895 11:0.289504 12:-0.871082 13:0.268447 14:-2.342378 15:0.789154 16:-0.211815 17:0.050507 18:-1.371776 19:0.805212 20:1.520915 21:0.591018 22:-0.661683 23:-1.861882 24:0.158520 25:0.062322 26:0.199755 27:1.355639 28:1.415061 29:1.136033 30:0.251107 31:1.000350 32:0.056850 33:-0.142625 34:-0.985750 35:-1.637403 36:0.146751 37:-0.433447 38:1.098164 39:0.909544 40:-0.131504 41:-0.161014 42:-0.862790 43:-0.416058 44:2.505388 45:-0.434494 46:-1.725385 47:0.737159 48:-1.617768 49:-0.297095 50:0.873347 51:-0.117652 52:1.155643 53:-0.419994 54:0.433897 55:1.024307 56:0.700904 57:-0.247589 58:1.356886 59:0.466049 60:-1.521041
-1 1:0.753104 2:-1.576836 3:-1.351590 4:0.468631 5:0.690081 6:-0.323530 7:-0.039902 8:-1.539672 9:0.914233 10:-0.264372 11:-1.170924 12:1.699339 13:0.406509 14:-0.976215 15:0.747123 16:-2.731793 17:0.810834 18:0.744607 19:-0.205622 20:-0.411130 21:-0.731276 22:0.783326 23:-0.351821 24:0.057307 25:1.596212 26:0.146332 27:-0.505618 28:0.338347 29:1.538668 30:-0.622059 31:-0.255071 32:0.236070 33:-1.689785 34:0.243511 35:-0.876805 36:1.510594 37:-0.712891 38:0.295757 39:-1.262811 40:-1.767764 41:0.179396 42:0.504738 43:-0.369441 44:-0.647750 45:0.889269 46:0.642564 47:0.112312 48:1.491997 49:-0.565128 50:-1.909594 51:0.014765 52:0.039945 53:-0.909860 54:-0.291181 55:-0.094988 56:-0.613045 57:1.579569 58:-0.700917 59:-0.849866 60:-0.586952
-1 1:0.828385 2:0.953895 3:-1.510416 4:-0.066963 5:0.223361 6:-0.046530 7:-0.864124 8:1.334485 9:-0.042432 10:-0.117444 11:-2.767791 12:-0.452899 13:-0.944472 14:0.173123 15:0.592578 16:-0.786931 17:-2.558485 18:-1.857255 19:-1.602562 20:-1.067430 21:1.883469 22:0.012829 23:1.114598 24:1.902343 25:-1.478955 26:1.057343 27:-0.728333 28:0.222936 29:0.296639 30:1.504065 31:0.545998 32:0.428540 33:-0.320765 34:1.100720 35:1.281003 36:0.758947 37:-0.446561 38:0.693105 39:0.055357 40:1.688349 41:0.865351 42:1.559839 43:-0.062524 44:-2.183249 45:0.869924 46:-0.202054 47:0.209211 48:-1.776343 49:0.242234 50:-0.362198 51:-0.355696 52:0.326319 53:-0.900611 54:-0.089493 55:-0.290764 56:-1.492645 57:-0.336240 58:1.418256 59:0.218335 60:1.291595
-1 1:-0.799457 2:-0.502945 3:1.370223 4:0.673625 5:-1.385835 6:0.446965 7:0.158400 8:-0.408185 9:0.281494 10:1.112890 11:-0.998674 12:0.793228 13:-0.081854 14:-0.659180 15:0.644205 16:0.802990 17:-1.661256 18:-0.105413 19:0.082647 20:1.461693 21:0.072910 22:0.761363 23:0.946704 24:0.632496 25:0.709885 26:0.223076 27:-0.370625 28:0.943714 29:-1.404150 30:-0.369560 31:2.445530 32:0.837140 33:0.124949 34:-1.983285 35:0.129490 36:0.570923 37:-1.839603 38:-1.466077 39:0.073177 40:1.196452 41:-0.968605 42:0.636564 43:0.569200 44:0.340905 45:0.154834 46:-0.340329 47:-0.744073 48:-1.004760 49:0.636135 50:-0.459872 51:-0.394047 52:1.558437 53:0.853124 54:-0.282668 55:0.774330 56:-0.174258 57:-0.921271 58:0.651137 59:1.312714 60:-1.402935
-1 1:0.036354 2:-0.240263 3:1.385669 4:-0.329323 5:0.911495 6:-0.449346 7:-2.297399 8:-0.066639 9:0.146765 10:1.282909 11:-1.395013 12:0.910614 13:-0.897929 14:1.509718 15:-0.916233 16:-1.036875 17:-0.976376 18:-0.511063 19:1.071165 20:0.313556 21:0.087382 22:0.177565 23:0.449485 24:-1.438552 25:0.678414 26:0.844076 27:-0.216796 28:-1.339463 29:0.059986 30:1.264110 31:-1.394074 32:-0.124995 33:-1.448702 34:1.615562 35:-0.897412 36:-0.696844 37:-0.361717 38:0.522620 39:-0.330398 40:0.724499 41:-0.989621 42:-0.147342 43:1.133430 44:1.421569 45:-1.164139 46:3.420532 47:1.766665 48:-0.152432 49:0.255865 50:0.259016 51:-0.239273 52:-0.605083 53:1.335819 54:-0.675542 55:-1.416005 56:-0.446657 57:1.129988 58:0.373047 59:-0.675192 60:-1.238312
-1 1:-1.158652 2:-1.196055 3:2.046815 4:0.398824 5:-1.129650 6:1.661818 7:-0.904857 8:-0.185812 9:-0.410004 10:0.543895 11:1.446641 12:0.130420 13:-1.060511 14:0.944114 15:0.467689 16:-0.811952 17:-0.711978 18:-1.597433 19:-0.299765 20:1.154274 21:-1.143498 22:-1.466170 23:-0.186973 24:1.085489 25:0.806168 26:-0.783000 27:-0.767920 28:0.423251 29:0.331130 30:0.198350 31:0.143183 32:-0.255901 33:-1.710352 34:1.375899 35:-0.140392 36:0.975748 37:1.073669 38:-0.067537 39:-0.014585 40:0.345212 41:-1.251489 42:-0.393430 43:0.811860 44:-0.482300 45:0.048671 46:0.557933 47:1.142391 48:0.402098 49:-1.262534 50:0.176066 51:1.576078 52:-0.190236 53:0.123398 54:-1.283407 55:-1.099762 56:-1.000647 57:0.454295 58:2.473438 59:-1.275359 60:-0.496593
-1 1:-0.192079 2:-0.679303 3:-0.655691 4:1.715656 5:0.387629 6:0.019372 7:0.157908 8:-2.179187 9:0.966325 10:0.515918 11:0.477421 12:-0.244860 13:0.040144 14:-0.187054 15:0.337307 16:-2.056802 17:0.079978 18:0.307557 19:1.136988 20:-0.898386 21:-1.431411 22:1.517722 23:0.056027 24:0.965222 25:-0.326268 26:0.165778 27:-1.626234 28:0.231999 29:-1.142397 30:0.206571 31:0.178467 32:-0.039902 33:0.121786 34:-0.661174 35:-0.399400 36:1.046790 37:-0.802207 38:-1.454729 39:-1.726095 40:1.438429 41:0.272219 42:-0.874748 43:0.485015 44:1.477452 45:-0.699469 46:0.624290 47:1.124586 48:0.057090 49:0.310286 50:-0.459538 51:0.099840 52:1.048326 53:-0.922800 54:-0.295410 55:0.473021 56:0.264223 57:1.393541 58:-1.064516 59:0.592313 60:-0.288698
-1 1:-1.274895 2:0.619745 3:-0.893313 4:1.438183 5:1.682318 6:0.654289 7:-1.369130 8:-0.378613 9:0.005484 10:0.494602 11:-0.760473 12:1.023263 13:-0.531200 14:0.977030 15:0.819599 16:-0.542439 17:-0.475454 18:-0.957888 19:-0.111237 20:-0.396561 21:1.306136 22:0.375177 23:-0.810661 24:1.297573 25:0.811266 26:-0.968572 27:0.054036 28:0.458086 29:-0.908620 30:-0.975418 31:0.750631 32:-1.064220 33:-0.848734 34:-0.805017 35:-0.293169 36:-0.216350 37:0.109922 38:-1.490661 39:1.009454 40:-0.159501 41:0.191761 42:0.265791 43:0.850043 44:0.455840 45:0.248759 46:-1.157493 47:0.251300 48:0.056023 49:0.194667 50:-0.087263 51:-0.215923 52:0.058756 53:0.028014 54:-0.382301 55:1.049592 56:-0.728712 57:0.557692 58:-0.961540 59:-0.483226 60:0.021336
-1 1:1.254375 2:-1.397697 3:-1.481535 4:0.132055 5:1.620700 6:-1.305101 7:1.999489 8:-1.667313 9:0.717289 10:-1.231969 11:1.964907 12:-0.523678 13:-0.759309 14:0.752482 15:2.182457 16:0.640733 17:0.376412 18:0.175703 19:-0.486887 20:-1.104442 21:-0.925226 22:-2.446347 23:-1.336592 24:1.427218 25:-1.811703 26:0.474157 27:1.038023 28:0.446764 29:-0.438110 30:-0.425940 31:1.070915 32:-0.674967 33:0.178863 34:0.269272 35:-0.308055 36:0.580723 37:-0.162826 38:1.601519 39:0.456404 40:-0.754610 41:0.389505 42:0.899801 43:-0.051205 44:1.056478 45:-0.596634 46:0.272851 47:-1.028471 48:-0.884020 49:1.240595 50:1.799297 51:-0.134645 52:-0.001227 53:-1.072007 54:1.281647 55:-0.483747 56:0.955441 57:0.004498 58:-1.608055 59:0.900846 60:1.349927
-1 1:-0.642292 2:-0.487160 3:-0.667655 4:0.365791 5:-0.340158 6:-0.837432 7:-0.742916 8:-1.467891 9:0.345837 10:-2.604002 11:1.131039 12:-1.930282 13:1.195553 14:-0.300800 15:1.242049 16:0.381437 17:-2.081720 18:-1.160170 19:1.090154 20:0.023818 21:1.210053 22:-0.607444 23:0.069669 24:-0.454487 25:1.478499 26:-1.547949 27:-0.833918 28:-0.584870 29:-1.044648 30:-0.413629 31:-1.509911 32:-0.721612 33:0.961134 34:-1.025475 35:-0.771113 36:0.074536 37:-0.461342 38:-1.167144 39:1.275492 40:-0.338991 41:0.230970 42:0.186678 43:-1.436845 44:-1.177798 45:1.382886 46:1.426879 47:0.645902 48:-1.629283 49:-0.507975 50:0.343614 51:0.171524 52:1.522888 53:1.761173 54:0.352704 55:-1.485212 56:-0.987684 57:-2.002854 58:1.126771 59:0.618097 60:-1.001476
-1 1:-1.736940 2:0.518642 3:0.057444 4:-1.017035 5:-1.239604 6:0.006024 7:-0.866100 8:-0.671691 9:-0.870472 10:1.044055 11:-1.856340 12:-0.840729 13:0.140024 14:-0.878966 15:-0.433478 16:0.914319 17:0.070218 18:0.625368 19:-0.525142 20:0.548063 21:1.280547 22:0.158119 23:1.306529 24:-0.348432 25:-1.085537 26:-1.365179 27:1.359543 28:-0.439635 29:-0.940173 30:1.204712 31:-1.905030 32:0.555995 33:-0.486454 34:-1.023491 35:-1.922193 36:-1.350151 37:-0.261032 38:-1.093688 39:2.250272 40:-0.090746 41:2.012582 42:-0.501982 43:-0.965829 44:1.010563 45:0.145980 46:-0.111618 47:0.252101 48:0.370617 49:0.467983 50:1.098163 51:-0.585054 52:-0.157955 53:-0.036890 54:-0.149977 55:0.370292 56:-1.068549 57:-0.511810 58:1.304185 59:1.196390 60:-1.192060
-1 1:-0.901878 2:0.176619 3:-0.474897 4:0.151295 5:-1.292644 6:1.057869 7:0.298776 8:-1.446844 9:-0.259097 10:0.627782 11:-1.306595 12:-0.213250 13:-1.977351 14:3.033474 15:-1.115341 16:1.557214 17:0.013897 18:0.867102 19:-0.574848 20:0.751637 21:1.803158 22:0.104091 23:0.460453 24:0.505956 25:-0.389303 26:-0.082575 27:1.681954 28:-0.040018 29:-2.366733 30:-1.369887 31:0.144669 32:-0.702402 33:-1.021292 34:-1.042844 35:0.620138 36:0.258054 37:-0.294930 38:1.495732 39:1.031383 40:1.009120 41:-0.620000 42:0.010020 43:0.158102 44:-0.156467 45:-0.507229 46:-0.828352 47:0.383357 48:0.121907 49:1.343300 50:0.725073 51:-0.774592 52:-1.806078 53:-1.908679 54:-0.007664 55:-1.032118 56:-2.059812 57:-0.355313 58:-0.470803 59:0.229268 60:-0.504723
-1 1:-0.315389 2:-0.228885 3:-1.097301 4:0.518635 5:-0.765309 6:0.168583 7:0.122407 8:0.421253 9:0.050577 10:0.947584 11:-0.984317 12:0.129915 13:-0.452698 14:-0.290027 15:1.193097 16:0.483007 17:-0.004236 18:0.127591 19:-1.205744 20:0.330450 21:-0.933365 22:-0.616953 23:1.611514 24:-2.274684 25:0.826559 26:-0.107169 27:0.699512 28:-0.821331 29:-0.570267 30:3.471378 31:0.122353 32:-0.211387 33:1.662976 34:-2.289953 35:-0.488276 36:1.076486 37:0.975842 38:0.490287 39:0.046581 40:-0.253733 41:-0.528576 42:0.214575 43:0.429200 44:0.009885 45:-0.313714 46:0.886033 47:0.778671 48:0.557929 49:1.428654 50:-0.503571 51:-1.146904 52:-0.803221 53:0.208308 54:0.641126 55:1.604469 56:1.814156 57:0.377099 58:0.558486 59:0.451645 60:-2.215548
-1 1:-0.964092 2:0.192452 3:-0.633402 4:-0.446750 5:0.507732 6:-0.989253 7:-0.212500 8:0.181927 9:1.700063 10:-0.825358 11:0.991407 12:-0.341420 13:-1.426076 14:-0.231995 15:-0.501919 16:1.235599 17:-0.618328 18:0.084330 19:1.711604 20:0.795402 21:0.184549 22:1.236370 23:0.134352 24:0.495292 25:2.259840 26:-0.376428 27:-0.416097 28:0.033331 29:-1.376938 30:-0.511298 31:1.371230 32:-1.984519 33:-1.827131 34:0.337266 35:1.528897 36:-0.868060 37:0.136964 38:-0.440936 39:0.097627 40:-1.927138 41:-0.797683 42:0.292695 43:-0.554545 44:-1.344751 45:0.284565 46:0.571945 47:0.722778 48:0.210346 49:1.391270 50:0.808831 51:0.887079 52:-2.013121 53:1.002921 54:-0.267209 55:0.523818 56:1.337631 57:-0.656161 58:-0.758602 59:3.463672 60:-1.233660
-1 1:-1.858173 2:-1.159147 3:-0.645800 4:-0.158927 5:-2.087742 6:1.163575 7:-1.889760 8:0.469164 9:1.422059 10:1.795546 11:-0.577283 12:0.134551 13:0.101900 14:-0.513382 15:1.600591 16:0.170733 17:1.259293 18:2.321782 19:-0.258750 20:-0.803739 21:-1.292996 22:0.047102 23:1.434010 24:0.890771 25:-1.540379 26:0.654181 27:-0.882200 28:0.976761 29:0.125279 30:-0.171520 31:-0.345619 32:0.999579 33:-0.001445 34:0.967301 35:-1.084197 36:-0.989521 37:-0.228840 38:-0.065619 39:0.417106 40:0.833734 41:0.317521 42:0.735925 43:1.097553 44:0.458921 45:-0.165202 46:-0.221239 47:1.074911 48:-0.892468 49:1.609678 50:2.172495 51:-0.087714 52:-1.368135 53:0.481668 54:-0.791061 55:-0.587888 56:-1.519793 57:2.043198 58:-1.072082 59:-2.103909 60:2.225203
-1 1:-0.521079 2:0.054041 3:0.868305 4:0.517466 5:-0.567071 6:-1.684360 7:0.821845 8:0.871547 9:0.564044 10:-0.952122 11:-1.477744 12:0.081935 13:0.056094 14:0.014709 15:0.160090 16:1.001276 17:0.761280 18:0.023536 19:0.178665 20:-0.053074 21:-0.659407 22:-0.326182 23:-0.639979 24:-2.048762 25:0.558574 26:0.159933 27:0.290374 28:-0.068254 29:1.055436 30:0.083367 31:-0.894915 32:0.998558 33:-0.382294 34:0.239835 35:0.736003 36:0.217289 37:-0.732213 38:2.449334 39:0.078131 40:-1.103732 41:0.138135 42:-1.033331 43:-0.437864 44:2.352074 45:-1.074414 46:-0.993497 47:0.790458 48:-0.435909 49:-0.972049 50:1.436346 51:0.336754 52:1.382636 53:1.139391 54:-2.483345 55:-1.279590 56:1.317783 57:-0.786582 58:0.414408 59:-0.339883 60:0.245307
-1 1:1.971158 2:-0.082560 3:-0.971107 4:1.019898 5:-0.283831 6:1.063675 7:0.578646 8:-2.140131 9:-1.235648 10:1.122648 11:-1.530135 12:-0.058025 13:-0.399572 14:-1.883732 15:0.248649 16:1.503053 17:0.131167 18:-0.834856 19:0.048987 20:-0.859505 21:-3.291363 22:-0.854381 23:-0.205701 24:-0.468428 25:0.307095 26:1.277443 27:-0.924990 28:-0.154628 29:1.392950 30:0.776343 31:-0.483323 32:0.084253 33:-0.233757 34:-0.200079 35:0.993853 36:-0.346873 37:-0.514681 38:-0.151777 39:0.123853 40:-0.227734 41:0.266644 42:-0.301953 43:-0.082237 44:0.000070 45:0.700778 46:-0.661901 47:0.009236 48:-0.392808 49:-0.649917 50:-0.298628 51:-0.044660 52:0.525393 53:-2.068748 54:-0.787902 55:0.924326 56:-1.986476 57:0.035614 58:-1.487363 59:-0.027830 60:1.924565
-1 1:-1.046532 2:1.038065 3:-0.460468 4:-0.558960 5:0.520139 6:0.144832 7:-0.687050 8:2.475756 9:-0.004546 10:0.557276 11:-1.460667 12:0.052039 13:0.685373 14:0.399908 15:0.687983 16:-0.322436 17:-1.165867 18:-0.983097 19:1.802460 20:0.865618 21:-1.226996 22:-0.737907 23:0.878240 24:0.661904 25:0.776164 26:0.754061 27:0.413658 28:-1.259074 29:-0.673260 30:-0.171496 31:-1.547857 32:0.915201 33:0.585787 34:-1.341745 35:-0.362114 36:0.006105 37:-0.402960 38:0.610102 39:-1.114726 40:-0.191838 41:-0.565685 42:0.948439 43:0.838451 44:0.135473 45:0.889490 46:-2.353958 47:-2.389497 48:1.003385 49:-1.631603 50:1.650078 51:-0.654498 52:-0.776922 53:-1.695512 54:-0.328000 55:0.213241 56:-1.034489 57:-0.105380 58:-0.076668 59:1.040631 60:0.771117
-1 1:-0.405639 2:-1.109814 3:2.364613 4:-1.006886 5:-0.019849 6:0.217834 7:-1.083810 8:-2.193631 9:-0.236003 10:-0.227556 11:1.413380 12:0.338487 13:0.192846 14:0.728361 15:-0.934494 16:1.251313 17:-1.783619 18:3.954782 19:0.337254 20:0.567323 21:-0.267801 22:-1.747658 23:1.030073 24:-0.525573 25:1.308104 26:-0.698838 27:-1.467343 28:0.317898 29:-1.798461 30:-0.689264 31:0.194891 32:1.177491 33:-1.593965 34:1.246637 35:0.355680 36:-0.393320 37:-1.425166 38:0.113102 39:0.726328 40:-0.908624 41:0.778531 42:-0.856787 43:-0.165931 44:-1.527247 45:0.451207 46:-1.050169 47:2.753496 48:0.773463 49:0.658853 50:1.222865 51:-0.783180 52:1.332091 53:0.055026 54:0.776124 55:0.464418 56:0.292033 57:0.281372 58:-0.929844 59:0.708902 60:-0.183945
-1 1:1.781674 2:-0.854137 3:-1.278052 4:0.833033 5:0.541890 6:1.056184 7:-0.385305 8:-0.769168 9:0.208330 10:-0.409329 11:0.094000 12:-0.170606 13:-0.371131 14:-1.488183 15:-0.864016 16:1.664761 17:0.036789 18:-0.301288 19:0.012958 20:-0.383285 21:-1.475008 22:0.686100 23:0.810351 24:-0.612961 25:-0.487590 26:-1.465509 27:1.157383 28:-1.662790 29:-1.006803 30:0.174696 31:-0.222772 32:-2.053348 33:-1.902375 34:1.018966 35:0.562243 36:1.473885 37:-0.088090 38:-0.678539 39:0.980646 40:-0.048493 41:0.792552 42:-0.813334 43:-0.798182 44:-2.523199 45:0.516746 46:1.959175 47:-0.026633 48:1.476267 49:0.604146 50:0.293338 51:0.280414 52:0.263786 53:1.046996 54:0.378788 55:0.193882 56:-0.507083 57:1.192385 58:0.074902 59:0.328900 60:-0.374781
-1 1:-0.784391 2:-0.942400 3:-0.273193 4:-1.240243 5:-1.006451 6:-0.478891 7:-1.127458 8:0.147108 9:-0.187001 10:-0.158732 11:-0.524789 12:0.505742 13:1.227966 14:0.070996 15:-0.193427 16:0.758920 17:2.203946 18:0.156780 19:-2.424848 20:1.154515 21:-0.387224 22:1.904163 23:1.553289 24:-1.713386 25:0.033567 26:-1.924529 27:0.562915 28:-0.620919 29:-2.450376 30:0.887665 31:1.017408 32:1.049210 33:0.399094 34:0.804349 35:-1.459658 36:0.496997 37:0.489920 38:0.151790 39:0.419068 40:-0.469294 41:0.945842 42:1.102453 43:-0.390796 44:-0.796121 45:0.427046 46:-0.099030 47:0.553586 48:-0.413011 49:-1.525793 50:0.684175 51:1.673020 52:-0.643389 53:-1.635124 54:2.354945 55:0.730908 56:-0.412026 57:-0.283511 58:-0.452352 59:0.090762 60:0.018873
-1 1:-2.536553 2:0.250908 3:-1.219781 4:3.043258 5:1.217619 6:-0.652512 7:-1.270783 8:-0.660513 9:0.214955 10:1.276105 11:0.475776 12:-0.650253 13:2.440227 14:0.356621 15:0.058057 16:0.997176 17:-0.568163 18:0.388334 19:0.588083 20:1.464617 21:-0.499726 22:0.876125 23:0.228452 24:2.020453 25:0.706127 26:0.888856 27:-0.506985 28:-1.716865 29:1.022477 30:-0.666129 31:0.975700 32:-0.041324 33:0.306244 34:0.035731 35:1.346581 36:0.034471 37:-1.432344 38:0.835113 39:0.778203 40:0.234185 41:0.105623 42:0.177807 43:-0.802671 44:0.195575 45:-0.073010 46:0.489443 47:0.580153 48:0.532260 49:1.313042 50:1.067377 51:2.685252 52:-0.245879 53:0.217918 54:0.736728 55:2.035045 56:-1.907722 57:0.180194 58:-0.838288 59:-0.778684 60:0.347359
-1 1:0.052069 2:0.293292 3:-0.095838 4:-1.270126 5:0.025304 6:1.623475 7:-0.276495 8:0.154099 9:1.447948 10:0.035588 11:2.078655 12:1.608272 13:0.352796 14:-0.905924 15:0.142693 16:-0.509945 17:0.320094 18:-1.654802 19:-0.048788 20:-0.268858 21:-0.921516 22:0.996654 23:0.686825 24:0.536623 25:1.601093 26:0.626939 27:0.293937 28:-0.215044 29:-0.754381 30:-0.391852 31:-0.258488 32:0.243027 33:0.832731 34:0.545059 35:0.610080 36:0.508635 37:0.869379 38:0.554568 39:0.358729 40:-0.163286 41:0.195664 42:0.663570 43:0.704889 44:0.549997 45:0.806897 46:-0.306540 47:0.662055 48:-0.081906 49:-1.072670 50:0.516437 51:-0.528972 52:0.417516 53:0.418943 54:0.579158 55:-0.200442 56:0.030496 57:-1.079580 58:0.758107 59:-0.154534 60:0.715854
-1 1:-0.180992 2:-1.412244 3:-0.800027 4:-0.923864 5:-1.835625 6:0.572512 7:0.511649 8:-0.234493 9:0.025188 10:-0.117336 11:-0.088170 12:-0.013915 13:-0.015978 14:-0.580863 15:1.094054 16:-0.975933 17:-1.186044 18:-1.290006 19:-0.155079 20:0.454830 21:-0.807251 22:0.361922 23:-0.242899 24:0.173114 25:-0.069673 26:-0.426538 27:-0.588490 28:-0.785284 29:-0.053006 30:0.231854 31:0.644752 32:-0.221587 33:-2.148826 34:1.018008 35:-0.936957 36:1.045143 37:0.510084 38:0.968847 39:-0.207645 40:0.650894 41:-0.385644 42:0.814777 43:0.022637 44:1.585781 45:-0.940612 46:-0.765499 47:-1.765431 48:-1.253438 49:-0.225629 50:-0.639346 51:1.173702 52:0.409262 53:-0.266979 54:-0.107315 55:0.193125 56:0.310425 57:-0.143537 58:-0.893491 59:-0.647932 60:-0.013881
-1 1:0.839419 2:0.064236 3:-0.631460 4:0.664081 5:-2.895373 6:-0.275713 7:-0.956861 8:1.822580 9:-0.667752 10:-0.466388 11:0.614547 12:-0.437425 13:-0.107544 14:0.360247 15:-0.025170 16:-0.601269 17:-0.750504 18:1.215593 19:-0.727392 20:0.241577 21:1.064345 22:-0.927885 23:0.362496 24:0.115893 25:0.538342 26:-0.908368 27:0.506345 28:-2.238565 29:-1.387668 30:1.431804 31:-0.801831 32:-0.022877 33:1.718407 34:1.150171 35:0.595829 36:2.669266 37:1.903791 38:1.354923 39:-0.105745 40:-0.690664 41:-0.460559 42:-0.112454 43:0.000619 44:-1.685819 45:0.425208 46:-0.179812 47:0.146446 48:-1.666451 49:1.614461 50:-1.543025 51:0.214262 52:-1.461244 53:0.099746 54:-0.424255 55:1.593531 56:0.366545 57:0.443678 58:1.078641 59:-0.329024 60:-0.435539
-1 1:0.471959 2:0.102623 3:-0.694968 4:0.293698 5:-1.022647 6:-0.044324 7:-0.621671 8:-1.953639 9:-1.572013 10:0.311695 11:-1.494247 12:1.280589 13:1.067910 14:0.435809 15:1.680829 16:1.110932 17:0.220543 18:1.189096 19:-1.140947 20:-1.643964 21:0.157604 22:2.237446 23:-1.355294 24:1.855274 25:1.502283 26:1.126170 27:0.328833 28:0.143341 29:1.449033 30:0.273038 31:0.224834 32:-0.042545 33:-0.320420 34:-0.562321 35:-1.605177 36:2.137398 37:-0.162380 38:-0.051292 39:-0.739856 40:-0.006393 41:1.535110 42:1.808387 43:-0.997353 44:0.576731 45:-2.709128 46:-0.631063 47:-0.901993 48:2.321110 49:-0.377305 50:-1.017007 51:-0.707388 52:2.794194 53:0.310240 54:0.229657 55:0.943602 56:0.647612 57:0.845818 58:-0.908995 59:-0.369789 60:0.401619
-1 1:1.647805 2:0.596177 3:0.097092 4:0.310974 5:1.872243 6:0.881939 7:1.209679 8:0.754269 9:0.345759 10:-0.325382 11:-0.105423 12:0.972763 13:-0.373195 14:0.659091 15:-0.506319 16:-0.289220 17:0.312057 18:-0.170567 19:-0.298756 20:0.986089 21:-0.527180 22:1.140842 23:0.914317 24:-0.625470 25:-0.607704 26:-0.204412 27:-1.464920 28:-1.218370 29:0.361712 30:-2.029853 31:0.661613 32:-1.811596 33:0.373037 34:0.853780 35:-0.844861 36:-0.134360 37:1.103011 38:0.696168 39:-0.233632 40:0.514299 41:-0.056848 42:-1.672281 43:-0.801478 44:-0.435061 45:1.435106 46:-0.634084 47:-1.305734 48:-0.115509 49:1.845611 50:0.533470 51:0.631693 52:-0.148192 53:0.733779 54:1.130738 55:1.964391 56:-2.574241 57:0.122108 58:-0.301557 59:-0.087661 60:1.018818
-1 1:-0.403993 2:-1.043878 3:-0.257462 4:-0.087361 5:-0.709305 6:-0.689329 7:1.431900 8:-1.327287 9:1.544729 10:-1.053630 11:-1.430851 12:-0.817845 13:-2.251042 14:0.082512 15:-0.581145 16:-1.640875 17:-0.788845 18:1.374475 19:-1.481739 20:0.846313 21:0.795797 22:-1.140355 23:1.573850 24:-0.549541 25:-0.741511 26:1.201974 27:-0.400772 28:-1.570561 29:0.772929 30:-0.063948 31:-0.585476 32:-1.624009 33:-0.407200 34:2.723204 35:-0.433783 36:1.787230 37:-0.044825 38:-0.111486 39:0.935574 40:-0.393306 41:0.371485 42:1.213881 43:-0.214015 44:0.276189 45:-0.743509 46:-0.386353 47:-1.155199 48:-0.187718 49:0.769649 50:-1.721185 51:0.417832 52:-0.324948 53:-0.429059 54:-0.729349 55:0.225779 56:-0.051281 57:0.196718 58:-4.353325 59:0.075239 60:2.341399
-1 1:1.259790 2:0.333234 3:-0.090043 4:-0.887319 5:0.941957 6:0.399692 7:-0.276422 8:-0.251263 9:-0.230230 10:-1.526128 11:0.638202 12:0.402226 13:0.935870 14:0.371614 15:0.427808 16:1.989719 17:-0.174926 18:-1.064691 19:0.352562 20:-1.561510 21:1.117397 22:0.636765 23:-2.105244 24:-1.555256 25:0.099177 26:-0.417807 27:-0.467479 28:0.733554 29:1.416210 30:-0.374750 31:0.765694 32:1.289561 33:-1.355969 34:1.159323 35:-1.366729 36:1.521539 37:0.236373 38:-1.440425 39:-0.240225 40:2.029510 41:-0.197520 42:0.279442 43:-0.249524 44:0.041056 45:-0.167492 46:-0.557715 47:0.525380 48:-0.829902 49:-0.466939 50:-0.581106 51:-0.529848 52:0.014935 53:0.468571 54:0.201484 55:-1.167391 56:-0.130590 57:-1.123231 58:1.478463 59:0.779332 60:-1.116579
-1 1:-0.511777 2:0.176256 3:2.233974 4:0.552652 5:-1.182528 6:-0.151686 7:0.732623 8:-1.518684 9:-1.492050 10:-0.011784 11:0.073250 12:0.158969 13:1.847996 14:-2.035863 15:-0.290731 16:-2.181906 17:0.807028 18:-0.612965 19:0.528102 20:-1.187205 21:0.797844 22:-0.458789 23:-0.101533 24:0.253701 25:0.205733 26:1.714743 27:0.074453 28:-0.099200 29:0.254358 30:-0.380942 31:0.558689 32:1.146911 33:-1.451821 34:0.148009 35:0.086900 36:-0.411780 37:-0.621013 38:-3.720962 39:-0.684017 40:1.906938 41:-0.715547 42:0.240575 43:-0.556178 44:0.990626 45:-0.179487 46:-0.820115 47:-0.412215 48:-0.443219 49:0.310220 50:1.359189 51:0.341272 52:0.077477 53:-0.359837 54:1.155146 55:-2.681065 56:-1.139533 57:-0.999782 58:-0.221405 59:-0.727860 60:1.691714
-1 1:0.181025 2:-0.870957 3:0.316657 4:0.389551 5:-0.772993 6:0.201089 7:0.143602 8:1.017253 9:-2.546207 10:1.160908 11:0.362858 12:2.550339 13:0.412703 14:1.342583 15:0.069430 16:0.415122 17:0.096243 18:-1.066798 19:0.252638 20:-1.959326 21:0.382060 22:-0.532033 23:0.019309 24:1.119560 25:1.498671 26:0.628014 27:0.742623 28:2.302518 29:0.546237 30:1.561453 31:0.462167 32:0.463154 33:0.055996 34:0.694610 35:-2.481457 36:0.041456 37:-0.256080 38:-0.839588 39:-0.319791 40:0.347052 41:-1.200139 42:0.067905 43:1.047005 44:-1.303591 45:-0.891722 46:-0.375380 47:0.554241 48:3.177387 49:-0.574691 50:-0.449116 51:1.043141 52:0.460517 53:0.017681 54:0.282402 55:-0.669042 56:0.774030 57:1.153745 58:0.633822 59:-0.580609 60:-0.674973
-1 1:-0.435698 2:-0.697341 3:0.986799 4:0.913625 5:1.389854 6:-2.060813 7:1.106941 8:0.294896 9:-1.060834 10:1.104929 11:0.463861 12:1.081034 13:0.195204 14:0.913214 15:-0.335134 16:-1.836142 17:-0.481685 18:-0.173278 19:-0.155851 20:-0.979279 21:0.530097 22:-0.669404 23:-1.083681 24:0.304598 25:0.586044 26:-1.488125 27:-0.406419 28:1.279974 29:0.370452 30:-1.146701 31:-0.002098 32:-1.702386 33:0.642056 34:0.384917 35:0.235608 36:0.345800 37:0.413047 38:0.924547 39:-1.408061 40:-0.717028 41:1.122366 42:0.665736 43:0.362658 44:-0.015677 45:-1.363630 46:1.397780 47:-0.017090 48:-2.415815 49:-1.308002 50:0.221016 51:-1.704158 52:0.343518 53:0.336342 54:0.208938 55:1.261491 56:0.930829 57:-1.031534 58:0.538958 59:-0.266694 60:-1.400800
-1 1:0.034955 2:0.256685 3:-0.947735 4:-0.631640 5:0.107939 6:1.341679 7:-0.777108 8:-0.702027 9:1.511216 10:0.117137 11:1.336124 12:-2.370079 13:-0.377791 14:-0.944549 15:2.067939 16:-1.242383 17:-1.775968 18:-0.617484 19:2.184924 20:-0.805897 21:-0.208124 22:-0.211440 23:-1.217983 24:0.284951 25:-0.315484 26:0.418197 27:-0.066867 28:-1.312694 29:-3.075646 30:0.770956 31:-0.269842 32:0.839535 33:2.000099 34:-1.724461 35:-0.942692 36:-0.340332 37:0.334544 38:1.475710 39:-0.386662 40:1.152309 41:-0.741989 42:-0.767084 43:0.221099 44:-1.857184 45:-0.995703 46:1.607502 47:-0.284564 48:-0.105456 49:-0.067641 50:-0.024009 51:0.767390 52:1.040179 53:0.614571 54:1.236177 55:-0.429456 56:-0.601731 57:-0.202275 58:0.842804 59:-1.204453 60:-0.947131
-1 1:-0.965359 2:0.990716 3:0.545127 4:1.124459 5:0.500385 6:-1.302718 7:0.050915 8:-0.882093 9:0.804860 10:-0.493863 11:-0.240205 12:0.163038 13:-0.534141 14:-0.428827 15:-0.113821 16:-1.216715 17:-1.613367 18:-1.064021 19:0.836183 20:0.538983 21:-0.853021 22:0.024634 23:0.165489 24:0.845619 25:0.367793 26:-0.150624 27:-0.447838 28:-0.770317 29:0.367893 30:-2.680160 31:-0.490829 32:-2.064712 33:1.255093 34:-1.402482 35:1.068391 36:1.139904 37:0.763822 38:-1.042184 39:0.524504 40:-0.011840 41:1.091446 42:0.306814 43:1.146876 44:-0.458959 45:-0.517522 46:-0.259196 47:0.775255 48:-0.649861 49:1.194846 50:0.699781 51:-0.174863 52:-0.295618 53:-0.009609 54:2.898010 55:0.775456 56:-0.259976 57:-0.524972 58:-0.976047 59:0.573164 60:-0.127777
-1 1:-0.340677 2:0.508879 3:-0.072441 4:0.293272 5:-0.480907 6:1.293224 7:-1.563056 8:-0.659619 9:-0.765415 10:0.396379 11:1.634566 12:-0.815607 13:-0.614606 14:0.005765 15:-1.706369 16:-0.995956 17:0.390897 18:0.710603 19:1.966005 20:-0.558566 21:-1.099090 22:-0.527563 23:0.181791 24:0.285018 25:0.104896 26:0.793862 27:0.398213 28:-0.395044 29:1.245620 30:1.256401 31:-0.412407 32:-1.384034 33:-0.047666 34:-0.007492 35:0.981580 36:0.108762 37:0.104702 38:-0.443360 39:-0.464899 40:-1.725447 41:-0.144115 42:-0.335361 43:1.926256 44:2.561487 45:-0.866620 46:-1.252040 47:-0.022292 48:-0.496311 49:-0.200327 50:-0.005905 51:-0.069095 52:-0.573553 53:-0.138185 54:0.414468 55:0.606885 56:-0.832734 57:0.415304 58:2.460907 59:0.320249 60:-1.723814
-1 1:-0.547703 2:0.271430 3:-2.097529 4:-0.538939 5:1.514005 6:0.382242 7:0.273576 8:-0.312906 9:-0.191025 10:0.774593 11:0.689282 12:1.035738 13:-0.582432 14:1.410762 15:-0.411900 16:-0.209203 17:-0.911136 18:-0.002147 19:0.554981 20:-0.521121 21:1.885324 22:-0.528890 23:2.249180 24:-1.581237 25:-0.057552 26:-1.145551 27:-0.440305 28:0.733550 29:-0.649315 30:-0.393701 31:0.796871 32:-0.657304 33:1.259851 34:0.605830 35:0.639229 36:0.244778 37:0.875773 38:0.727485 39:0.213118 40:-0.495296 41:1.643170 42:-0.743609 43:0.868785 44:0.069608 45:0.097689 46:-0.193837 47:0.631113 48:-0.870011 49:-1.146074 50:-1.042051 51:0.345383 52:0.629137 53:0.879118 54:1.379526 55:-0.067157 56:-0.954804 57:-0.013781 58:1.279464 59:-0.961955 60:-1.678927
-1 1:0.725920 2:0.270978 3:-0.861950 4:-0.119270 5:0.277267 6:-1.747735 7:0.439858 8:-1.802017 9:1.774420 10:1.017061 11:-0.928635 12:-0.088460 13:-0.625523 14:-0.634118 15:-0.934712 16:-0.506029 17:0.100171 18:-0.252060 19:0.110103 20:0.179535 21:-1.377886 22:0.134505 23:1.685942 24:-0.772893 25:1.014704 26:0.420635 27:1.085523 28:2.185121 29:-0.565206 30:2.448304 31:-0.617409 32:1.533229 33:0.338509 34:1.119306 35:-1.459566 36:-2.241601 37:1.121547 38:0.200331 39:0.222201 40:-2.901354 41:1.488564 42:0.675682 43:-1.335343 44:1.522416 45:-0.569036 46:-0.381996 47:0.344248 48:0.151634 49:0.497659 50:-0.044774 51:-3.105313 52:0.144245 53:0.407886 54:0.196442 55:0.170922 56:-0.577668 57:-0.002331 58:-1.175872 59:-1.486506 60:0.915744
-1 1:-2.534848 2:0.511406 3:1.112207 4:-1.297887 5:-0.575493 6:0.071857 7:2.032682 8:-1.530143 9:-0.289594 10:-0.023929 11:0.011478 12:1.127137 13:-0.884202 14:-0.286906 15:-0.315782 16:0.305913 17:-1.065194 18:-1.052944 19:-0.888400 20:0.661837 21:-0.122233 22:0.397622 23:-0.941413 24:-0.335400 25:0.662764 26:0.452363 27:-1.796125 28:1.516501 29:-0.626880 30:0.473588 31:-1.664502 32:-1.678621 33:-0.565291 34:-0.641600 35:0.584018 36:-0.583007 37:0.127327 38:0.337010 39:-1.630057 40:2.076951 41:1.546686 42:-0.165026 43:-1.469181 44:-0.537172 45:-0.078027 46:-0.430555 47:1.167030 48:0.122042 49:-0.369368 50:0.651805 51:1.809677 52:0.889913 53:1.082737 54:0.141112 55:-0.659645 56:-0.978131 57:0.035829 58:1.461034 59:0.411603 60:0.508383
-1 1:1.213719 2:1.851428 3:-2.358111 4:-0.514101 5:1.064015 6:0.769649 7:0.870182 8:-0.093179 9:0.052931 10:0.030779 11:-1.076745 12:1.098635 13:0.949658 14:-2.321254 15:-0.132694 16:0.536506 17:0.835822 18:0.121068 19:0.459106 20:1.009298 21:-2.628467 22:-0.237524 23:-1.203127 24:1.416742 25:0.264108 26:0.242354 27:-0.386331 28:1.006078 29:0.506587 30:2.740179 31:-1.104231 32:-0.212326 33:0.571659 34:-0.320394 35:-1.200513 36:0.863980 37:-1.253826 38:0.923639 39:-0.227964 40:0.848454 41:0.749257 42:1.382215 43:-1.931622 44:1.230009 45:-1.110671 46:1.388551 47:0.853549 48:2.143277 49:1.033287 50:-0.235951 51:0.962835 52:-0.473111 53:0.063620 54:-0.663988 55:0.489794 56:-0.031301 57:-2.514264 58:-1.055202 59:0.052198 60:0.416772
-1 1:0.417547 2:0.804836 3:-0.491957 4:1.711279 5:2.969419 6:0.000376 7:0.842268 8:0.813063 9:-2.061169 10:-0.428180 11:0.296613 12:-0.307461 13:-1.027565 14:1.628568 15:-0.402174 16:0.830220 17:-0.722596 18:-0.272622 19:0.391456 20:-0.363075 21:-0.095931 22:-0.128270 23:0.554792 24:-0.127643 25:2.295090 26:0.612710 27:0.867136 28:0.956332 29:-1.873965 30:0.575448 31:-0.329778 32:0.732796 33:0.525367 34:1.149748 35:-1.235487 36:-2.130052 37:1.228953 38:0.348139 39:-0.809988 40:-0.887724 41:1.432362 42:-0.095026 43:0.101344 44:0.699902 45:0.666030 46:0.775939 47:-1.496950 48:-0.740635 49:0.381697 50:0.451554 51:-0.142493 52:-0.767436 53:-1.040263 54:2.856756 55:1.489249 56:0.338997 57:-1.112708 58:0.842625 59:-0.132845 60:-1.495961
-1 1:-0.721792 2:1.325652 3:0.239829 4:-0.631715 5:-0.042002 6:-0.695006 7:1.060206 8:-0.505593 9:-2.014177 10:-0.091254 11:-0.523689 12:-0.297492 13:-0.405961 14:-1.462351 15:1.228104 16:0.094454 17:-0.747710 18:0.093774 19:-0.194911 20:1.525173 21:0.436928 22:0.233083 23:-1.563203 24:-1.343934 25:-1.488141 26:0.241205 27:-1.465586 28:1.426093 29:-0.405630 30:-0.397210 31:1.916608 32:0.343148 33:2.551433 34:0.910133 35:-1.653376 36:0.639739 37:1.228559 38:0.453369 39:0.125841 40:0.465593 41:0.904933 42:-0.464203 43:-0.890073 44:0.785038 45:-0.041141 46:1.481179 47:-0.445248 48:0.042986 49:-0.414689 50:0.017294 51:1.075271 52:1.238329 53:-1.241067 54:0.732239 55:0.188878 56:0.643947 57:-1.492466 58:-0.509472 59:0.433148 60:0.002820
-1 1:2.653944 2:-2.011714 3:-1.781668 4:1.990009 5:1.478711 6:0.076041 7:-0.700759 8:-0.098708 9:-0.380093 10:-1.230530 11:-1.528562 12:-1.057190 13:0.530904 14:1.976836 15:-0.365510 16:1.195658 17:0.989015 18:-0.289901 19:-0.220606 20:0.304254 21:-0.154103 22:-0.984864 23:0.004901 24:-0.996419 25:-0.864355 26:0.618139 27:2.019510 28:-0.398214 29:0.956857 30:-0.275650 31:0.226546 32:-0.021878 33:0.109940 34:0.959879 35:-0.605435 36:0.145238 37:0.604381 38:-1.212982 39:0.407316 40:1.286249 41:1.205456 42:-0.546216 43:1.355862 44:-0.441061 45:-0.986308 46:1.839121 47:-0.335706 48:0.279371 49:0.707719 50:0.140119 51:-0.101075 52:-0.533014 53:-0.018403 54:0.921917 55:0.769403 56:0.177527 57:0.654885 58:-0.124757 59:0.583941 60:-1.405531
-1 1:0.229843 2:-1.706527 3:-2.888975 4:-0.918734 5:0.024594 6:-0.374205 7:-1.106608 8:-0.695775 9:0.280457 10:0.088201 11:-1.435760 12:0.978102 13:1.993259 14:1.812932 15:-0.129642 16:-0.369470 17:0.640790 18:-0.079464 19:1.036744 20:1.598109 21:-1.152456 22:-0.552681 23:-0.536007 24:0.251346 25:-0.547955 26:-1.718719 27:-0.950651 28:-1.572946 29:-0.165378 30:-0.076819 31:0.615180 32:-1.091287 33:0.668361 34:-1.233143 35:-1.289951 36:0.982843 37:-0.352965 38:-0.480231 39:-0.611596 40:0.479819 41:-0.065385 42:1.321742 43:0.040093 44:0.586203 45:-2.307550 46:-0.666961 47:-0.767399 48:0.355752 49:-0.382253 50:0.188646 51:1.053269 52:-0.038038 53:-1.296307 54:-1.819628 55:-0.912765 56:0.168412 57:0.588792 58:0.266161 59:0.500282 60:0.726936
-1 1:0.862640 2:-0.554610 3:-0.139340 4:2.456311 5:-0.238040 6:-0.483790 7:0.581007 8:0.076199 9:-0.104002 10:-0.408390 11:-1.377419 12:1.591732 13:-0.310414 14:-0.752143 15:-0.683035 16:-1.789542 17:-1.698601 18:1.871809 19:1.165810 20:0.599399 21:0.148298 22:0.252934 23:0.121926 24:-2.156613 25:-0.737350 26:0.627978 27:-0.902094 28:0.338954 29:1.340519 30:0.984602 31:0.651504 32:-0.284397 33:1.505474 34:0.393773 35:-0.446452 36:-0.264531 37:1.540942 38:0.782224 39:-0.416786 40:0.686050 41:-0.134393 42:0.298341 43:-0.307556 44:1.202106 45:-0.354642 46:-1.332652 47:0.434474 48:1.675641 49:-0.864122 50:-0.056214 51:-1.364030 52:-0.889682 53:-2.205685 54:-1.284578 55:-0.175791 56:0.589884 57:-2.323241 58:0.854187 59:-1.732670 60:0.620980
-1 1:-0.405676 2:-2.065678 3:-0.193960 4:2.026357 5:0.094508 6:-0.290630 7:2.141513 8:-0.163093 9:-0.907869 10:-0.446376 11:-1.571764 12:-1.750746 13:-0.081815 14:-1.175657 15:-0.689362 16:0.704526 17:0.730868 18:-1.045136 19:0.025391 20:-0.591388 21:1.352079 22:0.496156 23:0.171144 24:0.655289 25:-0.864610 26:-0.515653 27:-0.992031 28:-1.377090 29:0.467837 30:-0.927016 31:1.265294 32:-0.059837 33:-0.389836 34:1.670331 35:-0.469402 36:-1.397245 37:-0.337866 38:0.056255 39:-0.161799 40:-1.434001 41:0.162207 42:0.291827 43:1.924861 44:0.272006 45:0.570185 46:0.984047 47:0.958878 48:-0.806471 49:0.451067 50:0.817063 51:0.409776 52:-1.315515 53:-0.060169 54:-0.802653 55:-0.842296 56:-0.939374 57:-2.895147 58:0.276818 59:-0.963253 60:0.804861
-1 1:-0.083338 2:-0.335509 3:0.148945 4:-0.899495 5:1.866578 6:1.463003 7:0.355024 8:0.356582 9:-1.874224 10:0.604208 11:0.427145 12:-0.604789 13:0.741666 14:1.524777 15:-0.167609 16:1.473209 17:1.056843 18:1.144294 19:-1.390129 20:-0.910375 21:-2.108243 22:0.223151 23:0.181996 24:-0.253809 25:-0.602644 26:-0.876374 27:-1.248100 28:-0.538011 29:1.369535 30:-1.514042 31:-0.561392 32:1.408001 33:1.882113 34:-0.620820 35:1.957750 36:-0.123624 37:0.412425 38:0.581018 39:-0.823018 40:1.005929 41:0.161743 42:-0.721446 43:1.562470 44:0.621797 45:0.612064 46:-0.664252 47:0.476393 48:0.106513 49:2.270621 50:1.279547 51:0.636122 52:-0.215774 53:-0.220825 54:-1.003120 55:-0.557100 56:-0.422980 57:0.602483 58:0.497111 59:-0.978444 60:0.043674
-1 1:0.144658 2:-0.773459 3:1.866625 4:-0.842757 5:0.976258 6:0.272387 7:0.741910 8:-0.549155 9:0.838977 10:1.665759 11:-1.380720 12:-1.253531 13:0.010955 14:1.153321 15:-0.919611 16:0.236640 17:0.493494 18:0.551191 19:2.724198 20:2.613727 21:0.351690 22:-1.368131 23:-0.284728 24:0.902931 25:-0.324801 26:-0.178371 27:1.283892 28:0.696914 29:0.856318 30:-0.075118 31:1.075141 32:0.006160 33:0.446669 34:0.046375 35:-0.068691 36:0.066909 37:0.783983 38:0.208264 39:0.044844 40:1.642418 41:1.666996 42:-0.511759 43:-0.308645 44:-0.079257 45:-0.353936 46:-0.887103 47:-0.881492 48:0.778981 49:-0.202281 50:-0.942439 51:1.678118 52:1.143811 53:0.365092 54:-0.245477 55:0.786320 56:0.149469 57:-0.688930 58:-0.701263 59:-0.256312 60:1.157326
-1 1:1.737135 2:1.099412 3:-2.090508 4:0.298630 5:-0.850178 6:1.203169 7:0.145795 8:-1.075341 9:-1.405196 10:0.042047 11:-0.502167 12:0.007420 13:-0.261355 14:-0.028685 15:1.727153 16:-1.808378 17:-0.552854 18:0.150315 19:0.291870 20:-0.064775 21:1.667089 22:0.325450 23:0.828734 24:0.845915 25:-0.543755 26:-0.116144 27:1.267603 28:-0.622444 29:0.982866 30:0.696604 31:-0.755055 32:-0.874481 33:-0.925189 34:-1.467210 35:-0.511673 36:-1.331672 37:-0.840307 38:-0.131112 39:0.928870 40:-0.095028 41:-1.274870 42:0.065381 43:-0.043830 44:-1.058715 45:1.472381 46:0.669579 47:-0.021266 48:0.582651 49:0.418345 50:-0.394798 51:1.087743 52:0.107664 53:-0.622496 54:0.674723 55:-1.371704 56:-0.520216 57:0.969056 58:-0.676390 59:0.085785 60:-1.137297
-1 1:0.953931 2:1.052257 3:0.737878 4:0.500539 5:1.266405 6:-1.157134 7:1.264628 8:1.910647 9:0.259417 10:-0.502723 11:-0.300246 12:-0.144599 13:1.788536 14:0.191626 15:-2.104581 16:0.896057 17:0.277275 18:-0.086619 19:-1.363662 20:-0.226988 21:-0.080189 22:-0.443760 23:0.573003 24:0.470723 25:-2.215956 26:-2.857144 27:-1.611298 28:1.251534 29:1.517670 30:-1.573925 31:-0.580100 32:-0.616753 33:1.557982 34:-1.409457 35:-0.657916 36:1.467078 37:0.064619 38:0.481410 39:0.079492 40:1.658625 41:-0.695869 42:0.873963 43:0.515389 44:1.378602 45:-0.608219 46:-0.108034 47:1.120769 48:-0.125420 49:-0.516218 50:0.817671 51:-0.403758 52:-1.706001 53:-1.253169 54:-0.395245 55:-1.664386 56:0.807614 57:0.818288 58:0.056704 59:0.377742 60:-0.903707
-1 1:0.844570 2:-1.673143 3:-1.095125 4:-0.074997 5:0.056128 6:-0.580439 7:-0.019747 8:-0.153526 9:1.470132 10:1.820304 11:-0.010328 12:-0.649587 13:0.169772 14:0.326185 15:0.095880 16:1.092316 17:0.413079 18:-1.024161 19:-1.512827 20:0.914268 21:-0.518376 22:0.652336 23:0.631214 24:1.680944 25:-0.197409 26:0.205355 27:-0.588295 28:-0.303743 29:-0.380181 30:-0.059027 31:-0.245727 32:-0.386834 33:-1.574190 34:-1.415112 35:-0.054801 36:-1.694399 37:-0.360830 38:0.306639 39:0.641300 40:0.211928 41:-0.334882 42:-1.016398 43:-0.218388 44:-0.254112 45:-0.364943 46:1.306105 47:-1.079805 48:0.149406 49:-1.118068 50:1.071144 51:-1.176110 52:-0.805266 53:-0.127114 54:-0.656976 55:0.163897 56:0.790943 57:0.773883 58:-0.072833 59:0.802854 60:-0.493018
-1 1:-1.120529 2:-0.531535 3:-0.713815 4:-0.875628 5:-0.811996 6:1.762509 7:0.935761 8:-0.208834 9:-0.345680 10:-1.736547 11:1.968632 12:1.411149 13:-0.064774 14:0.261234 15:1.774781 16:0.837915 17:-1.548646 18:0.895731 19:0.203294 20:1.751519 21:-0.390308 22:0.342705 23:-1.325766 24:-0.191969 25:-0.471949 26:-0.352715 27:-0.689559 28:1.308134 29:0.843048 30:0.198817 31:0.514032 32:-0.285399 33:0.069784 34:-1.479090 35:1.000157 36:-0.857903 37:1.042820 38:0.813086 39:0.470060 40:0.034337 41:0.307311 42:-1.770918 43:1.086431 44:-0.980982 45:-1.196034 46:-0.774395 47:-1.365470 48:0.513860 49:-0.634171 50:-1.738367 51:-0.902593 52:-0.183210 53:2.900285 54:0.040433 55:-1.659886 56:-0.660797 57:-0.024479 58:0.783649 59:1.542432 60:0.383903
-1 1:0.377909 2:-1.242126 3:-0.313513 4:1.601833 5:-0.233530 6:2.514664 7:0.697561 8:0.479883 9:0.028775 10:0.596517 11:-0.830594 12:1.357343 13:0.380186 14:-0.060560 15:-0.883891 16:1.273393 17:-3.971093 18:0.884861 19:-0.115272 20:-0.078783 21:0.756325 22:0.795238 23:-0.211197 24:-0.624460 25:-0.699995 26:0.306460 27:-0.994853 28:-0.143091 29:0.805074 30:-1.006341 31:0.449750 32:0.440223 33:2.752736 34:0.957607 35:-0.424981 36:-0.691982 37:0.417377 38:0.217471 39:-0.881835 40:0.106483 41:-0.791868 42:0.441934 43:-1.366746 44:0.738321 45:1.991658 46:-0.532097 47:-1.573878 48:-0.371923 49:1.282307 50:0.922331 51:-0.150929 52:0.819657 53:0.488611 54:0.861116 55:-0.633539 56:-1.997889 57:-1.042056 58:-1.161921 59:0.978612 60:-0.893368
-1 1:-0.939595 2:1.115637 3:0.215650 4:1.136336 5:-0.357379 6:-0.279942 7:-0.100403 8:0.651204 9:-1.599338 10:-0.204235 11:0.962167 12:0.550713 13:-1.739774 14:0.177456 15:-0.125023 16:-1.427415 17:-0.149435 18:-1.242098 19:-0.363162 20:-1.486592 21:1.615094 22:0.518636 23:0.237214 24:-0.150673 25:1.878327 26:0.870689 27:-0.544622 28:0.334254 29:0.058345 30:1.361848 31:-1.600124 32:-1.342772 33:0.491822 34:0.871130 35:-1.630686 36:-0.678806 37:1.518695 38:-1.077028 39:-0.086714 40:-0.003811 41:-1.032710 42:0.006235 43:-1.449738 44:0.141830 45:-1.228118 46:0.215402 47:-1.518223 48:0.086260 49:-0.017614 50:-1.113548 51:-0.632883 52:0.648873 53:1.019347 54:-0.290534 55:-0.199536 56:0.665200 57:-0.076991 58:1.897247 59:1.038108 60:1.888738
-1 1:0.918999 2:-0.767026 3:2.369560 4:1.071534 5:0.980975 6:-1.902713 7:0.344736 8:0.026604 9:-0.324943 10:-0.601126 11:-1.818779 12:-0.569543 13:0.120138 14:-1.418069 15:-1.071154 16:-0.168121 17:0.188713 18:-0.235777 19:0.449161 20:0.104103 21:0.086553 22:-0.645794 23:0.558676 24:-0.336339 25:-0.228816 26:-0.620558 27:-0.329845 28:0.866991 29:-1.537716 30:-0.438632 31:1.073657 32:-0.284197 33:1.119993 34:-1.512649 35:0.106407 36:-0.639382 37:0.714897 38:-1.716968 39:0.887033 40:0.250990 41:0.959823 42:-0.485300 43:-1.798336 44:0.173654 45:-1.146407 46:-1.607697 47:-0.344047 48:-0.392580 49:-0.680082 50:-0.133747 51:-0.550767 52:-0.095603 53:-0.212789 54:-0.076324 55:-0.148618 56:-0.147035 57:1.166365 58:1.360867 59:-1.649695 60:-0.829206
-1 1:1.097612 2:1.460231 3:-0.431880 4:-0.388809 5:0.244534 6:0.009338 7:-2.127661 8:0.749416 9:-0.096807 10:-0.006323 11:1.133253 12:-0.268212 13:1.149304 14:-0.525937 15:0.170142 16:0.956965 17:0.022702 18:0.343886 19:0.027511 20:-0.285260 21:-1.913295 22:-1.237375 23:1.872023 24:0.951765 25:-1.390939 26:-0.514239 27:-0.070109 28:0.315698 29:-0.249661 30:0.003858 31:0.975941 32:-1.246266 33:-1.476380 34:1.288104 35:1.068026 36:1.081886 37:-0.067082 38:1.216322 39:1.307650 40:0.433032 41:-1.997299 42:-0.112146 43:-0.363169 44:-1.062575 45:1.269562 46:0.530781 47:-0.527716 48:-0.708391 49:2.235761 50:1.580664 51:0.922516 52:-0.749544 53:1.126594 54:0.368915 55:0.749488 56:0.682008 57:2.496246 58:1.379492 59:-0.173991 60:0.839537
-1 1:1.037486 2:2.067145 3:-0.667098 4:0.004837 5:-1.331086 6:-0.563007 7:0.820275 8:0.470095 9:-0.285126 10:-0.503625 11:1.355465 12:-0.269569 13:0.781117 14:-2.237532 15:-1.756738 16:0.741331 17:2.671762 18:0.316983 19:-0.695970 20:-2.691846 21:-0.301922 22:-0.882492 23:-0.815641 24:-2.084190 25:1.737853 26:0.810639 27:-0.775013 28:-1.309929 29:-0.326866 30:-0.098536 31:-0.639744 32:-1.048031 33:1.210773 34:-0.798060 35:-0.058514 36:-0.113056 37:0.373281 38:2.191382 39:0.884084 40:1.193944 41:0.075734 42:-0.257929 43:-0.587730 44:-0.139227 45:-1.249407 46:-0.712445 47:-1.716622 48:-0.499925 49:0.501317 50:-1.359808 51:-1.236155 52:1.175886 53:0.190362 54:0.077508 55:1.390122 56:1.970023 57:-0.612122 58:0.206954 59:-0.375177 60:-1.396478
-1 1:0.610122 2:0.996605 3:-1.800151 4:1.162207 5:0.847419 6:-0.526728 7:-1.274748 8:-0.449553 9:1.263322 10:-0.632543 11:1.703189 12:0.288883 13:1.826473 14:1.877970 15:0.678502 16:0.446056 17:0.711710 18:-0.509789 19:-0.383569 20:-0.393718 21:0.114290 22:1.185119 23:0.214861 24:1.385314 25:1.219412 26:-0.019872 27:-3.612225 28:-1.957186 29:0.054240 30:1.374093 31:-0.985353 32:-1.412371 33:-1.294664 34:0.717642 35:-2.215285 36:1.758195 37:-1.243559 38:1.500716 39:0.652812 40:-1.711991 41:-0.887648 42:-0.112742 43:-0.054655 44:-0.141430 45:-1.613701 46:0.592192 47:0.170370 48:-1.523702 49:0.104655 50:0.975518 51:-0.460339 52:-0.806232 53:2.333981 54:0.208682 55:-0.121787 56:0.387519 57:-0.068002 58:-1.789843 59:-0.857409 60:1.216412
-1 1:-0.822783 2:1.124411 3:0.361688 4:1.370850 5:0.865183 6:0.642805 7:-0.383157 8:-1.219616 9:-0.604765 10:0.163794 11:1.926989 12:1.601230 13:1.394261 14:0.179740 15:-0.750853 16:0.108244 17:0.507133 18:1.049669 19:0.715263 20:-1.990456 21:-0.568092 22:-0.367496 23:-0.411407 24:0.108605 25:0.559235 26:-0.907186 27:-1.949006 28:-0.906125 29:-1.123603 30:0.410597 31:-0.453172 32:-0.468922 33:-1.833927 34:0.646430 35:0.422264 36:-1.440875 37:0.447706 38:0.337093 39:1.115251 40:1.042752 41:0.504430 42:-0.456147 43:2.607974 44:1.456763 45:1.668585 46:1.004969 47:1.330088 48:0.156318 49:0.537026 50:0.540026 51:1.741133 52:0.095808 53:1.370243 54:1.132304 55:1.895610 56:-0.098690 57:-0.714237 58:0.077795 59:0.083388 60:-1.802021
-1 1:0.566435 2:-0.544231 3:0.212807 4:0.955357 5:-0.400264 6:-0.507352 7:-1.714826 8:-0.511041 9:-1.472342 10:-0.841130 11:0.331846 12:0.147119 13:-0.914587 14:-0.892979 15:-1.214558 16:-1.029890 17:-0.681638 18:-0.587548 19:-0.557476 20:2.188337 21:-0.261572 22:-0.607305 23:-1.150366 24:-0.512169 25:0.828506 26:-0.843511 27:0.404860 28:0.385414 29:-0.931014 30:-2.166975 31:-1.057206 32:0.330137 33:0.642350 34:0.706929 35:-0.349035 36:0.499090 37:0.051892 38:-0.112232 39:-0.156528 40:-0.762198 41:0.542583 42:1.157016 43:-0.224462 44:-0.528354 45:-0.533204 46:0.300751 47:-0.641345 48:1.357730 49:0.842041 50:-0.303444 51:0.006749 52:0.341711 53:0.076870 54:1.618476 55:-0.820857 56:0.969823 57:-0.268042 58:1.043540 59:-0.271003 60:-2.015997
-1 1:-0.863640 2:0.327015 3:0.581529 4:0.226153 5:0.132426 6:1.753249 7:0.396959 8:-0.695871 9:0.984515 10:0.490771 11:0.944978 12:0.336900 13:-0.616217 14:0.502574 15:0.386241 16:-0.020224 17:-0.319010 18:-1.289815 19:0.014475 20:-0.329961 21:-0.399339 22:0.330700 23:0.177956 24:-0.590071 25:1.343518 26:-0.793658 27:-1.806754 28:-0.786277 29:-0.261846 30:0.049885 31:-0.471691 32:-0.930846 33:0.977570 34:0.341945 35:0.223587 36:-1.066171 37:1.096777 38:0.322044 39:0.731519 40:0.023327 41:-1.453239 42:1.578078 43:-1.006722 44:1.024027 45:1.070915 46:-0.231035 47:0.700954 48:1.998056 49:-0.276300 50:-0.845960 51:1.347530 52:-0.096311 53:-0.832274 54:0.783264 55:0.141284 56:1.459351 57:-0.460954 58:-0.299555 59:-0.240953 60:-0.854902
-1 1:0.071739 2:0.471282 3:-0.480342 4:1.064885 5:0.326733 6:1.749152 7:-0.961343 8:1.592099 9:2.094405 10:-1.967668 11:-0.949744 12:0.307836 13:0.050864 14:-1.323628 15:-0.060184 16:-0.314182 17:0.329473 18:0.946805 19:0.143142 20:-1.818374 21:-0.549584 22:-2.697094 23:-0.571876 24:-0.541790 25:-0.846970 26:-0.407863 27:-0.181516 28:0.041403 29:-0.751453 30:0.544941 31:0.181512 32:0.004648 33:0.515284 34:0.236931 35:-0.450326 36:-0.732874 37:0.849721 38:-0.327434 39:0.371218 40:1.319601 41:0.552463 42:0.976013 43:0.229787 44:-0.857099 45:-1.921205 46:0.028595 47:-0.094065 48:-0.470754 49:-0.502094 50:-0.169966 51:-1.121989 52:0.316634 53:0.483085 54:2.682537 55:0.336415 56:-1.759559 57:-0.653070 58:-0.292064 59:2.050792 60:-2.039426
-1 1:1.051634 2:0.303532 3:0.470778 4:1.194392 5:-1.559492 6:0.957943 7:1.323921 8:1.523405 9:0.058358 10:-0.168807 11:-0.688682 12:0.293091 13:-1.284266 14:0.097313 15:0.510526 16:0.914135 17:2.557899 18:-0.352710 19:1.284051 20:0.700543 21:0.207096 22:1.227845 23:-1.825316 24:-0.750126 25:0.637749 26:1.086716 27:0.108608 28:1.548793 29:-1.261125 30:-1.245597 31:1.200036 32:0.013836 33:0.139259 34:0.501472 35:0.473768 36:-1.366258 37:0.511480 38:0.427293 39:0.541950 40:-0.712678 41:0.651234 42:1.317627 43:0.161945 44:-0.184277 45:-0.116796 46:1.547115 47:-1.896108 48:1.861344 49:0.468404 50:0.006992 51:-0.506310 52:-1.211189 53:-0.886419 54:1.017308 55:0.973256 56:0.707562 57:0.113237 58:0.038102 59:1.562924 60:-0.007408
-1 1:0.486475 2:1.358413 3:-1.760318 4:-0.267496 5:0.627035 6:1.710445 7:0.123561 8:0.153152 9:-2.533777 10:1.063210 11:1.185019 12:-1.008747 13:1.236969 14:1.064861 15:-1.937315 16:-0.462404 17:-0.152344 18:0.452570 19:-0.316873 20:-1.180515 21:-1.286623 22:0.741378 23:-1.813253 24:-0.714339 25:0.838130 26:0.524689 27:0.152564 28:-1.068327 29:-0.384177 30:-0.061268 31:-0.781580 32:0.633915 33:0.574738 34:-0.605891 35:0.616216 36:0.050248 37:0.967505 38:-0.092528 39:1.026852 40:-0.805187 41:-1.348076 42:0.571540 43:-1.617529 44:-1.518484 45:-1.001335 46:0.510104 47:0.341593 48:1.364094 49:-0.219502 50:-1.215910 51:-0.297209 52:0.884308 53:0.422412 54:-1.606749 55:-0.982621 56:-0.670754 57:0.597817 58:0.124875 59:-0.082673 60:0.756097
-1 1:1.342244 2:-0.586225 3:1.142791 4:-0.469744 5:0.291820 6:2.291578 7:2.702200 8:0.030369 9:-0.754403 10:0.289890 11:-0.675519 12:-0.742999 13:1.068719 14:1.434747 15:0.398750 16:-1.213428 17:0.712263 18:0.054688 19:-1.225821 20:0.129655 21:-0.422919 22:0.774012 23:0.778172 24:0.914476 25:-1.030518 26:-0.395570 27:-1.722944 28:0.485903 29:0.716815 30:0.246526 31:-1.623662 32:-1.679569 33:0.125995 34:-0.800886 35:-1.166607 36:0.218204 37:-0.986640 38:-0.428380 39:-0.148306 40:-1.227107 41:-0.287999 42:-0.400499 43:-1.240456 44:0.964847 45:0.556718 46:-0.229174 47:-0.076193 48:0.645018 49:-0.539791 50:1.015826 51:0.390214 52:-0.215186 53:0.024783 54:-0.766469 55:1.338299 56:-0.127392 57:1.088042 58:-1.449635 59:-1.292628 60:-0.935140
-1 1:-0.019138 2:1.572592 3:-0.247655 4:-0.307794 5:1.388118 6:0.179306 7:-0.249189 8:0.674189 9:-1.496589 10:-1.271680 11:1.161552 12:0.494011 13:1.905613 14:-0.246629 15:0.978441 16:-0.919715 17:1.115925 18:-1.305569 19:-0.617233 20:-0.975634 21:-0.123184 22:-0.431428 23:-0.080853 24:1.355423 25:-0.539603 26:0.630684 27:-2.574426 28:-0.844309 29:0.924751 30:-0.329092 31:-0.052397 32:0.045606 33:0.770994 34:-0.071264 35:0.727290 36:0.509517 37:-0.015425 38:-1.747296 39:0.540713 40:-1.530970 41:1.545137 42:0.887349 43:0.574669 44:-1.482175 45:-0.816847 46:-1.061880 47:0.333906 48:-0.376541 49:1.259788 50:-0.010254 51:0.090539 52:-0.679139 53:0.150457 54:0.264874 55:-0.227980 56:0.972024 57:0.321981 58:-0.169365 59:-0.742111 60:1.501890
-1 1:0.308619 2:-1.770134 3:-0.043753 4:0.027733 5:-0.131046 6:0.243109 7:-0.284556 8:-0.700484 9:-0.214473 10:2.142604 11:-0.414122 12:0.406729 13:0.974487 14:0.836143 15:1.025270 16:0.492566 17:1.177328 18:-0.401290 19:0.677528 20:-0.875357 21:-1.493743 22:0.730602 23:0.181545 24:0.190215 25:1.148953 26:-0.566610 27:-0.285229 28:-1.035272 29:-0.976118 30:-0.501327 31:0.785417 32:-0.134759 33:1.420890 34:0.315103 35:2.135539 36:-0.985147 37:0.584938 38:-1.568858 39:0.647183 40:1.247405 41:-0.121761 42:-0.064668 43:-0.032274 44:1.075403 45:0.085424 46:-1.433124 47:0.400777 48:0.523750 49:-1.275576 50:0.218271 51:0.061588 52:0.641233 53:0.059414 54:-0.577374 55:0.514668 56:-0.968273 57:-0.546887 58:0.357246 59:0.615496 60:-1.341616
-1 1:-2.122795 2:0.953497 3:-0.808572 4:-1.120826 5:0.090149 6:0.150660 7:1.055247 8:-0.292669 9:-0.882622 10:-0.901448 11:1.067214 12:0.278394 13:0.585275 14:-0.532867 15:-0.060005 16:0.837504 17:-0.550016 18:-0.513979 19:0.315614 20:-1.337916 21:1.886207 22:-0.261387 23:0.729375 24:-1.870766 25:0.591804 26:0.386204 27:-0.043539 28:-2.431327 29:-0.722483 30:0.169505 31:1.348864 32:-0.339703 33:1.953142 34:-0.057864 35:0.714210 36:-0.200922 37:-0.251898 38:-1.174054 39:0.652756 40:-0.281444 41:0.062301 42:1.262219 43:0.254507 44:-1.493831 45:0.571178 46:1.946730 47:0.397574 48:-0.591489 49:1.573626 50:0.917785 51:0.271512 52:0.080938 53:-1.580023 54:1.388433 55:-0.643739 56:-0.726422 57:0.026312 58:-0.921763 59:-1.002801 60:0.045527
-1 1:0.094763 2:0.301838 3:0.636505 4:0.181553 5:0.656241 6:2.167629 7:-1.250958 8:-2.365946 9:-0.367813 10:-0.922850 11:-0.631789 12:1.908687 13:1.236314 14:1.092657 15:0.154646 16:0.140456 17:0.172873 18:0.386809 19:-1.224749 20:-0.767551 21:0.388816 22:-1.165417 23:0.094558 24:-1.369201 25:-0.888801 26:0.316140 27:1.522149 28:-1.204639 29:0.095136 30:1.487981 31:2.105895 32:1.141563 33:0.952873 34:1.258718 35:-0.342792 36:-0.563933 37:-0.533765 38:-0.677044 39:0.113298 40:-1.019196 41:0.209602 42:0.748249 43:-0.263956 44:0.623239 45:-0.088903 46:0.213195 47:1.310157 48:0.217457 49:-0.912131 50:-1.430583 51:-0.806415 52:-1.865975 53:0.196280 54:0.776884 55:0.191344 56:-0.391481 57:-0.507580 58:-0.327483 59:-0.026942 60:0.711558
-1 1:-0.144031 2:-0.872110 3:-0.339166 4:0.188806 5:-0.283697 6:-1.094203 7:0.123047 8:-0.262777 9:1.008789 10:0.538463 11:-0.991542 12:-0.486515 13:-0.646433 14:1.289053 15:-0.008216 16:0.854224 17:-0.515243 18:0.500248 19:-0.844048 20:-0.941987 21:1.031823 22:-1.211797 23:-1.218682 24:0.380679 25:-0.596922 26:1.289038 27:-0.266402 28:-0.660229 29:0.012105 30:-0.447420 31:1.981957 32:-0.023540 33:0.575144 34:-0.690484 35:1.130320 36:2.226743 37:-0.202072 38:-2.652945 39:-0.689971 40:-1.845370 41:-0.240508 42:0.356147 43:-1.396648 44:0.763333 45:-1.631556 46:0.479305 47:-0.239443 48:1.139999 49:1.063240 50:-0.715383 51:1.301452 52:1.190293 53:-1.184170 54:-0.037117 55:0.754981 56:-1.005748 57:0.067406 58:1.807051 59:-0.474502 60:-0.652389
-1 1:1.149319 2:-0.014829 3:-0.950624 4:-1.465175 5:-1.150683 6:0.518982 7:-0.376706 8:0.561818 9:0.966651 10:0.102086 11:-0.809622 12:0.483739 13:-0.984536 14:0.515805 15:0.257324 16:-0.295658 17:1.676923 18:-1.570142 19:0.031382 20:-0.131694 21:1.757516 22:-2.066608 23:0.927793 24:0.972863 25:-0.768269 26:0.334625 27:-0.116641 28:0.200663 29:-0.461605 30:-1.218972 31:-0.471172 32:0.281106 33:2.237322 34:1.358990 35:-0.108031 36:0.538210 37:2.738254 38:0.764357 39:-1.164883 40:-0.764346 41:-0.783253 42:-0.977183 43:0.088678 44:0.298125 45:-0.686057 46:-0.208902 47:0.259806 48:1.203294 49:1.225514 50:0.722123 51:0.340258 52:1.312345 53:-0.269868 54:-1.974303 55:-0.929241 56:2.020138 57:-0.954264 58:-1.042234 59:-0.666704 60:-0.291366
-1 1:0.636752 2:1.610894 3:0.159656 4:-1.311768 5:0.467323 6:-1.180117 7:-0.101398 8:1.924836 9:-1.034008 10:0.594923 11:-1.624760 12:0.249507 13:-1.094614 14:-0.138242 15:-0.659257 16:-1.032332 17:0.884929 18:0.096670 19:-0.014829 20:2.393989 21:0.966053 22:-0.042208 23:0.302458 24:-1.071806 25:-1.175102 26:0.365167 27:-1.638414 28:-0.134527 29:1.984675 30:1.042866 31:0.575412 32:-0.195324 33:0.395249 34:0.588120 35:1.333196 36:-1.007698 37:-0.456213 38:0.983596 39:0.456202 40:0.206335 41:-0.896782 42:-0.564843 43:-0.235776 44:0.578824 45:0.313292 46:1.301806 47:-0.295661 48:1.848602 49:-1.722780 50:-0.066580 51:0.425516 52:0.244258 53:-0.296470 54:0.116185 55:1.477643 56:-2.035759 57:0.413427 58:0.501429 59:0.092209 60:0.442683
-1 1:-0.131573 2:0.622525 3:0.907340 4:0.186330 5:-0.135893 6:-1.841902 7:1.675939 8:0.458760 9:0.155525 10:2.064956 11:-0.129125 12:-1.014389 13:0.911509 14:-0.413462 15:-1.925885 16:-1.788207 17:-0.026308 18:0.384923 19:-2.268381 20:1.131149 21:1.308383 22:0.522811 23:-0.464197 24:0.494628 25:1.260656 26:0.600836 27:-1.200953 28:-0.478055 29:-1.204978 30:0.488977 31:-1.422170 32:-0.989285 33:-0.166024 34:-1.381959 35:-1.788578 36:0.387654 37:1.020329 38:-1.490643 39:-1.676120 40:-0.068925 41:-0.459237 42:-1.682003 43:1.132807 44:0.268002 45:1.333523 46:-0.491922 47:-0.050301 48:-0.236131 49:0.226883 50:1.021482 51:-0.039074 52:1.207446 53:0.183970 54:-0.322499 55:-1.274240 56:0.307416 57:0.275855 58:0.342512 59:0.350722 60:-1.910905
-1 1:-0.192816 2:1.330952 3:0.630294 4:1.766282 5:-0.575520 6:1.481349 7:-2.215138 8:0.906279 9:0.477727 10:0.407380 11:-0.660942 12:1.210624 13:0.570319 14:0.443241 15:2.153394 16:0.424885 17:1.102017 18:-0.050738 19:2.103940 20:0.066429 21:0.784298 22:0.198708 23:1.132821 24:1.844368 25:1.440547 26:1.282423 27:-0.764493 28:-0.009036 29:0.044739 30:-2.537827 31:0.651445 32:-0.895963 33:0.719209 34:1.147337 35:0.750766 36:-0.460595 37:0.465020 38:0.237939 39:-1.234919 40:2.163106 41:0.643962 42:0.931303 43:-1.707082 44:1.152021 45:1.355826 46:1.369567 47:-1.033799 48:-0.070492 49:-0.699389 50:-0.017759 51:-0.255625 52:0.353302 53:-0.997535 54:2.755894 55:-2.138107 56:1.663927 57:-0.206577 58:1.820010 59:1.149965 60:1.665323
-1 1:0.261574 2:0.673522 3:0.581248 4:-0.117095 5:0.198436 6:1.384636 7:1.230719 8:-0.223331 9:-1.026405 10:1.132491 11:-1.289126 12:-0.502243 13:-0.121862 14:-0.525095 15:-2.580808 16:1.740800 17:-0.040320 18:-1.068195 19:-0.029495 20:0.043878 21:-1.073641 22:-0.012297 23:1.635255 24:-0.742824 25:0.754796 26:0.653207 27:-0.254297 28:-0.924661 29:0.524991 30:-0.265919 31:-0.703014 32:0.378224 33:0.925121 34:1.039233 35:0.353234 36:0.932966 37:0.723062 38:0.287336 39:-0.198600 40:0.824773 41:-1.600356 42:0.277205 43:0.462056 44:0.319277 45:0.151961 46:1.273339 47:0.296356 48:-1.146555 49:0.320474 50:3.240472 51:0.273442 52:0.999622 53:0.186601 54:-0.691736 55:1.091844 56:-0.420604 57:0.582202 58:0.420520 59:-0.968326 60:-0.369476
-1 1:-0.297021 2:1.549265 3:0.990504 4:-0.421556 5:-0.197215 6:-0.782899 7:-1.444795 8:0.238237 9:-1.210117 10:1.437008 11:1.471266 12:1.452694 13:1.340068 14:1.208702 15:1.849253 16:0.360497 17:-0.389566 18:1.252165 19:1.198887 20:0.169784 21:1.885882 22:0.081146 23:-0.072559 24:-0.137695 25:-0.090835 26:-0.385875 27:-0.784874 28:-0.344629 29:0.633126 30:-0.458097 31:-0.537295 32:0.644959 33:-0.296639 34:-0.711587 35:-1.183191 36:-0.066355 37:-0.475789 38:0.319183 39:1.042768 40:-0.879141 41:-1.123424 42:0.635072 43:0.538689 44:0.909192 45:0.656505 46:2.154156 47:3.053479 48:-0.472600 49:1.183763 50:1.206796 51:1.488098 52:1.564870 53:-1.585085 54:-0.620277 55:-0.465130 56:0.439889 57:1.742911 58:0.958512 59:1.353143 60:-1.165910
-1 1:-0.070061 2:-1.036898 3:0.384368 4:0.214192 5:0.939616 6:-0.253954 7:-0.523863 8:-1.483982 9:-0.121806 10:0.222205 11:-0.946278 12:0.330940 13:0.220677 14:0.299026 15:-0.787154 16:-1.194044 17:-1.407773 18:0.650804 19:1.762693 20:-1.029958 21:1.415396 22:-0.023664 23:-0.508262 24:-0.472125 25:-1.215788 26:-0.217976 27:-0.163738 28:-0.138976 29:-0.666278 30:1.105057 31:0.282218 32:-0.971115 33:0.395193 34:0.565816 35:-1.673653 36:-0.517829 37:-0.033956 38:-1.010402 39:-0.850114 40:0.735896 41:-0.099188 42:-1.892040 43:0.244377 44:-1.008001 45:-1.650250 46:0.123097 47:-0.728793 48:-0.454441 49:0.515226 50:-1.545018 51:-1.395392 52:1.310555 53:-1.476649 54:-0.139217 55:-0.526490 56:-0.906827 57:0.692729 58:1.074724 59:-0.684565 60:1.477212
-1 1:0.143016 2:0.039678 3:-2.021526 4:1.073623 5:-2.641229 6:-0.876050 7:1.330816 8:-0.417657 9:1.884046 10:-0.528660 11:0.301566 12:0.208815 13:-1.845768 14:1.105762 15:1.014999 16:-1.350501 17:0.091436 18:1.150160 19:0.261098 20:1.513129 21:1.072580 22:-1.240469 23:0.241906 24:-0.529287 25:-0.078692 26:-1.568893 27:0.589646 28:1.369415 29:-0.203712 30:-0.233838 31:-1.060409 32:-0.502889 33:1.073915 34:-0.664249 35:-0.361343 36:-0.975628 37:0.563683 38:1.094206 39:-0.680778 40:-0.594605 41:-1.161941 42:-0.329435 43:-0.042759 44:0.309908 45:-1.978793 46:2.513940 47:-1.522885 48:-2.391382 49:0.729598 50:0.825186 51:0.747453 52:-0.287761 53:1.440990 54:0.643861 55:0.483211 56:2.047666 57:-1.166701 58:0.713673 59:-0.546975 60:-0.258100
-1 1:0.464310 2:-1.196176 3:1.893233 4:-0.596035 5:-0.709613 6:0.531631 7:1.514481 8:0.045052 9:-0.107375 10:-0.111444 11:-0.102717 12:-0.849657 13:1.685790 14:0.756498 15:1.196197 16:0.823749 17:0.217195 18:0.852348 19:0.180866 20:-1.244525 21:0.016151 22:0.427689 23:1.656287 24:1.074510 25:0.958475 26:0.270290 27:-1.396927 28:0.976150 29:-1.379656 30:0.791319 31:0.770875 32:0.964326 33:-1.098510 34:1.545183 35:-0.090093 36:0.446410 37:1.817489 38:-0.758403 39:-0.221313 40:-0.298891 41:0.186686 42:-1.035543 43:0.284382 44:1.676977 45:-1.441693 46:-0.023060 47:1.810427 48:0.044483 49:0.381695 50:-0.375782 51:-1.077354 52:-0.846358 53:-0.703144 54:0.982725 55:-0.891030 56:1.612947 57:-0.155906 58:2.063360 59:1.622374 60:0.717901
-1 1:-0.063206 2:-1.778427 3:0.096612 4:-1.010898 5:0.531570 6:1.032907 7:1.459157 8:-0.756308 9:-1.450255 10:-0.683244 11:-1.152399 12:1.519484 13:1.207297 14:-0.302024 15:-0.066775 16:1.055809 17:-0.559149 18:-1.798943 19:-0.367105 20:0.904324 21:0.032544 22:2.680584 23:-0.324706 24:0.014233 25:0.004464 26:0.633649 27:-0.774873 28:-1.369237 29:0.319169 30:-0.353458 31:0.685307 32:-1.042396 33:0.009018 34:2.327569 35:-0.658796 36:1.100515 37:1.077336 38:-2.497375 39:2.749833 40:-1.065536 41:0.251824 42:-0.701473 43:-1.805179 44:0.686292 45:0.882558 46:-0.197763 47:-1.354766 48:-0.178616 49:0.717791 50:-0.022847 51:0.016188 52:-0.678305 53:2.034406 54:-0.286078 55:0.075006 56:1.262239 57:0.268285 58:1.136195 59:1.040638 60:-1.936096
-1 1:-0.177719 2:-1.273049 3:-0.357552 4:0.056207 5:-0.170205 6:-0.411555 7:-0.795043 8:-3.078859 9:0.776280 10:-0.512157 11:0.509652 12:0.937860 13:-0.349244 14:1.080782 15:-0.514744 16:1.383962 17:-2.110518 18:0.283612 19:0.293297 20:0.275062 21:0.306006 22:-0.062270 23:-0.415377 24:-0.081886 25:-0.659071 26:0.019581 27:0.155222 28:-0.424942 29:-0.746644 30:-1.444294 31:0.567803 32:1.047928 33:-0.007353 34:0.130903 35:-0.766079 36:-0.069693 37:-1.044985 38:1.123531 39:-0.694400 40:0.844093 41:0.838093 42:1.691731 43:0.521976 44:0.374989 45:-0.571569 46:0.837535 47:-1.372415 48:0.230420 49:0.419669 50:-1.902951 51:-1.440549 52:0.344296 53:1.058202 54:0.258633 55:-0.599896 56:0.372326 57:1.086201 58:-0.155043 59:-0.019787 60:-0.313894
-1 1:1.270323 2:1.114870 3:-1.677360 4:2.357793 5:0.788338 6:1.012295 7:-0.492176 8:-0.156454 9:-1.743649 10:-0.582892 11:-1.035076 12:0.304586 13:-0.500235 14:0.545042 15:-0.474630 16:-1.325814 17:-2.165010 18:0.247011 19:0.934131 20:0.158120 21:0.500616 22:1.135232 23:0.403472 24:-0.694069 25:-0.586195 26:0.227518 27:-0.017734 28:-0.302427 29:0.382178 30:-1.221305 31:-0.830722 32:-1.432477 33:0.721421 34:2.019305 35:-1.691463 36:0.378088 37:-1.999791 38:0.505641 39:0.294050 40:-0.290980 41:-0.029209 42:-0.473824 43:1.455562 44:0.196403 45:-0.465659 46:2.016111 47:-1.387107 48:1.034361 49:1.490499 50:-0.194736 51:0.904382 52:0.596517 53:0.925295 54:-0.515419 55:-0.161669 56:-1.187765 57:-0.927002 58:1.105429 59:0.970179 60:2.528326
-1 1:-0.872720 2:0.369608 3:-0.375343 4:1.141173 5:-1.249762 6:-0.685958 7:1.538957 8:0.407388 9:0.631076 10:0.863588 11:-0.350080 12:-0.758561 13:-1.416030 14:0.598832 15:-0.715537 16:-0.625516 17:-0.321170 18:-0.066601 19:0.770818 20:1.141811 21:0.620604 22:-0.319203 23:-0.354356 24:0.160098 25:-3.519553 26:-0.625015 27:0.682744 28:0.598017 29:-0.492908 30:0.720372 31:-0.429663 32:0.141304 33:-1.169317 34:-0.396948 35:-1.503186 36:0.015657 37:0.479132 38:-0.229733 39:1.095869 40:0.487288 41:-1.838510 42:-0.086317 43:-1.077680 44:1.152425 45:-0.246230 46:-1.036600 47:1.814256 48:0.907476 49:0.354990 50:0.230719 51:0.312670 52:0.116792 53:0.294501 54:0.180115 55:-0.255718 56:-1.992293 57:1.026051 58:-0.962746 59:-0.233036 60:0.035859
-1 1:-0.949843 2:0.890599 3:0.452275 4:-0.628493 5:0.249024 6:-0.285427 7:-0.814153 8:-1.478334 9:-1.238041 10:0.291813 11:0.305367 12:0.060576 13:-0.152883 14:2.048094 15:0.233700 16:1.158426 17:-1.800107 18:-1.308815 19:-1.735597 20:-0.486533 21:-1.671232 22:-0.404193 23:0.584275 24:-0.849828 25:0.768533 26:-0.341963 27:-0.110537 28:0.638374 29:0.993435 30:0.881299 31:-0.758529 32:-0.988194 33:0.794038 34:0.126384 35:1.057705 36:0.603847 37:-0.996410 38:0.939340 39:-0.094692 40:-1.205605 41:0.062192 42:-0.149649 43:1.171527 44:0.064131 45:0.394915 46:-1.238968 47:2.949049 48:1.011832 49:-1.739452 50:2.027213 51:0.158806 52:-1.530642 53:0.286430 54:-0.105129 55:0.597656 56:1.932338 57:0.379182 58:0.482200 59:0.366358 60:0.026836
-1 1:-0.052171 2:1.620435 3:0.396207 4:0.075135 5:-0.466558 6:0.303803 7:0.346040 8:0.354505 9:-0.526090 10:-0.105299 11:-1.101294 12:0.529863 13:-0.245113 14:0.071680 15:-1.394605 16:0.509630 17:0.666231 18:1.819849 19:-0.365555 20:-0.111429 21:0.678614 22:-0.294863 23:0.627281 24:-1.996057 25:-0.872093 26:-0.071825 27:0.660340 28:-1.110586 29:0.398571 30:1.512899 31:-0.419983 32:0.238198 33:-1.498197 34:-0.716111 35:-0.773968 36:1.128397 37:2.300461 38:0.553438 39:0.623824 40:0.807979 41:0.535093 42:1.542198 43:1.021769 44:0.860731 45:-0.498576 46:-0.068071 47:0.451656 48:0.751374 49:1.099727 50:0.789557 51:-0.101418 52:-1.763011 53:-1.136778 54:0.536311 55:0.645644 56:0.574015 57:0.759540 58:-0.277390 59:-1.350963 60:0.659321
-1 1:-1.009242 2:-0.490426 3:0.015230 4:0.166121 5:0.899317 6:0.883577 7:0.005340 8:0.169652 9:0.315208 10:-1.024966 11:-1.464962 12:1.262870 13:-0.842889 14:1.288454 15:1.823936 16:-0.772199 17:0.752126 18:0.084449 19:-2.353936 20:-0.109093 21:2.790081 22:0.635421 23:0.498224 24:0.240998 25:1.311078 26:1.034670 27:0.132624 28:-0.142583 29:-0.979001 30:0.012951 31:-1.083925 32:0.643060 33:0.142010 34:-0.931087 35:0.101666 36:-0.830841 37:1.174911 38:1.395444 39:-0.870237 40:0.762077 41:-0.378618 42:0.619848 43:-0.970299 44:-0.716497 45:1.527341 46:-0.184778 47:-0.462342 48:-0.991357 49:0.387517 50:0.563463 51:0.925482 52:0.031325 53:-1.251389 54:-0.703093 55:-0.603491 56:0.474229 57:-0.238573 58:1.605571 59:-0.751722 60:-0.919670
-1 1:0.010367 2:1.409945 3:-0.136787 4:-0.684150 5:-0.208089 6:0.779533 7:1.542727 8:0.299553 9:-0.761933 10:-1.699362 11:-0.085276 12:-0.480994 13:-1.934196 14:0.847400 15:-0.604465 16:1.177238 17:0.616610 18:0.727150 19:0.264533 20:1.630156 21:-0.153829 22:-0.386902 23:-0.148823 24:-0.106636 25:0.340118 26:0.424135 27:-1.321514 28:0.148149 29:-0.150527 30:0.903808 31:-0.947463 32:0.739586 33:-1.030791 34:-0.743848 35:-0.580949 36:-0.773385 37:-0.930458 38:1.387085 39:0.692580 40:0.721715 41:-0.107613 42:-0.209785 43:1.415073 44:0.512960 45:-0.286831 46:-0.449054 47:-1.644046 48:0.111024 49:0.615542 50:2.148359 51:0.578720 52:1.000568 53:0.052417 54:0.928383 55:0.222872 56:-2.236109 57:-0.145715 58:-0.129575 59:-2.121061 60:0.577892
-1 1:-0.863792 2:0.453597 3:-1.012275 4:0.577721 5:-1.267623 6:-0.516963 7:0.746083 8:0.082355 9:0.080097 10:-0.042935 11:-0.418918 12:1.134945 13:0.223111 14:-0.742535 15:-1.938631 16:-0.108859 17:-1.179680 18:0.786762 19:-0.010296 20:-0.969579 21:-1.161988 22:-0.777138 23:-0.558239 24:-1.505272 25:1.101588 26:-0.550972 27:-0.009782 28:-0.891044 29:1.455913 30:-0.220635 31:-0.135653 32:-0.222097 33:0.122081 34:-0.606131 35:2.431517 36:-1.496761 37:-0.243895 38:-0.904361 39:0.108361 40:-0.881977 41:-0.365663 42:0.063229 43:-0.761343 44:-0.964354 45:1.336650 46:-0.171564 47:-1.010872 48:0.284285 49:-0.445531 50:-0.438493 51:0.641327 52:-0.490783 53:1.579196 54:-0.105001 55:0.751855 56:0.029458 57:-0.482369 58:1.151388 59:-1.180526 60:-0.618845
-1 1:1.093826 2:0.757311 3:0.503761 4:0.170331 5:-0.134104 6:-1.456465 7:-0.862048 8:0.244448 9:-0.566955 10:0.854048 11:-1.411914 12:-1.300168 13:-0.522005 14:-2.465131 15:-1.160800 16:1.097645 17:-2.143871 18:0.573018 19:0.194859 20:-0.883329 21:-1.760521 22:1.286084 23:-0.026120 24:0.332923 25:-0.220493 26:0.048386 27:1.112781 28:-0.511531 29:0.936310 30:-0.473346 31:0.059518 32:1.198239 33:2.200587 34:0.801710 35:-0.322353 36:-0.872784 37:0.216555 38:-0.005245 39:0.393619 40:-0.797328 41:-0.816834 42:-1.153010 43:-0.089036 44:-0.723573 45:0.176525 46:0.702381 47:0.835793 48:0.240038 49:0.327994 50:0.999778 51:-0.132961 52:0.445757 53:0.261974 54:0.184222 55:-1.612671 56:0.562600 57:-0.400699 58:0.953803 59:0.124167 60:0.869182
-1 1:-0.607428 2:-0.206824 3:0.841549 4:-0.314782 5:-0.099026 6:-0.437651 7:1.613589 8:0.868962 9:-1.325939 10:1.278415 11:0.653388 12:-0.945838 13:0.386987 14:-1.223018 15:0.333439 16:-0.081616 17:0.205269 18:1.836619 19:0.383602 20:-0.922927 21:0.165053 22:-1.225913 23:-0.164887 24:-0.867728 25:-1.390618 26:-0.454096 27:-1.393748 28:0.319357 29:-0.002213 30:-0.170022 31:-0.933797 32:0.044691 33:1.309228 34:-0.210356 35:-0.218299 36:-1.501265 37:-1.343206 38:1.632309 39:-0.462541 40:-0.384047 41:-1.355692 42:1.889644 43:-1.872336 44:-0.994357 45:0.405989 46:0.201860 47:-0.115144 48:-0.716341 49:-1.345374 50:-0.290274 51:-0.981730 52:0.990280 53:0.847867 54:-0.276167 55:-0.158716 56:-0.633628 57:0.890863 58:-0.392169 59:0.785642 60:-0.226052
-1 1:0.062705 2:-1.066428 3:0.655017 4:0.349159 5:0.443822 6:-1.275127 7:2.045711 8:0.934692 9:0.534182 10:0.605222 11:0.855613 12:-0.476183 13:0.420499 14:1.145901 15:-0.574577 16:2.255501 17:-0.134567 18:0.734873 19:-0.409540 20:0.207740 21:-0.497775 22:-1.008660 23:3.177566 24:-0.565007 25:-1.123207 26:-1.514093 27:1.385930 28:0.499238 29:-1.229628 30:-1.645461 31:-0.695272 32:-0.483047 33:-1.591702 34:-1.344752 35:0.676305 36:0.487682 37:-0.664495 38:1.361556 39:2.069691 40:-0.273148 41:0.305623 42:-1.109636 43:0.079902 44:-0.973468 45:0.824614 46:0.145534 47:1.483276 48:-0.143115 49:-1.047626 50:-0.210109 51:-0.862052 52:0.933717 53:0.501347 54:-0.326250 55:1.466812 56:-0.069740 57:-1.266929 58:0.525942 59:0.164081 60:-0.937640
-1 1:1.645899 2:-0.879295 3:3.500584 4:0.992214 5:-0.203868 6:0.097526 7:0.140931 8:-0.102984 9:0.558609 10:-0.761376 11:0.311077 12:1.376032 13:-1.005891 14:-1.620824 15:-1.549657 16:0.224180 17:-0.190870 18:-1.694162 19:0.818455 20:-0.413481 21:0.535663 22:1.367291 23:1.503340 24:-0.379652 25:-0.355044 26:-0.059738 27:1.591264 28:0.678851 29:1.268299 30:0.189175 31:-0.743190 32:1.745771 33:-0.169181 34:0.176221 35:-1.828810 36:0.722619 37:-0.018932 38:-1.542564 39:-0.443255 40:-0.962538 41:1.292037 42:0.431341 43:2.009927 44:0.357398 45:0.388892 46:-1.683928 47:0.303060 48:-0.018718 49:-0.855350 50:-1.349094 51:1.062417 52:0.121281 53:1.107142 54:1.744958 55:0.226900 56:-0.117474 57:0.737294 58:1.358662 59:-0.570231 60:-0.721558
-1 1:0.593717 2:-0.666540 3:-0.343302 4:0.900994 5:0.647409 6:0.895216 7:-1.167685 8:-0.089887 9:0.402222 10:1.058654 11:0.746318 12:0.637888 13:-0.198195 14:2.361435 15:-0.526288 16:0.967467 17:-0.098905 18:0.120339 19:0.189814 20:0.827722 21:1.508770 22:-0.037728 23:-0.481480 24:-0.078414 25:-0.745194 26:0.756058 27:-0.471647 28:1.042068 29:1.180000 30:0.155180 31:-0.999001 32:-0.388054 33:0.070282 34:-1.581300 35:-0.486704 36:-0.144415 37:0.377123 38:0.105160 39:-0.588315 40:1.263722 41:0.452818 42:0.807126 43:0.736550 44:-0.348515 45:0.699009 46:0.064815 47:-0.616828 48:-1.217858 49:-0.409797 50:-0.270362 51:1.042192 52:-0.722071 53:-1.428961 54:-0.594004 55:-0.086421 56:0.957918 57:0.534552 58:1.390833 59:-2.062337 60:-0.227382
-1 1:-0.110049 2:-0.760300 3:0.417464 4:-0.406219 5:-1.690796 6:0.606938 7:1.117352 8:-3.090215 9:0.065856 10:-0.280001 11:-0.621030 12:0.286933 13:0.619179 14:0.745393 15:-0.415389 16:-0.740762 17:-1.244798 18:-1.100564 19:0.949041 20:0.649735 21:-0.741226 22:-1.136572 23:-0.806819 24:0.141320 25:-0.418735 26:-0.418233 27:-0.458898 28:0.669213 29:-1.791220 30:-0.197367 31:0.432494 32:-0.454974 33:0.040781 34:0.713546 35:0.487466 36:1.372195 37:2.147363 38:-1.764308 39:0.765999 40:0.327074 41:3.086882 42:1.164099 43:-1.179067 44:-0.252303 45:0.079688 46:0.414503 47:0.207543 48:-0.125587 49:0.181830 50:0.470051 51:0.417425 52:0.731679 53:1.070474 54:-1.037284 55:-0.137729 56:-1.243807 57:0.153566 58:-1.173789 59:-0.920111 60:0.232453
-1 1:-0.353189 2:-2.457832 3:-1.468380 4:-0.570961 5:-0.001690 6:0.840702 7:1.490753 8:2.014021 9:0.793552 10:0.709011 11:-2.148734 12:0.225491 13:1.204721 14:-0.574014 15:0.767045 16:0.585415 17:0.321928 18:1.711454 19:0.694179 20:0.256498 21:0.518368 22:0.234696 23:-0.966019 24:0.511607 25:0.809286 26:0.992501 27:-0.928443 28:-0.103054 29:1.078565 30:0.702519 31:1.389760 32:0.883234 33:0.709942 34:0.564864 35:-0.868067 36:-0.540670 37:0.374458 38:-0.794934 39:0.560652 40:0.221192 41:0.264645 42:-1.826382 43:1.039394 44:-1.244526 45:-0.377275 46:-0.346742 47:1.246829 48:-0.367636 49:0.812766 50:-1.022467 51:0.969289 52:-0.722495 53:-0.353431 54:1.851542 55:0.127429 56:-0.123193 57:0.277240 58:0.549667 59:-0.058797 60:-1.364234
-1 1:0.331389 2:-0.772567 3:-0.284967 4:-0.399234 5:0.070612 6:0.320960 7:0.136221 8:-0.021244 9:0.905424 10:-0.559568 11:-0.090889 12:-0.457104 13:-0.090146 14:-0.353580 15:0.362015 16:-0.504551 17:0.187802 18:0.088214 19:1.411238 20:0.439841 21:1.952377 22:0.651669 23:-0.036755 24:-0.205930 25:-0.256770 26:-0.385994 27:0.522687 28:0.493950 29:0.683363 30:-0.483874 31:0.285859 32:-0.110724 33:0.108948 34:-0.473322 35:0.481774 36:-0.468975 37:-0.499676 38:-0.363154 39:1.850367 40:1.076969 41:-0.433476 42:0.532008 43:1.520993 44:0.365140 45:-0.862935 46:-0.511193 47:-0.305381 48:0.450717 49:-0.541308 50:-0.497927 51:0.306917 52:-0.888259 53:-0.974719 54:0.119347 55:1.832385 56:-2.858925 57:0.390025 58:-0.975791 59:-0.700617 60:-0.999425
-1 1:-0.287481 2:-0.624300 3:0.549026 4:0.748298 5:-1.067115 6:-1.076234 7:0.269912 8:0.715738 9:-0.921711 10:-0.402726 11:-0.959657 12:0.310116 13:-0.309410 14:0.772681 15:1.508364 16:1.779795 17:0.944198 18:0.762865 19:-0.738433 20:1.799421 21:-0.399704 22:-0.843990 23:-0.328577 24:0.721167 25:0.024783 26:0.751547 27:0.218459 28:0.233448 29:-0.966559 30:2.136908 31:0.092885 32:-0.245820 33:0.585438 34:-1.192204 35:0.189834 36:-0.794863 37:2.003348 38:-0.745760 39:-0.404546 40:0.691224 41:-0.789347 42:-0.173802 43:0.161096 44:-1.381133 45:0.591720 46:0.614676 47:0.019432 48:0.497460 49:-0.553571 50:-0.334204 51:0.569001 52:1.974691 53:1.506207 54:-1.458891 55:2.009924 56:-0.712683 57:1.650901 58:0.004495 59:1.171540 60:-0.973465
-1 1:1.040423 2:0.141686 3:-1.065167 4:0.274298 5:0.764351 6:-0.077288 7:-1.012717 8:1.213359 9:3.683961 10:2.190221 11:-1.308803 12:0.684190 13:-1.212512 14:-0.303571 15:0.226951 16:0.780527 17:1.275292 18:0.731690 19:-1.495324 20:1.119924 21:-0.712674 22:1.432295 23:-0.410689 24:-0.901489 25:-0.139669 26:-0.239289 27:0.186812 28:0.629211 29:-1.119572 30:-0.466778 31:-0.946167 32:-0.062523 33:1.238963 34:1.122959 35:0.657022 36:2.505644 37:-0.623938 38:-0.841298 39:1.319957 40:0.327731 41:0.349349 42:2.316410 43:-0.964849 44:1.769973 45:1.301523 46:-0.098877 47:-0.875050 48:0.674648 49:-0.633473 50:0.155172 51:1.537612 52:-0.030972 53:0.121177 54:-0.364324 55:-0.913624 56:1.581351 57:1.705746 58:0.372971 59:-0.456399 60:0.382623
-1 1:-0.362042 2:-0.551112 3:0.336133 4:0.361460 5:0.769615 6:-1.393851 7:1.057590 8:0.277712 9:-1.079856 10:0.080094 11:-0.549201 12:-0.232590 13:-0.713516 14:-0.428647 15:-0.315201 16:0.428577 17:1.801244 18:-0.499179 19:-1.131540 20:-1.377184 21:0.872847 22:1.249140 23:0.767173 24:-0.893946 25:-0.370240 26:-1.975947 27:0.121080 28:-0.888563 29:0.948492 30:-0.827323 31:0.630341 32:-1.699279 33:1.294792 34:1.205694 35:-0.833898 36:0.959122 37:1.467817 38:-0.761083 39:-1.648765 40:0.157147 41:-0.452626 42:-0.043847 43:0.701165 44:-0.900719 45:0.308383 46:-1.942033 47:0.005527 48:0.835893 49:0.984208 50:-1.247471 51:-0.751782 52:-0.592599 53:0.164741 54:0.757976 55:0.234915 56:0.421683 57:-0.114900 58:1.687932 59:2.152522 60:-0.301417
-1 1:0.918618 2:-0.347399 3:-0.147567 4:-1.519480 5:1.681241 6:-0.111617 7:-1.528299 8:-0.364873 9:-1.989452 10:0.077789 11:0.028676 12:1.729161 13:-0.996549 14:-0.321677 15:0.051059 16:0.170218 17:-0.247179 18:0.216571 19:-0.931417 20:1.036727 21:1.270617 22:-0.956435 23:0.500216 24:-0.917360 25:1.644618 26:-1.164573 27:-0.415599 28:1.071208 29:2.149178 30:-0.605938 31:0.291157 32:0.658269 33:0.447827 34:0.743945 35:-1.123567 36:0.732139 37:-1.782253 38:1.140851 39:-0.490011 40:1.285316 41:0.976263 42:-0.660979 43:-0.360753 44:-0.931140 45:0.303262 46:0.060010 47:-0.808747 48:0.649287 49:-0.694387 50:-0.712464 51:-0.227440 52:0.032238 53:0.590769 54:-0.581546 55:-0.526454 56:0.392218 57:0.193068 58:-0.303627 59:-0.021474 60:1.092162
-1 1:-0.210170 2:-0.090712 3:1.536457 4:0.156102 5:0.248884 6:0.592927 7:-0.111409 8:-2.369551 9:-0.045713 10:-0.305815 11:0.470838 12:0.746733 13:-1.152173 14:-0.084880 15:-1.812323 16:-0.993182 17:0.758299 18:0.104420 19:0.432392 20:0.748704 21:0.583857 22:0.409873 23:0.337965 24:1.924527 25:0.228598 26:-0.223229 27:0.877716 28:0.166099 29:0.577014 30:-1.457952 31:-0.331759 32:0.870527 33:-2.594157 34:-1.875829 35:-0.688430 36:-1.433865 37:-0.180016 38:-0.561936 39:-1.333112 40:-1.353960 41:1.300058 42:0.179315 43:-0.549232 44:0.235444 45:0.771107 46:-2.081491 47:0.781810 48:1.120696 49:-0.314791 50:0.752730 51:0.677039 52:-0.896838 53:1.393955 54:0.113851 55:1.182460 56:-0.862365 57:0.057268 58:0.716872 59:-0.401035 60:-1.926050
-1 1:0.646884 2:-1.569606 3:-1.210089 4:0.695371 5:-1.947249 6:-0.110574 7:-0.298336 8:0.105330 9:-0.679253 10:-1.338419 11:1.052666 12:-1.084384 13:-0.771673 14:0.473791 15:-0.914155 16:0.716352 17:-0.815556 18:1.149395 19:-0.321179 20:1.074322 21:-0.009209 22:-0.250906 23:0.907363 24:-0.890714 25:-1.078485 26:0.385415 27:0.604356 28:0.033752 29:1.247315 30:-0.977376 31:3.316277 32:0.925868 33:-0.239605 34:0.712675 35:0.718047 36:-0.351966 37:-0.627306 38:-0.465370 39:0.406597 40:-1.465397 41:-0.128070 42:0.060656 43:-1.001482 44:0.527430 45:0.403780 46:0.415368 47:0.995913 48:-0.351835 49:-0.174842 50:1.669671 51:-0.270795 52:0.144324 53:-2.454766 54:1.037984 55:-0.061707 56:0.492122 57:-0.386548 58:-0.787963 59:1.205317 60:-1.294489
-1 1:0.069679 2:0.818442 3:0.277634 4:1.439012 5:-1.438461 6:-0.021376 7:-1.537042 8:-0.016806 9:0.851053 10:-0.200778 11:1.511351 12:-0.996735 13:-1.145781 14:0.680631 15:1.045168 16:1.414251 17:1.357312 18:-1.533170 19:-0.432848 20:-0.652923 21:-0.107963 22:-0.323501 23:0.082786 24:-0.039453 25:0.528451 26:-1.085317 27:0.587778 28:-0.345045 29:-1.345563 30:-0.505431 31:0.651439 32:-1.246808 33:-1.790374 34:0.938405 35:-0.556967 36:0.116983 37:0.909035 38:-1.219459 39:0.232003 40:-0.093503 41:-0.749814 42:-1.158711 43:-1.414278 44:-0.715897 45:0.180104 46:0.108671 47:-0.986917 48:-0.371431 49:0.556093 50:0.090970 51:0.057942 52:-0.868575 53:1.700670 54:-0.551227 55:-0.629698 56:1.494935 57:-0.422835 58:1.347327 59:2.109449 60:0.845424
-1 1:-1.456393 2:0.458068 3:0.394619 4:-0.449996 5:0.740930 6:1.117279 7:0.561340 8:1.860969 9:-0.870292 10:-1.561414 11:0.532993 12:-2.862926 13:-0.318517 14:0.048315 15:-0.468770 16:0.794249 17:0.278578 18:-1.111875 19:1.284785 20:-1.553544 21:-0.728682 22:0.122996 23:1.640056 24:0.257728 25:0.784136 26:0.219833 27:-0.682082 28:-0.879851 29:-0.048462 30:0.606862 31:-0.123959 32:-0.937431 33:1.408244 34:-0.052581 35:0.346028 36:0.492005 37:-0.448982 38:-1.077808 39:-0.337695 40:0.803276 41:1.567846 42:-1.699719 43:-0.535914 44:-0.210824 45:0.596652 46:0.111027 47:1.104260 48:-0.348948 49:-1.221902 50:0.630923 51:-0.333047 52:0.772938 53:0.503828 54:-0.719000 55:1.107019 56:1.169540 57:0.790734 58:-1.173913 59:1.044389 60:0.097621
-1 1:1.096804 2:0.569514 3:0.216522 4:-0.455681 5:-0.959836 6:-0.216037 7:-0.877726 8:-0.482686 9:-0.080227 10:-0.800571 11:-0.512158 12:-1.115607 13:0.175290 14:-0.672669 15:0.563584 16:0.259718 17:1.946117 18:-0.847949 19:0.324882 20:-1.624100 21:0.151116 22:0.180155 23:-0.414745 24:2.707323 25:-1.307687 26:1.084894 27:-0.201364 28:0.889085 29:-1.535881 30:2.446347 31:0.691371 32:0.747054 33:0.924335 34:0.908168 35:0.273877 36:-1.377425 37:-0.825044 38:-0.794212 39:-0.491700 40:1.411357 41:-0.757983 42:-0.181779 43:-0.307470 44:0.578290 45:1.578059 46:0.405053 47:0.646654 48:-0.166890 49:-0.588106 50:-0.739808 51:-0.931262 52:-1.002743 53:-1.983167 54:-0.807245 55:0.685048 56:-1.392067 57:-0.147140 58:1.194078 59:-0.115193 60:0.864429
-1 1:-0.692006 2:-1.327046 3:0.232379 4:-0.818050 5:-0.622068 6:0.955968 7:-0.647173 8:0.394037 9:0.228613 10:1.871915 11:0.270554 12:-0.612744 13:1.939513 14:0.161870 15:-0.434206 16:0.508931 17:0.847131 18:0.627583 19:0.627589 20:0.048679 21:1.331795 22:-0.519256 23:-0.557367 24:-0.393130 25:-2.254672 26:-0.666602 27:2.311172 28:1.055570 29:0.138375 30:-0.077288 31:1.145494 32:0.247761 33:0.996763 34:0.910183 35:-1.075255 36:-0.816994 37:0.809842 38:-2.511133 39:1.602752 40:1.820940 41:-0.198385 42:-1.442512 43:0.447465 44:0.959895 45:-0.309487 46:0.417254 47:0.174245 48:1.361208 49:0.199437 50:0.214794 51:-0.667671 52:0.358103 53:-0.144209 54:0.409829 55:-0.901851 56:-0.472664 57:1.361608 58:1.312125 59:-2.032638 60:0.922605
-1 1:0.529387 2:0.274571 3:-0.556707 4:-1.002987 5:-0.581451 6:0.117124 7:0.131896 8:0.309332 9:-0.578053 10:0.294602 11:2.067027 12:0.949120 13:1.850981 14:0.849622 15:1.079273 16:-2.690248 17:-1.528123 18:1.362033 19:1.211850 20:0.152424 21:-0.322141 22:-0.007528 23:-0.162650 24:0.491512 25:1.813556 26:-0.961647 27:0.547897 28:1.871313 29:-1.733698 30:-0.815942 31:-0.179152 32:1.542742 33:0.892955 34:-1.083293 35:1.198605 36:-0.010424 37:0.558971 38:-1.455760 39:0.179412 40:-0.471749 41:-0.751372 42:-1.845362 43:-1.489086 44:0.135693 45:-1.099850 46:0.131861 47:-1.561540 48:0.331305 49:1.487603 50:-0.530371 51:0.621484 52:0.156557 53:1.177805 54:-0.169010 55:0.078620 56:1.555915 57:0.231197 58:0.258902 59:0.052244 60:-1.360106
-1 1:0.667779 2:0.170636 3:-0.397706 4:-0.619444 5:-0.342519 6:-0.616684 7:-1.309808 8:1.866263 9:-0.207746 10:1.708002 11:0.265857 12:0.493592 13:-0.145655 14:0.021170 15:0.112754 16:0.255086 17:0.459358 18:0.568780 19:1.513392 20:-0.581919 21:-0.278003 22:0.250577 23:0.505449 24:-1.051423 25:-0.603661 26:0.071814 27:-0.875153 28:0.418180 29:-0.749037 30:-1.356818 31:-1.303559 32:0.037000 33:1.396920 34:1.324826 35:0.989212 36:0.069468 37:-0.913613 38:1.234309 39:-0.006767 40:-1.425758 41:-0.668630 42:-2.018023 43:-0.399524 44:0.706251 45:0.033578 46:-0.263252 47:0.064470 48:0.787110 49:0.784902 50:2.372935 51:1.543066 52:-1.279645 53:-0.075539 54:0.198564 55:-0.690823 56:0.491600 57:-0.380767 58:-0.236290 59:-0.307042 60:-0.722918
-1 1:-0.116782 2:0.798351 3:-0.899634 4:-0.652428 5:-0.219504 6:0.411597 7:0.522040 8:-1.159694 9:0.661399 10:0.440131 11:1.299559 12:-1.077669 13:-0.245708 14:1.263745 15:1.436440 16:-0.706770 17:0.476852 18:-0.116154 19:-0.219943 20:-0.519321 21:1.100390 22:0.134754 23:-0.420991 24:1.144298 25:-0.053274 26:-0.379682 27:-1.616838 28:-1.644971 29:0.670708 30:-0.545970 31:-0.079158 32:1.738701 33:-0.021288 34:-0.317708 35:-0.904982 36:0.829430 37:-0.423770 38:0.817923 39:0.004324 40:0.603656 41:-1.867887 42:-0.760094 43:-1.700931 44:-0.102584 45:0.231855 46:-1.613735 47:0.107777 48:0.545767 49:-1.058296 50:-0.831346 51:0.495020 52:-0.372706 53:-0.292144 54:-1.138831 55:-0.662840 56:-1.201538 57:-0.395143 58:0.668129 59:1.952400 60:-0.706285
-1 1:-0.518201 2:-1.315188 3:-0.743054 4:-0.450820 5:-1.364191 6:0.595620 7:0.680400 8:-0.523738 9:1.775606 10:-1.587242 11:-0.285158 12:0.824605 13:-1.368010 14:0.929605 15:0.045025 16:0.649591 17:-0.268853 18:-0.130768 19:-1.226128 20:-1.107824 21:-0.529075 22:0.839155 23:-0.380886 24:1.209628 25:-0.918629 26:-1.464099 27:-0.652105 28:0.873000 29:0.696115 30:-1.143062 31:-1.338588 32:0.240716 33:1.536017 34:0.480788 35:0.847647 36:1.159061 37:-1.053663 38:-0.856001 39:0.982689 40:1.601855 41:2.031501 42:-0.041691 43:1.090246 44:-1.204980 45:-2.222601 46:-0.867737 47:0.514513 48:0.345015 49:0.220308 50:1.492366 51:1.097743 52:-0.320195 53:0.033387 54:0.950625 55:1.068891 56:-0.720077 57:-0.752272 58:0.607743 59:-0.805500 60:2.665615
-1 1:0.122000 2:-0.798130 3:-1.249935 4:1.896574 5:0.819192 6:1.072371 7:0.151490 8:0.481427 9:-2.004982 10:0.537267 11:-1.745777 12:0.420449 13:-0.405916 14:1.395256 15:-1.367034 16:-0.584009 17:-0.119360 18:-0.424291 19:-0.533387 20:-0.828645 21:-1.969298 22:-0.329000 23:-2.694294 24:-0.581457 25:-1.430689 26:0.081456 27:-1.978996 28:-0.660215 29:-2.043047 30:-1.260923 31:0.006931 32:-0.010189 33:0.440071 34:0.189577 35:-0.668533 36:0.541362 37:0.104377 38:1.012947 39:-0.740194 40:0.728199 41:-0.277377 42:1.163950 43:-0.417498 44:-0.731994 45:1.949877 46:-1.410258 47:-0.904809 48:-0.412529 49:-1.019218 50:-0.219034 51:-0.106857 52:-0.105447 53:-0.320679 54:0.920215 55:0.458945 56:-0.410421 57:-0.469526 58:0.188468 59:-0.828675 60:1.627146
-1 1:-0.870293 2:-0.945703 3:-0.443370 4:2.029170 5:-0.352196 6:0.295477 7:-0.054522 8:-0.047981 9:2.467492 10:0.620191 11:0.538304 12:-0.535667 13:-0.631975 14:-1.061929 15:-0.829525 16:0.568977 17:-1.599613 18:1.394307 19:0.631615 20:0.677088 21:-0.220214 22:0.211243 23:-0.629751 24:1.500681 25:-1.386826 26:0.419314 27:-0.822431 28:-0.110136 29:-0.895452 30:0.333613 31:0.721880 32:0.108147 33:-1.154340 34:2.471523 35:0.451508 36:0.230854 37:0.545479 38:-0.373839 39:-1.677256 40:1.005617 41:-0.009674 42:-1.351443 43:-0.508028 44:0.328029 45:-0.011329 46:-1.139828 47:-0.626232 48:0.305174 49:-0.902595 50:-0.151555 51:-0.034668 52:1.884029 53:0.675534 54:0.315977 55:0.902717 56:0.980574 57:-1.208686 58:-0.809216 59:0.279286 60:0.962281
-1 1:0.256323 2:-0.667513 3:-1.105292 4:-1.002964 5:0.479884 6:-2.077833 7:-1.500674 8:0.271939 9:0.852176 10:0.421313 11:-0.121972 12:0.835334 13:-0.388519 14:-0.506886 15:1.661427 16:0.151225 17:0.739984 18:-0.266575 19:-0.999448 20:0.214883 21:0.264490 22:-0.524078 23:0.066695 24:-0.045040 25:-0.693808 26:-0.206383 27:-0.106413 28:-0.633186 29:0.455571 30:0.339919 31:-1.766516 32:0.638185 33:0.820127 34:-0.988241 35:-0.969948 36:0.856377 37:0.517467 38:-1.247204 39:-0.932997 40:0.634208 41:0.740389 42:-0.804889 43:-1.456972 44:1.711129 45:-1.095332 46:1.172856 47:0.386832 48:0.448914 49:2.600182 50:-0.662538 51:1.352901 52:-0.017276 53:-0.610680 54:0.286623 55:0.376887 56:-1.344994 57:0.584621 58:-0.965483 59:0.509811 60:-0.292455
-1 1:-0.003029 2:-2.025968 3:-0.664301 4:-1.466588 5:-0.596709 6:0.449028 7:-1.165951 8:-0.834184 9:-0.761765 10:-1.845584 11:0.402714 12:-0.298352 13:1.556759 14:-0.250080 15:0.038950 16:1.567345 17:0.135895 18:-0.280556 19:0.095224 20:-0.060928 21:-1.477093 22:0.277607 23:-0.614735 24:1.375476 25:-0.518450 26:2.214890 27:0.559849 28:0.934226 29:1.586329 30:0.563745 31:-0.544991 32:0.732304 33:-1.377188 34:1.560581 35:-0.136735 36:0.594038 37:-0.026287 38:-0.196755 39:-0.364651 40:0.817559 41:-0.075746 42:-0.145833 43:1.810758 44:-1.425150 45:0.453712 46:-1.279522 47:1.107462 48:-0.246275 49:-1.094290 50:1.798429 51:1.391908 52:-0.994017 53:1.348755 54:-1.707870 55:-0.908142 56:0.813301 57:0.389447 58:-0.694775 59:-0.200250 60:1.802396
-1 1:-0.435258 2:-0.526183 3:-1.299696 4:-0.950986 5:0.103355 6:0.766181 7:-0.683097 8:-0.049325 9:-0.393188 10:-1.091200 11:0.935787 12:1.198746 13:-1.235496 14:-0.388639 15:0.396080 16:0.701632 17:-1.167678 18:0.204624 19:-0.247235 20:0.020877 21:0.066517 22:1.522216 23:0.159887 24:-0.742178 25:0.492161 26:0.042223 27:0.306137 28:-1.047132 29:-1.123655 30:1.437036 31:-0.862707 32:-0.819812 33:0.481593 34:0.802865 35:-0.004616 36:-0.736287 37:-0.851324 38:0.800631 39:-1.145160 40:0.015793 41:1.505745 42:0.895996 43:-0.360829 44:-0.276324 45:-1.304475 46:3.030727 47:0.943720 48:0.460634 49:1.111862 50:-0.180696 51:1.689213 52:0.976980 53:-2.352003 54:2.272517 55:1.051624 56:0.127109 57:-0.002945 58:-1.379718 59:0.292445 60:0.380985
-1 1:-0.183559 2:-1.103098 3:-1.174166 4:-1.653323 5:0.468217 6:1.440493 7:-0.220110 8:-1.639330 9:0.789175 10:-1.312506 11:1.111306 12:-0.900041 13:-0.127596 14:1.685335 15:2.113265 16:1.153561 17:0.387888 18:0.180924 19:-0.050206 20:-1.297311 21:-1.222766 22:-1.434535 23:-1.758756 24:-1.534071 25:-0.192014 26:-0.637480 27:-0.874326 28:0.697531 29:0.823483 30:-0.336461 31:-2.400883 32:-0.122916 33:-0.988928 34:0.600038 35:-0.053503 36:1.194278 37:-0.874306 38:0.738267 39:-0.097000 40:-0.534863 41:-1.742701 42:-0.060285 43:0.138492 44:-0.103452 45:-0.410613 46:-1.629495 47:0.920787 48:-0.568157 49:-1.454496 50:-1.330297 51:1.364775 52:-0.746821 53:-0.897254 54:0.646006 55:-1.537945 56:0.916132 57:-1.992801 58:0.795522 59:0.614205 60:1.103604
-1 1:1.962139 2:0.352937 3:-0.455027 4:0.736732 5:0.348354 6:0.731543 7:-0.089507 8:0.456769 9:0.224854 10:-0.097475 11:1.446487 12:0.152975 13:-0.695315 14:0.963911 15:1.285183 16:-0.726858 17:-1.373080 18:-1.144248 19:0.171485 20:0.868622 21:-0.900814 22:-0.308983 23:1.566580 24:0.496137 25:-0.129911 26:-2.518781 27:-0.352059 28:-1.988707 29:1.638325 30:0.469481 31:-0.743371 32:1.190537 33:0.080360 34:-0.119968 35:-0.964602 36:-1.204581 37:0.542425 38:0.852499 39:-0.164759 40:0.624609 41:0.623825 42:0.168658 43:1.376261 44:0.753345 45:0.451977 46:0.465602 47:0.219682 48:-0.182402 49:0.477958 50:-0.492062 51:-0.576051 52:0.077115 53:0.581263 54:-1.102823 55:-0.607146 56:-0.456117 57:-1.057117 58:0.980400 59:-2.228054 60:0.096840
-1 1:0.046798 2:-1.226544 3:1.115537 4:-0.966594 5:1.264553 6:0.360269 7:-1.643009 8:-1.158771 9:0.505719 10:-0.095611 11:-0.405703 12:0.717493 13:-0.576302 14:-1.535994 15:-0.001789 16:-0.468577 17:-0.888055 18:0.051217 19:-1.508903 20:1.813170 21:1.111593 22:-0.191085 23:-1.528011 24:-0.772871 25:-0.804991 26:-0.169042 27:-0.254656 28:0.966796 29:-1.466954 30:0.587911 31:0.890808 32:0.621336 33:-0.906095 34:-0.441981 35:0.355572 36:1.005430 37:-1.510215 38:-1.071989 39:-0.720305 40:-0.925523 41:-1.442797 42:-0.024922 43:-0.237738 44:1.249283 45:-0.733925 46:-0.224142 47:1.727906 48:0.498277 49:-0.861256 50:-0.069572 51:-0.405284 52:0.147730 53:-0.804383 54:1.098278 55:-2.193376 56:-0.531411 57:-0.749077 58:-1.698199 59:1.496534 60:-1.407951
-1 1:-2.277136 2:1.486470 3:-1.031622 4:0.328964 5:1.067541 6:-0.766639 7:0.874926 8:0.598500 9:0.401154 10:-1.804749 11:0.590351 12:1.404085 13:0.769928 14:0.392829 15:-1.701110 16:0.422492 17:0.345146 18:-2.358263 19:1.921274 20:0.655202 21:1.534034 22:0.143481 23:-1.165387 24:2.010609 25:-0.685687 26:-0.749782 27:0.361705 28:0.565561 29:1.444071 30:-0.071766 31:-0.102989 32:-0.256668 33:0.605388 34:-0.619358 35:0.925568 36:-0.967066 37:-0.406421 38:1.765994 39:0.612990 40:-1.032891 41:0.251405 42:-1.344131 43:0.198493 44:-1.002156 45:-1.155792 46:0.298866 47:1.356533 48:0.192918 49:-0.003369 50:-1.051274 51:1.294294 52:0.998889 53:0.160593 54:-0.802421 55:0.168015 56:-0.043080 57:0.521684 58:-0.602466 59:-0.639602 60:0.162210
-1 1:0.016475 2:-0.909994 3:-0.739745 4:0.505122 5:-0.175597 6:1.969265 7:-0.968264 8:0.871812 9:-1.894277 10:0.894448 11:-0.957380 12:1.352028 13:1.074916 14:1.268464 15:0.480061 16:0.485834 17:-0.789195 18:0.493439 19:1.071150 20:1.418210 21:0.577809 22:-1.081479 23:0.063906 24:0.096053 25:0.131815 26:0.233903 27:-0.172616 28:0.339099 29:-1.275576 30:-0.409885 31:-1.196597 32:-0.469359 33:0.732790 34:-1.928922 35:-1.238665 36:1.370393 37:1.271373 38:-0.307067 39:-1.208229 40:0.162667 41:0.892438 42:-1.812349 43:-0.508287 44:1.590055 45:0.577274 46:-0.838091 47:-1.651638 48:1.352307 49:0.496358 50:-0.389467 51:-1.507865 52:-1.177338 53:1.210545 54:0.246370 55:1.128326 56:-1.090927 57:-1.348553 58:-0.188462 59:-0.017717 60:-0.238080
-1 1:-0.199840 2:0.417314 3:-1.295531 4:0.982335 5:0.200741 6:1.355314 7:2.141956 8:0.850968 9:-0.497409 10:0.660345 11:-0.797336 12:1.132160 13:-0.561097 14:1.866712 15:0.108114 16:0.352413 17:-0.580934 18:1.435824 19:-0.719659 20:0.501005 21:0.835586 22:-0.450911 23:0.251113 24:-1.863855 25:-0.598344 26:-1.445759 27:-0.866278 28:-0.598337 29:-1.424688 30:0.388086 31:-0.495337 32:0.509135 33:1.464316 34:-1.834027 35:-0.289845 36:-1.717554 37:-0.080966 38:0.194741 39:1.363272 40:-1.070535 41:2.195897 42:0.834514 43:0.965559 44:-0.286372 45:-0.183517 46:-1.239834 47:-1.128946 48:-0.469254 49:0.820081 50:-1.120082 51:-0.373132 52:1.533818 53:-0.268028 54:-0.084673 55:-0.621266 56:-1.644686 57:0.393150 58:-0.216357 59:1.932986 60:-0.064120
-1 1:-0.804199 2:1.152260 3:1.362079 4:-0.431007 5:1.753695 6:-1.467291 7:1.058654 8:0.722280 9:-0.100399 10:1.017968 11:0.263010 12:-0.274646 13:-1.252075 14:-0.354402 15:-0.661821 16:-1.248089 17:0.107472 18:0.123496 19:-0.911763 20:-1.387242 21:-0.213193 22:-0.972394 23:1.115167 24:-0.115710 25:-0.510012 26:0.911987 27:-0.431811 28:0.778423 29:-0.276017 30:-0.768490 31:0.240170 32:0.105738 33:-0.333539 34:-0.360972 35:0.574278 36:-0.691508 37:1.549946 38:1.574362 39:-0.086067 40:0.481966 41:0.106292 42:0.304477 43:0.457894 44:-0.275296 45:-0.867223 46:3.325371 47:1.574888 48:0.998830 49:-0.314534 50:0.460884 51:-0.485179 52:0.001375 53:-0.546363 54:0.162100 55:1.215516 56:-0.749264 57:-0.106829 58:-0.438964 59:-0.184672 60:0.143866
-1 1:0.713970 2:-0.191042 3:0.457427 4:-0.074168 5:-0.950613 6:-0.331014 7:-0.404734 8:-0.318639 9:0.339693 10:-0.090236 11:-0.412874 12:0.449585 13:0.714872 14:0.830610 15:0.440154 16:-1.050808 17:-0.471024 18:1.050176 19:0.935627 20:-1.910175 21:0.657418 22:0.029148 23:0.835688 24:0.870071 25:1.027202 26:2.459967 27:-0.612730 28:0.123642 29:0.140477 30:-0.441553 31:0.188099 32:0.052004 33:-0.776314 34:0.926681 35:1.912988 36:0.105350 37:-0.349887 38:-0.972640 39:0.963466 40:-0.432929 41:0.649287 42:0.600924 43:0.053320 44:0.143210 45:0.599815 46:-0.838810 47:0.362840 48:-0.976315 49:-0.224388 50:0.105481 51:1.297638 52:-1.205188 53:-1.825062 54:1.269559 55:0.864530 56:-0.174537 57:-0.584597 58:-0.135919 59:-0.156757 60:3.034827
-1 1:-1.062609 2:0.643402 3:-0.736764 4:0.143229 5:1.222377 6:-0.133402 7:0.695181 8:0.107234 9:1.699016 10:0.607618 11:-1.443497 12:-0.779199 13:1.883411 14:-0.048796 15:-0.931349 16:0.096400 17:0.230647 18:0.037724 19:0.804384 20:-1.029722 21:0.152910 22:0.102907 23:1.008768 24:-2.159415 25:-2.168337 26:0.383663 27:0.255042 28:-0.367709 29:0.425746 30:-0.275423 31:-1.676525 32:-0.125290 33:0.069305 34:-1.331644 35:1.309151 36:0.587305 37:-1.768935 38:0.645386 39:1.840462 40:0.191615 41:0.484631 42:0.386079 43:0.764333 44:-0.340239 45:0.737850 46:-0.227437 47:0.180989 48:-0.351198 49:-1.033792 50:-1.866934 51:-0.187051 52:-1.205335 53:-0.360510 54:2.737740 55:0.507362 56:-0.682102 57:1.383932 58:-1.418076 59:0.748414 60:-1.238906
-1 1:-1.142645 2:-0.526368 3:0.274700 4:0.442300 5:0.323883 6:-0.370949 7:0.128646 8:0.296845 9:1.561202 10:-1.473948 11:-1.542903 12:0.314928 13:1.131248 14:1.131404 15:-0.683428 16:1.066484 17:-0.293908 18:-0.925572 19:1.059932 20:-1.900645 21:-1.568501 22:-0.719048 23:-0.246951 24:-0.432398 25:-0.660709 26:1.162759 27:-0.920847 28:-0.010714 29:-0.854667 30:1.034325 31:1.599921 32:-1.023724 33:-2.016251 34:-1.401700 35:-1.806480 36:1.988848 37:2.411361 38:0.672441 39:-0.728327 40:0.205001 41:-0.371645 42:-0.211342 43:-1.015993 44:-0.336842 45:-0.709759 46:-1.943923 47:-0.408524 48:-0.705979 49:-0.737413 50:-1.200951 51:0.389700 52:-1.820405 53:-0.777069 54:0.422939 55:-0.094243 56:1.422225 57:-0.955868 58:-2.815377 59:-0.768422 60:1.884539
-1 1:0.618863 2:1.468859 3:0.287248 4:0.306022 5:1.037373 6:1.688072 7:-0.487654 8:0.081623 9:-0.614740 10:1.120859 11:0.531403 12:1.590536 13:-0.780545 14:-0.521711 15:0.094503 16:-2.860412 17:-1.550565 18:0.416091 19:-0.283189 20:2.044391 21:-0.211477 22:-1.749577 23:1.181414 24:-1.418304 25:-0.075354 26:1.225699 27:0.142030 28:1.006778 29:0.448387 30:-1.065442 31:-1.778620 32:-0.465252 33:1.305689 34:-0.406363 35:1.050943 36:-0.296275 37:-0.417632 38:1.361012 39:1.905896 40:-0.386597 41:-0.355569 42:1.376434 43:1.157203 44:1.551828 45:-0.369751 46:0.683440 47:-0.755567 48:-0.747001 49:0.679401 50:-0.453303 51:1.285715 52:-0.571010 53:0.735562 54:0.637345 55:1.255495 56:-0.539004 57:1.416147 58:-0.097500 59:-0.668885 60:0.477846
-1 1:0.914242 2:-1.929012 3:-0.317963 4:0.216919 5:-1.419736 6:1.434057 7:0.538218 8:0.553224 9:0.447738 10:-0.849383 11:-1.856208 12:1.987731 13:-1.668299 14:-2.309306 15:-1.148159 16:1.037011 17:-0.190595 18:0.537792 19:-0.701089 20:0.332619 21:0.395162 22:-0.519939 23:-0.847916 24:0.329449 25:-0.209001 26:-0.368226 27:1.212135 28:-1.230225 29:0.402134 30:-1.268404 31:0.148300 32:1.968510 33:-0.408529 34:1.483985 35:0.869037 36:-0.509713 37:-0.533872 38:0.272891 39:0.349326 40:-1.374039 41:0.485560 42:1.032563 43:-0.407371 44:-0.103562 45:-0.689158 46:-0.010035 47:0.900090 48:-1.742863 49:-1.498631 50:-1.107288 51:-0.135948 52:0.540268 53:0.878318 54:2.462425 55:0.515100 56:-0.169219 57:0.603866 58:-0.262219 59:1.179409 60:0.057116
-1 1:0.412870 2:-2.935203 3:-0.713296 4:-0.100723 5:0.147227 6:1.741436 7:-0.225773 8:-0.128360 9:-0.436080 10:0.077418 11:-0.579073 12:0.614266 13:-0.085881 14:-0.944555 15:-0.325852 16:-0.109557 17:1.005528 18:0.451533 19:-1.375018 20:0.083588 21:-0.817952 22:0.912249 23:-0.859671 24:0.979137 25:1.295195 26:-0.670291 27:-1.073841 28:0.329824 29:0.534942 30:-2.087806 31:-0.842593 32:1.239234 33:3.620839 34:-0.818663 35:0.895982 36:0.586843 37:0.683169 38:0.674377 39:-0.024473 40:-0.203048 41:1.610552 42:0.694204 43:0.766105 44:-0.521892 45:2.509708 46:0.361909 47:-0.061561 48:-1.280773 49:1.516591 50:-0.971692 51:1.868907 52:1.172941 53:0.391688 54:-1.343252 55:0.355510 56:-0.298540 57:-1.339235 58:-0.816153 59:-0.746052 60:-0.739873
-1 1:0.487059 2:0.683332 3:-0.482056 4:0.775287 5:1.001198 6:1.146269 7:-1.622534 8:-0.899878 9:0.526871 10:1.031879 11:1.104405 12:-0.192289 13:0.449686 14:-1.522597 15:-1.100574 16:2.049302 17:-0.187350 18:0.814808 19:0.736519 20:0.303053 21:-0.062244 22:-0.446757 23:-2.237325 24:1.918085 25:1.341084 26:1.524374 27:0.199977 28:-2.240765 29:0.319033 30:0.574504 31:-0.400040 32:-0.684316 33:-2.094291 34:1.401983 35:-0.600843 36:0.118929 37:0.705735 38:-0.720725 39:0.090196 40:0.347258 41:-0.979548 42:1.871465 43:0.471871 44:-1.061852 45:-0.319844 46:0.195424 47:-0.006880 48:0.876722 49:0.603828 50:-0.360455 51:-0.294786 52:0.333593 53:-1.583685 54:-1.793439 55:-0.109690 56:1.292828 57:-1.001307 58:-0.753727 59:-2.079931 60:0.748324
-1 1:-0.107732 2:0.061582 3:1.072784 4:0.880913 5:-2.415184 6:-0.400949 7:-0.208295 8:0.266018 9:-1.442392 10:-0.616267 11:0.292551 12:0.613678 13:0.183367 14:-0.363552 15:-0.270933 16:-0.446575 17:0.626143 18:2.112386 19:0.191995 20:-2.347873 21:-1.925895 22:-0.562689 23:-0.248206 24:-0.345689 25:1.092539 26:-0.140141 27:-0.313218 28:0.167829 29:1.536070 30:0.967378 31:-0.974802 32:1.151118 33:-1.625859 34:-0.621445 35:-1.561835 36:0.556351 37:-0.020800 38:0.939742 39:-0.132341 40:0.182812 41:-0.320323 42:-1.934653 43:1.154018 44:-0.040786 45:-0.319467 46:0.828755 47:0.092303 48:-0.057670 49:-0.076286 50:-0.046380 51:2.626604 52:-0.174654 53:-1.209105 54:-0.060958 55:-0.121078 56:1.435608 57:-0.529958 58:-0.890972 59:0.913182 60:-0.223415
-1 1:-0.367010 2:-0.197978 3:0.072947 4:-2.066616 5:-0.446697 6:-1.768011 7:1.954018 8:0.541385 9:2.244872 10:-0.761940 11:-1.307265 12:-1.941725 13:-1.038756 14:-0.302121 15:0.098441 16:1.170705 17:0.390546 18:0.151204 19:-1.909868 20:0.520766 21:1.640984 22:0.712912 23:0.523144 24:-0.234099 25:-0.483478 26:-0.360370 27:0.021047 28:0.256845 29:0.056029 30:0.432296 31:-0.363042 32:1.169886 33:-0.383046 34:0.671277 35:-0.506193 36:0.176816 37:0.965260 38:0.146665 39:-0.916770 40:-1.607778 41:0.903121 42:-0.654490 43:-0.607502 44:-0.116340 45:0.470624 46:-0.086854 47:0.028655 48:0.359729 49:1.138219 50:-1.007391 51:-1.378980 52:-1.141296 53:-1.384239 54:-0.305312 55:0.330540 56:1.156234 57:0.355316 58:-1.299491 59:-1.072164 60:-0.089950
-1 1:0.468633 2:0.970702 3:-0.330951 4:-0.482203 5:-0.120379 6:-1.169029 7:-0.328284 8:0.838053 9:1.505584 10:0.270534 11:-0.774385 12:1.448077 13:0.675606 14:0.196932 15:-1.193942 16:-0.210529 17:-1.426857 18:-0.102321 19:0.766326 20:-0.466258 21:-0.647277 22:0.097101 23:0.662713 24:-1.269265 25:-0.971391 26:-1.123839 27:1.862699 28:-1.197019 29:0.503664 30:-0.635651 31:-0.584879 32:2.033487 33:0.340874 34:0.687307 35:-0.657260 36:0.129154 37:-0.063501 38:0.822498 39:-1.477897 40:-1.513468 41:1.805664 42:0.580117 43:-0.136508 44:0.476109 45:-1.026363 46:-0.188548 47:-0.692207 48:0.119741 49:1.645348 50:-1.724477 51:-1.174003 52:0.926546 53:0.312509 54:0.941729 55:0.008243 56:0.277837 57:-0.040799 58:-0.150775 59:-0.582683 60:-0.337456
-1 1:-1.367856 2:-0.523677 3:-0.614288 4:1.201704 5:-0.470714 6:0.039782 7:0.467094 8:0.131734 9:-2.481251 10:0.196011 11:-0.661694 12:-0.867238 13:-0.867414 14:-0.255287 15:0.162351 16:-1.525590 17:0.314713 18:-0.748996 19:0.580334 20:-0.698239 21:0.912977 22:-0.467475 23:0.288511 24:-1.129458 25:-1.315335 26:0.856877 27:-0.727097 28:0.599924 29:0.170606 30:-0.263951 31:2.429277 32:-0.655187 33:0.564514 34:-1.500598 35:-0.237668 36:-1.100537 37:-1.040823 38:-0.768514 39:0.004020 40:1.884053 41:-1.667940 42:1.423922 43:0.250020 44:0.039268 45:0.283985 46:-1.248446 47:-0.878564 48:0.568442 49:-0.678207 50:1.105128 51:1.361518 52:-0.210197 53:0.715914 54:-1.280116 55:0.504708 56:0.411647 57:0.538854 58:-1.009200 59:0.591770 60:0.131570
-1 1:-0.818472 2:0.093960 3:0.797349 4:0.223202 5:-0.660813 6:0.993320 7:-0.504599 8:0.329203 9:-0.125076 10:-0.847182 11:-0.177379 12:-0.416860 13:-0.485232 14:-0.331029 15:0.766514 16:-0.331198 17:1.385245 18:0.542565 19:-0.278619 20:0.674985 21:0.250879 22:0.944279 23:-1.179421 24:0.139698 25:-1.068566 26:0.527038 27:-2.296812 28:-1.883271 29:1.303727 30:-1.271260 31:-0.336565 32:0.735117 33:0.444955 34:-0.138876 35:0.944584 36:-1.379692 37:-0.781057 38:0.288735 39:-0.269597 40:-1.967698 41:0.689090 42:-0.898801 43:-0.183276 44:0.330861 45:-0.073995 46:-0.129021 47:0.746125 48:-0.937202 49:-0.669885 50:-0.753505 51:2.292259 52:1.390458 53:1.297656 54:-0.484013 55:-0.078076 56:0.547546 57:-0.420084 58:-0.170585 59:-0.373278 60:-0.453974
-1 1:-0.411223 2:1.246950 3:0.957433 4:0.537585 5:0.654504 6:-0.530519 7:0.893328 8:0.499126 9:-0.003108 10:0.547429 11:-0.164759 12:-2.036808 13:0.577317 14:-0.393634 15:0.101237 16:-2.172125 17:1.035229 18:-1.458694 19:1.097552 20:-0.596822 21:-1.681175 22:1.245390 23:-0.025391 24:-1.186285 25:1.681705 26:-0.941945 27:-0.805140 28:-0.216342 29:-0.946092 30:-1.127639 31:0.306032 32:1.328604 33:-0.865039 34:-1.426211 35:0.754649 36:0.082933 37:-0.476381 38:1.090601 39:-1.104399 40:0.729423 41:-0.317632 42:-0.924578 43:0.411844 44:-1.152552 45:0.415742 46:-1.269234 47:0.148167 48:-0.287411 49:-1.837604 50:-0.568881 51:1.764740 52:0.965796 53:-1.206917 54:1.245996 55:1.021172 56:-0.538512 57:-0.103779 58:-0.244725 59:0.875987 60:-1.471370
-1 1:-0.844554 2:-1.605364 3:0.214981 4:-0.288614 5:-1.127910 6:2.102977 7:-1.329922 8:0.975557 9:0.244500 10:2.361989 11:-0.884486 12:0.877244 13:-0.069611 14:0.556724 15:0.232109 16:0.547536 17:-0.913117 18:0.097676 19:0.974361 20:-1.852056 21:-0.126719 22:1.519446 23:0.025325 24:0.563648 25:-0.524862 26:0.059624 27:0.605861 28:1.300031 29:0.605099 30:-0.358380 31:-1.521902 32:-1.065611 33:-0.394322 34:-0.050877 35:-0.026631 36:-0.240533 37:-0.813985 38:-0.790658 39:-0.189871 40:0.605337 41:0.195408 42:-0.199389 43:1.460686 44:0.967079 45:-0.770657 46:0.767230 47:2.162451 48:-0.572920 49:-1.227895 50:0.898377 51:-0.217214 52:-1.140526 53:0.288594 54:0.555638 55:-0.249260 56:-0.848868 57:-2.047880 58:-0.369945 59:-0.549544 60:-0.141446
-1 1:-0.501072 2:-0.459293 3:0.123220 4:-0.178300 5:0.774427 6:-0.468267 7:-0.357698 8:0.709411 9:-0.242072 10:1.072528 11:1.611336 12:1.069693 13:-1.442751 14:-1.684698 15:0.431525 16:-0.243840 17:0.452610 18:0.724668 19:0.743061 20:0.802362 21:0.902375 22:0.133742 23:1.541064 24:-0.224280 25:1.242859 26:-0.041190 27:1.191976 28:-1.097438 29:0.151665 30:-0.862538 31:0.895756 32:-0.168769 33:0.741034 34:-0.100652 35:-0.206761 36:1.187696 37:-0.638256 38:-2.542651 39:-0.454837 40:0.137932 41:1.293350 42:0.186481 43:0.458308 44:0.066837 45:-1.587834 46:1.052222 47:-0.144773 48:-2.386424 49:0.625844 50:0.350440 51:0.173859 52:1.415020 53:0.900769 54:-0.220117 55:0.390292 56:0.543777 57:-0.033813 58:-0.399668 59:-0.532595 60:-0.505929
-1 1:1.425768 2:-0.819456 3:-0.653867 4:-0.397186 5:1.788576 6:0.096219 7:-0.500363 8:0.413721 9:1.148270 10:-0.872777 11:-0.677659 12:1.872967 13:-0.842545 14:-1.245217 15:0.240532 16:0.339924 17:-0.535963 18:-0.452061 19:-0.493680 20:0.506239 21:-2.252559 22:-0.256261 23:0.394330 24:1.286714 25:-0.009293 26:-1.561414 27:0.585438 28:-1.654273 29:-0.620553 30:-0.831897 31:-1.040965 32:-0.999527 33:-0.047554 34:-0.753153 35:-0.808670 36:-1.224442 37:0.334115 38:-1.487264 39:0.490334 40:0.817602 41:1.538630 42:-0.842036 43:0.964240 44:-0.767757 45:0.946915 46:-1.308830 47:0.497976 48:-1.379715 49:-1.648817 50:-0.791274 51:-1.276407 52:0.384152 53:-1.105990 54:1.650310 55:-1.742243 56:0.467774 57:-0.905034 58:0.945484 59:-0.718454 60:0.025387
-1 1:-0.144309 2:-0.340874 3:0.345847 4:1.069608 5:-1.898345 6:-2.770966 7:0.642585 8:1.291311 9:-0.299703 10:-0.825641 11:-0.502469 12:1.099961 13:1.638816 14:-0.024245 15:-0.492171 16:-0.290728 17:0.082510 18:-0.136075 19:1.169550 20:0.759921 21:-0.378336 22:-1.376940 23:-0.401457 24:-0.091720 25:-0.459156 26:-0.352296 27:-0.118640 28:2.088752 29:-1.466630 30:-1.804569 31:1.064779 32:0.055178 33:0.597474 34:-0.312637 35:1.574935 36:0.757894 37:0.455667 38:1.093697 39:0.212224 40:1.118134 41:0.553694 42:0.597597 43:0.333973 44:-2.201954 45:0.114882 46:2.024502 47:2.478648 48:-0.655481 49:-0.847369 50:1.778816 51:-1.361153 52:-1.280777 53:1.414839 54:0.420735 55:0.126597 56:-1.413524 57:-0.680602 58:0.515864 59:-0.866165 60:1.793486
-1 1:-0.198367 2:-0.894290 3:-0.508245 4:1.142112 5:0.922122 6:1.158523 7:-0.666603 8:-2.446006 9:0.855730 10:0.413899 11:0.859353 12:-1.456721 13:1.024109 14:-0.303363 15:0.906688 16:0.332880 17:-1.695897 18:0.464139 19:-0.553341 20:0.052274 21:0.258358 22:0.099243 23:-1.203149 24:-1.484824 25:0.237333 26:-0.249236 27:-0.248387 28:0.237375 29:1.516818 30:1.251129 31:0.777724 32:-0.342535 33:-0.860918 34:-0.556634 35:0.687225 36:-0.081553 37:0.316775 38:0.884566 39:0.663285 40:-0.344272 41:0.416028 42:0.536698 43:0.431886 44:-0.765472 45:1.245854 46:-1.680593 47:1.760021 48:0.770138 49:-1.234249 50:-0.667719 51:0.238838 52:-0.540962 53:0.914895 54:0.422319 55:0.411507 56:-0.129723 57:-0.390925 58:-1.542332 59:-0.350318 60:-0.338370
-1 1:-0.181988 2:0.941672 3:-0.659563 4:1.458729 5:1.234662 6:2.000920 7:1.748629 8:0.261619 9:0.916403 10:-1.997855 11:-2.146921 12:-1.426239 13:-0.852776 14:-1.024147 15:-0.481949 16:-0.809214 17:-0.923441 18:-2.067230 19:0.200380 20:-0.559817 21:0.450324 22:-0.689759 23:1.425995 24:0.341295 25:1.594345 26:2.978890 27:1.379602 28:2.280569 29:-0.905215 30:0.232437 31:1.330294 32:-1.069925 33:0.992750 34:1.568279 35:1.318908 36:-1.623234 37:0.276228 38:-0.178862 39:0.395269 40:0.501099 41:-0.921643 42:0.324717 43:-0.335384 44:1.596587 45:-0.200210 46:-1.234469 47:0.669537 48:1.347860 49:1.268780 50:-0.043909 51:1.251602 52:-0.450433 53:1.616825 54:-0.317128 55:0.700232 56:1.188863 57:0.431327 58:0.034315 59:0.896884 60:1.035557
-1 1:1.125789 2:-1.760323 3:0.367495 4:1.435520 5:-0.843967 6:0.593428 7:1.669346 8:-0.098408 9:1.392721 10:0.039043 11:1.055602 12:0.448311 13:1.688450 14:0.813015 15:0.437057 16:-1.064052 17:0.514059 18:-1.318921 19:1.239749 20:0.471688 21:-0.573515 22:0.092154 23:-1.349565 24:-0.868534 25:0.381613 26:-1.418957 27:0.572307 28:-1.225016 29:0.484833 30:-0.264939 31:0.947435 32:-0.485863 33:-1.025230 34:0.037316 35:0.985109 36:-0.249005 37:-2.072181 38:0.851812 39:-0.776217 40:0.059777 41:-0.449267 42:-0.674925 43:-0.618794 44:-0.256131 45:0.820767 46:-0.505996 47:-1.861216 48:-0.580224 49:-0.864949 50:-0.070338 51:0.582239 52:0.189896 53:-0.209681 54:0.537876 55:-0.420040 56:1.813864 57:-0.709306 58:1.448631 59:0.097958 60:0.186446
-1 1:0.034832 2:-1.023842 3:2.523262 4:-0.804166 5:-0.534891 6:-1.492541 7:-1.412415 8:1.316317 9:0.917629 10:0.969492 11:0.287317 12:0.124314 13:-0.382294 14:-0.292683 15:-0.178265 16:0.505068 17:-0.428574 18:1.261821 19:0.689873 20:-0.602489 21:0.161377 22:0.199264 23:0.592240 24:0.505765 25:0.713804 26:-1.600506 27:-0.039014 28:-0.756021 29:0.364914 30:0.151538 31:1.175190 32:0.613138 33:-1.066210 34:-0.982652 35:-0.672846 36:-1.740669 37:0.279531 38:-2.619960 39:-1.067911 40:-0.299806 41:0.053189 42:1.237917 43:-0.582127 44:-2.079680 45:0.747361 46:-0.434124 47:-0.736618 48:-1.230459 49:-0.432233 50:0.121533 51:0.132179 52:1.446214 53:-0.355480 54:-0.696649 55:-0.009912 56:-1.959052 57:0.034153 58:0.848991 59:-0.416540 60:-0.399601
-1 1:0.710888 2:0.234450 3:0.648511 4:-0.249359 5:-0.558555 6:0.576217 7:0.151883 8:-0.660308 9:-0.951133 10:0.055917 11:1.214224 12:-0.163865 13:0.966477 14:0.432365 15:-0.909692 16:0.972162 17:0.412703 18:0.443252 19:-1.250882 20:0.661406 21:0.447349 22:-0.803473 23:1.103028 24:-1.102249 25:0.190446 26:-0.525604 27:0.283348 28:-1.558131 29:0.378977 30:1.928865 31:1.047414 32:-1.416694 33:1.333540 34:0.755087 35:-0.697289 36:-1.029866 37:0.501502 38:-0.020716 39:-1.780595 40:-1.062313 41:0.052104 42:1.251006 43:-0.718469 44:-0.374012 45:-2.299150 46:0.983626 47:0.358031 48:1.580327 49:0.014188 50:0.524278 51:0.516083 52:-0.950058 53:-0.983478 54:0.805314 55:1.341605 56:1.413315 57:0.554441 58:-1.231012 59:0.395096 60:0.466052
-1 1:-1.202915 2:2.682739 3:-0.044906 4:1.467748 5:-0.149705 6:1.349570 7:0.443791 8:0.252800 9:0.252952 10:0.393395 11:2.149473 12:1.019647 13:0.531076 14:-0.718618 15:0.009202 16:0.316753 17:-1.824978 18:0.308730 19:-1.252644 20:-1.002078 21:-0.656651 22:-0.205241 23:0.703972 24:1.220635 25:-1.198500 26:1.191445 27:0.812246 28:0.251722 29:0.283768 30:-2.738519 31:1.033319 32:-0.919114 33:0.282773 34:0.317165 35:0.515160 36:0.139881 37:1.306208 38:0.210218 39:-0.208750 40:-0.012556 41:0.900941 42:-0.234715 43:0.343483 44:-0.587454 45:-0.578175 46:0.252808 47:0.799504 48:-0.208029 49:0.774449 50:-0.795331 51:1.293047 52:-0.795714 53:1.445688 54:-0.047306 55:1.891614 56:0.623976 57:-0.523600 58:-0.431498 59:0.225050 60:-0.111542
1 1:0.017858 2:0.002394 3:-0.003363 4:0.011499 5:-0.003503 6:-0.021252 7:-0.035595 8:-0.015264 9:-0.002866 10:-0.061212 11:-0.028848 12:-0.039525 13:-0.037985 14:-0.032945 15:-0.005229 16:-0.056158 17:-0.064163 18:-0.017293 19:-0.062585 20:-0.086084 21:-0.099708 22:-0.057426 23:-0.104900 24:-0.072937 25:-0.058075 26:-0.052799 27:-0.126661 28:-0.093056 29:-0.117315 30:-0.148413 31:-0.103605 32:-0.139710 33:-0.134410 34:-0.144588 35:-0.121805 36:-0.150956 37:-0.127856 38:-0.158085 39:-0.118874 40:-0.146575 41:-0.168453 42:-0.171859 43:-0.177761 44:-0.162098 45:-0.157741 46:-0.175563 47:-0.176492 48:-0.181418 49:-0.132161 50:-0.186357 51:-0.157594 52:-0.160132 53:-0.191240 54:-0.172769 55:-0.194052 56:-0.209911 57:-0.228663 58:-0.227927 59:-0.223973 60:-0.221765
1 1:0.004385 2:-0.015532 3:0.002884 4:-0.035072 5:-0.032691 6:-0.034918 7:-0.014746 8:-0.026853 9:-0.076125 10:-0.028083 11:-0.037842 12:-0.051929 13:-0.030910 14:-0.061335 15:-0.074746 16:-0.053801 17:-0.064465 18:-0.082539 19:-0.034236 20:-0.091102 21:-0.096172 22:-0.044960 23:-0.049547 24:-0.062580 25:-0.055886 26:-0.138037 27:-0.101919 28:-0.111733 29:-0.087895 30:-0.113086 31:-0.147909 32:-0.125295 33:-0.107688 34:-0.152821 35:-0.130615 36:-0.167956 37:-0.103604 38:-0.120895 39:-0.177724 40:-0.130444 41:-0.114422 42:-0.149276 43:-0.149384 44:-0.165519 45:-0.190879 46:-0.165524 47:-0.153535 48:-0.172778 49:-0.191449 50:-0.182984 51:-0.212573 52:-0.170298 53:-0.213327 54:-0.195432 55:-0.200904 56:-0.165570 57:-0.205923 58:-0.197756 59:-0.201557 60:-0.235980
1 1:0.012411 2:0.025668 3:-0.019918 4:-0.010305 5:-0.024734 6:-0.007369 7:-0.049653 8:-0.002113 9:-0.041896 10:-0.012589 11:-0.012715 12:-0.048442 13:-0.059166 14:-0.060997 15:-0.046788 16:-0.060631 17:-0.078096 18:-0.038087 19:-0.042102 20:-0.050051 21:-0.045928 22:-0.056901 23:-0.046338 24:-0.103859 25:-0.115105 26:-0.089719 27:-0.120211 28:-0.112063 29:-0.132429 30:-0.092624 31:-0.118083 32:-0.114347 33:-0.127655 34:-0.108520 35:-0.138582 36:-0.174956 37:-0.147008 38:-0.120175 39:-0.109787 40:-0.151158 41:-0.158974 42:-0.120375 43:-0.152406 44:-0.158427 45:-0.191563 46:-0.156276 47:-0.194495 48:-0.153628 49:-0.156082 50:-0.156225 51:-0.175851 52:-0.150440 53:-0.210608 54:-0.223926 55:-0.230276 56:-0.231513 57:-0.208288 58:-0.204551 59:-0.244455 60:-0.196410
1 1:-0.007188 2:-0.011696 3:-0.009056 4:-0.009832 5:0.003387 6:-0.027874 7:-0.010023 8:-0.005494 9:0.004737 10:-0.025138 11:-0.076934 12:-0.012141 13:-0.074979 14:0.001986 15:-0.031985 16:-0.070952 17:-0.065218 18:-0.075062 19:-0.066072 20:-0.101923 21:-0.101155 22:-0.063142 23:-0.062917 24:-0.089316 25:-0.079012 26:-0.127988 27:-0.064139 28:-0.130153 29:-0.063159 30:-0.097668 31:-0.140546 32:-0.119140 33:-0.076552 34:-0.141490 35:-0.129898 36:-0.089094 37:-0.151938 38:-0.149919 39:-0.159562 40:-0.162386 41:-0.206930 42:-0.139419 43:-0.167725 44:-0.159453 45:-0.195204 46:-0.154851 47:-0.176604 48:-0.188607 49:-0.173948 50:-0.161676 51:-0.169976 52:-0.205630 53:-0.145837 54:-0.229875 55:-0.218385 56:-0.177249 57:-0.218965 58:-0.160057 59:-0.200127 60:-0.226302
1 1:-0.007013 2:-0.001136 3:-0.026073 4:0.015002 5:-0.015254 6:0.004370 7:-0.027116 8:-0.028263 9:-0.054844 10:-0.063241 11:-0.057239 12:-0.064080 13:-0.053969 14:-0.047098 15:-0.068966 16:-0.029947 17:-0.066946 18:-0.066118 19:-0.098339 20:-0.061627 21:-0.070321 22:-0.074158 23:-0.097182 24:-0.094812 25:-0.057493 26:-0.113240 27:-0.086940 28:-0.103996 29:-0.052793 30:-0.129290 31:-0.110174 32:-0.114018 33:-0.109557 34:-0.112342 35:-0.136329 36:-0.144260 37:-0.110252 38:-0.156636 39:-0.144278 40:-0.145989 41:-0.145269 42:-0.134604 43:-0.128011 44:-0.173659 45:-0.140003 46:-0.166428 47:-0.150010 48:-0.185107 49:-0.168640 50:-0.221667 51:-0.219659 52:-0.215846 53:-0.214392 54:-0.204371 55:-0.211363 56:-0.213133 57:-0.196147 58:-0.189219 59:-0.182026 60:-0.226743
1 1:-0.036009 2:-0.022052 3:-0.014207 4:-0.031017 5:-0.007089 6:-0.041308 7:-0.023510 8:-0.020802 9:-0.026909 10:-0.038316 11:-0.030194 12:-0.059219 13:-0.041107 14:-0.013764 15:-0.032277 16:-0.074549 17:-0.049049 18:-0.048513 19:-0.036545 20:-0.040333 21:-0.133923 22:-0.030639 23:-0.097866 24:-0.086028 25:-0.065970 26:-0.094898 27:-0.121312 28:-0.113523 29:-0.114902 30:-0.112365 31:-0.125798 32:-0.129707 33:-0.106029 34:-0.136933 35:-0.140040 36:-0.121253 37:-0.126380 38:-0.124359 39:-0.136614 40:-0.138764 41:-0.187033 42:-0.171313 43:-0.147862 44:-0.180580 45:-0.169111 46:-0.157234 47:-0.162847 48:-0.169493 49:-0.161713 50:-0.195333 51:-0.208081 52:-0.192079 53:-0.166058 54:-0.205006 55:-0.175920 56:-0.182764 57:-0.235818 58:-0.203881 59:-0.205457 60:-0.239446
1 1:-0.009560 2:-0.011656 3:-0.046215 4:0.009917 5:-0.031154 6:-0.050801 7:-0.061108 8:-0.000425 9:-0.013767 10:0.004347 11:0.000405 12:-0.093552 13:-0.021715 14:-0.030966 15:-0.038891 16:-0.083420 17:-0.055487 18:-0.047560 19:-0.080300 20:-0.066771 21:-0.064817 22:-0.045850 23:-0.084801 24:-0.042494 25:-0.081791 26:-0.092889 27:-0.054861 28:-0.105037 29:-0.127884 30:-0.114680 31:-0.104326 32:-0.110363 33:-0.135782 34:-0.120224 35:-0.114429 36:-0.121891 37:-0.121607 38:-0.148991 39:-0.162328 40:-0.192380 41:-0.168733 42:-0.137464 43:-0.126934 44:-0.169015 45:-0.186407 46:-0.184978 47:-0.209162 48:-0.179372 49:-0.166026 50:-0.169703 51:-0.171924 52:-0.173572 53:-0.196752 54:-0.195057 55:-0.221874 56:-0.202391 57:-0.231479 58:-0.192125 59:-0.214759 60:-0.200440
1 1:0.018491 2:-0.014508 3:-0.054240 4:-0.006302 5:0.010696 6:-0.021778 7:-0.012989 8:-0.037999 9:0.004011 10:-0.057929 11:-0.023916 12:-0.060206 13:-0.058665 14:-0.070953 15:-0.042820 16:-0.071483 17:-0.024891 18:-0.065112 19:-0.050545 20:-0.067471 21:-0.085720 22:-0.113864 23:-0.073000 24:-0.100484 25:-0.103394 26:-0.100949 27:-0.106973 28:-0.092999 29:-0.111602 30:-0.068868 31:-0.120721 32:-0.089328 33:-0.115307 34:-0.117725 35:-0.140712 36:-0.121468 37:-0.166028 38:-0.117311 39:-0.127317 40:-0.154157 41:-0.174682 42:-0.158585 43:-0.156398 44:-0.199333 45:-0.148648 46:-0.175255 47:-0.165805 48:-0.166217 49:-0.193525 50:-0.137529 51:-0.190625 52:-0.191913 53:-0.151011 54:-0.210527 55:-0.204864 56:-0.221479 57:-0.215520 58:-0.237982 59:-0.186556 60:-0.215591
1 1:-0.007814 2:0.001050 3:-0.002640 4:-0.020833 5:-0.046768 6:-0.002324 7:0.000116 8:-0.030915 9:-0.050151 10:-0.021822 11:-0.068066 12:-0.029484 13:-0.032434 14:-0.038828 15:-0.049826 16:-0.041584 17:-0.070135 18:-0.112529 19:-0.038859 20:-0.098538 21:-0.089569 22:-0.092277 23:-0.122443 24:-0.081997 25:-0.086221 26:-0.067410 27:-0.058361 28:-0.085130 29:-0.087945 30:-0.126984 31:-0.115081 32:-0.120884 33:-0.137367 34:-0.143845 35:-0.112968 36:-0.115431 37:-0.127848 38:-0.136671 39:-0.141998 40:-0.150383 41:-0.156852 42:-0.187895 43:-0.192658 44:-0.158241 45:-0.164713 46:-0.178103 47:-0.170776 48:-0.170060 49:-0.184748 50:-0.190964 51:-0.180375 52:-0.188590 53:-0.225296 54:-0.210770 55:-0.224169 56:-0.202088 57:-0.158467 58:-0.196619 59:-0.191945 60:-0.177885
1 1:-0.013327 2:-0.048991 3:-0.002188 4:-0.002075 5:-0.012881 6:-0.052064 7:-0.017144 8:-0.054107 9:-0.058380 10:-0.025556 11:-0.049513 12:-0.045175 13:-0.029069 14:-0.018390 15:-0.058110 16:-0.051047 17:-0.058964 18:-0.079782 19:-0.076263 20:-0.122736 21:-0.045170 22:-0.089529 23:-0.126447 24:-0.076346 25:-0.079963 26:-0.102771 27:-0.062479 28:-0.114248 29:-0.089437 30:-0.167855 31:-0.089619 32:-0.112843 33:-0.077413 34:-0.148264 35:-0.140128 36:-0.116109 37:-0.139865 38:-0.146034 39:-0.125409 40:-0.125751 41:-0.163650 42:-0.159820 43:-0.148569 44:-0.163172 45:-0.141629 46:-0.163358 47:-0.172709 48:-0.167595 49:-0.202055 50:-0.153562 51:-0.207061 52:-0.231318 53:-0.207182 54:-0.185631 55:-0.201171 56:-0.209225 57:-0.182490 58:-0.218217 59:-0.192507 60:-0.206267
1 1:0.024006 2:0.017833 3:-0.022160 4:0.010938 5:0.010372 6:0.002998 7:-0.030600 8:-0.049077 9:-0.059188 10:-0.016262 11:-0.065737 12:-0.028049 13:-0.052980 14:-0.040595 15:-0.094077 16:-0.035412 17:-0.057096 18:-0.067939 19:-0.072958 20:-0.074943 21:-0.078559 22:-0.080873 23:-0.081461 24:-0.075304 25:-0.102072 26:-0.115684 27:-0.144946 28:-0.105371 29:-0.134642 30:-0.122174 31:-0.126879 32:-0.097609 33:-0.143024 34:-0.108181 35:-0.086661 36:-0.112466 37:-0.119734 38:-0.153222 39:-0.116759 40:-0.183024 41:-0.157095 42:-0.112155 43:-0.153192 44:-0.162429 45:-0.162512 46:-0.174926 47:-0.196163 48:-0.178767 49:-0.176261 50:-0.239816 51:-0.191096 52:-0.134442 53:-0.140369 54:-0.213124 55:-0.185443 56:-0.184859 57:-0.211597 58:-0.230011 59:-0.204569 60:-0.212054
1 1:0.040420 2:-0.031643 3:0.000849 4:-0.007234 5:0.005003 6:-0.045373 7:-0.004672 8:-0.019151 9:-0.023830 10:-0.023628 11:-0.023155 12:0.017486 13:-0.054932 14:-0.029320 15:-0.044006 16:-0.071336 17:-0.081359 18:-0.043684 19:-0.060332 20:-0.066430 21:-0.027437 22:-0.113283 23:-0.080954 24:-0.099167 25:-0.107595 26:-0.098877 27:-0.111867 28:-0.101549 29:-0.059997 30:-0.077364 31:-0.109330 32:-0.123173 33:-0.171447 34:-0.112869 35:-0.105290 36:-0.115956 37:-0.133413 38:-0.106539 39:-0.120472 40:-0.159540 41:-0.142606 42:-0.170194 43:-0.175078 44:-0.156820 45:-0.164899 46:-0.162857 47:-0.180753 48:-0.177018 49:-0.183832 50:-0.221282 51:-0.191395 52:-0.202998 53:-0.177920 54:-0.196419 55:-0.193288 56:-0.210515 57:-0.183458 58:-0.202531 59:-0.257705 60:-0.207065
1 1:0.005378 2:-0.025626 3:-0.029606 4:-0.021783 5:-0.026942 6:-0.005352 7:-0.016781 8:0.006965 9:-0.040999 10:-0.048342 11:-0.065443 12:-0.067442 13:-0.058251 14:-0.061858 15:-0.019963 16:-0.045471 17:-0.085591 18:-0.075358 19:-0.080206 20:-0.043011 21:-0.080937 22:-0.082193 23:-0.089293 24:-0.099564 25:-0.062706 26:-0.066549 27:-0.113733 28:-0.110933 29:-0.082935 30:-0.085325 31:-0.134406 32:-0.092400 33:-0.123966 34:-0.107486 35:-0.148693 36:-0.150132 37:-0.133198 38:-0.124834 39:-0.153908 40:-0.141923 41:-0.146902 42:-0.162870 43:-0.187814 44:-0.126865 45:-0.148445 46:-0.167837 47:-0.172418 48:-0.178359 49:-0.181685 50:-0.178803 51:-0.219428 52:-0.182592 53:-0.179115 54:-0.159291 55:-0.222938 56:-0.194712 57:-0.228255 58:-0.207503 59:-0.247706 60:-0.198745
1 1:-0.042242 2:-0.003074 3:-0.015891 4:-0.011529 5:-0.034910 6:-0.017480 7:-0.021939 8:-0.045259 9:-0.013357 10:-0.019599 11:-0.007976 12:-0.047553 13:-0.023495 14:-0.017473 15:-0.037892 16:-0.052225 17:-0.056770 18:-0.071934 19:-0.057205 20:-0.083889 21:-0.037420 22:-0.087620 23:-0.077388 24:-0.114699 25:-0.073601 26:-0.095344 27:-0.102718 28:-0.117743 29:-0.112531 30:-0.145543 31:-0.088311 32:-0.142371 33:-0.110369 34:-0.127463 35:-0.132848 36:-0.157702 37:-0.134922 38:-0.159210 39:-0.159792 40:-0.122110 41:-0.120273 42:-0.157440 43:-0.178391 44:-0.171811 45:-0.151465 46:-0.169387 47:-0.153973 48:-0.202828 49:-0.167125 50:-0.176702 51:-0.207535 52:-0.197320 53:-0.224019 54:-0.168687 55:-0.193383 56:-0.165972 57:-0.221243 58:-0.208821 59:-0.191788 60:-0.228020
1 1:-0.001593 2:0.026305 3:-0.005026 4:-0.008432 5:-0.055206 6:-0.021839 7:-0.003657 8:-0.047184 9:-0.045675 10:-0.052473 11:-0.082765 12:0.002820 13:-0.057948 14:-0.049739 15:-0.057467 16:-0.019243 17:-0.091115 18:-0.026135 19:-0.073717 20:-0.058361 21:-0.098806 22:-0.120631 23:-0.086360 24:-0.082214 25:-0.105269 26:-0.089662 27:-0.122735 28:-0.087313 29:-0.110562 30:-0.104016 31:-0.080070 32:-0.072400 33:-0.147713 34:-0.096315 35:-0.151191 36:-0.098312 37:-0.130973 38:-0.124986 39:-0.144722 40:-0.145118 41:-0.156841 42:-0.144530 43:-0.148874 44:-0.168163 45:-0.103686 46:-0.186989 47:-0.154415 48:-0.188286 49:-0.181525 50:-0.217467 51:-0.204793 52:-0.215778 53:-0.176901 54:-0.161318 55:-0.215279 56:-0.216574 57:-0.200929 58:-0.218315 59:-0.213235 60:-0.217316
1 1:0.027945 2:0.012421 3:-0.014614 4:-0.031833 5:-0.013220 6:-0.035823 7:-0.021606 8:-0.055609 9:-0.039379 10:-0.043213 11:-0.031079 12:-0.005046 13:-0.076414 14:-0.035743 15:-0.005862 16:-0.032238 17:-0.115816 18:-0.073662 19:-0.069404 20:-0.071434 21:-0.062198 22:-0.093158 23:-0.078107 24:-0.074643 25:-0.112730 26:-0.134105 27:-0.103199 28:-0.121749 29:-0.126706 30:-0.102840 31:-0.112955 32:-0.103253 33:-0.151975 34:-0.130588 35:-0.108632 36:-0.144200 37:-0.149317 38:-0.126839 39:-0.141889 40:-0.139174 41:-0.178357 42:-0.166822 43:-0.184716 44:-0.155289 45:-0.126046 46:-0.151908 47:-0.191060 48:-0.150208 49:-0.143511 50:-0.176556 51:-0.160229 52:-0.184424 53:-0.198787 54:-0.201085 55:-0.194110 56:-0.198584 57:-0.175552 58:-0.197463 59:-0.233388 60:-0.248379
1 1:-0.001684 2:0.014176 3:-0.000636 4:-0.029127 5:-0.006125 6:-0.042082 7:-0.034857 8:-0.030656 9:-0.010629 10:-0.068385 11:-0.000205 12:-0.022836 13:-0.042477 14:-0.039519 15:-0.049024 16:-0.058150 17:-0.070765 18:-0.089474 19:-0.082950 20:-0.065392 21:-0.061753 22:-0.089022 23:-0.090974 24:-0.075167 25:-0.121298 26:-0.113109 27:-0.120999 28:-0.117488 29:-0.074261 30:-0.105277 31:-0.155236 32:-0.138088 33:-0.117047 34:-0.118908 35:-0.104998 36:-0.174317 37:-0.128611 38:-0.115287 39:-0.167300 40:-0.157494 41:-0.142725 42:-0.113439 43:-0.156196 44:-0.149999 45:-0.164162 46:-0.191106 47:-0.158378 48:-0.146834 49:-0.193928 50:-0.183547 51:-0.190793 52:-0.205762 53:-0.168286 54:-0.196303 55:-0.196093 56:-0.225901 57:-0.203049 58:-0.209017 59:-0.207375 60:-0.196338
1 1:-0.006302 2:-0.040588 3:-0.007697 4:0.007673 5:-0.018335 6:-0.002677 7:-0.022426 8:-0.070097 9:-0.047509 10:-0.029322 11:-0.060905 12:-0.052426 13:-0.023345 14:-0.025890 15:-0.043575 16:-0.092935 17:-0.096363 18:-0.042231 19:-0.058275 20:-0.068893 21:-0.094579 22:-0.101286 23:-0.082918 24:-0.101830 25:-0.109035 26:-0.056899 27:-0.135943 28:-0.077146 29:-0.075579 30:-0.082053 31:-0.128007 32:-0.128956 33:-0.114363 34:-0.127948 35:-0.162303 36:-0.156242 37:-0.165141 38:-0.141176 39:-0.099188 40:-0.171129 41:-0.161134 42:-0.131940 43:-0.177848 44:-0.182464 45:-0.182360 46:-0.168361 47:-0.198151 48:-0.124183 49:-0.184496 50:-0.186451 51:-0.188966 52:-0.140486 53:-0.191822 54:-0.191401 55:-0.188153 56:-0.230405 57:-0.193337 58:-0.202258 59:-0.184413 60:-0.202137
1 1:-0.054824 2:-0.010845 3:0.000043 4:0.031299 5:-0.071655 6:-0.051556 7:-0.030963 8:-0.029243 9:-0.002868 10:-0.054942 11:-0.040178 12:-0.001869 13:-0.068461 14:-0.044169 15:-0.058269 16:-0.068606 17:-0.091994 18:-0.093600 19:-0.101481 20:-0.070017 21:-0.067730 22:-0.079400 23:-0.112030 24:-0.078101 25:-0.115432 26:-0.136568 27:-0.127791 28:-0.074324 29:-0.100926 30:-0.094528 31:-0.103393 32:-0.072766 33:-0.098085 34:-0.111588 35:-0.138960 36:-0.136287 37:-0.127059 38:-0.123681 39:-0.139497 40:-0.127532 41:-0.165369 42:-0.118093 43:-0.139879 44:-0.182145 45:-0.165910 46:-0.184174 47:-0.146066 48:-0.212472 49:-0.176072 50:-0.192917 51:-0.204200 52:-0.199483 53:-0.206413 54:-0.206411 55:-0.153113 56:-0.193530 57:-0.209613 58:-0.215407 59:-0.194010 60:-0.207660
1 1:-0.038478 2:0.001605 3:-0.002476 4:-0.043879 5:0.021159 6:0.004446 7:-0.003014 8:-0.051888 9:-0.022570 10:-0.081176 11:-0.026213 12:-0.018253 13:-0.023891 14:-0.035904 15:-0.067422 16:-0.076432 17:-0.062429 18:-0.070093 19:-0.064290 20:-0.075205 21:-0.096453 22:-0.057182 23:-0.058965 24:-0.128358 25:-0.128300 26:-0.083527 27:-0.098978 28:-0.076116 29:-0.100598 30:-0.102133 31:-0.110835 32:-0.116364 33:-0.154246 34:-0.149838 35:-0.106361 36:-0.147410 37:-0.163048 38:-0.149919 39:-0.132912 40:-0.175594 41:-0.167930 42:-0.147995 43:-0.158777 44:-0.171906 45:-0.142957 46:-0.141192 47:-0.205458 48:-0.179054 49:-0.174296 50:-0.187952 51:-0.155695 52:-0.172937 53:-0.166322 54:-0.174259 55:-0.163980 56:-0.164728 57:-0.208128 58:-0.231077 59:-0.219568 60:-0.251662
1 1:-0.008926 2:-0.002486 3:-0.035210 4:-0.042281 5:-0.010819 6:0.001075 7:-0.041811 8:-0.036045 9:-0.030219 10:-0.030888 11:-0.060560 12:-0.048448 13:-0.037264 14:-0.077790 15:-0.081796 16:-0.081390 17:-0.052431 18:-0.042080 19:-0.066010 20:-0.035620 21:-0.062817 22:-0.070129 23:-0.107237 24:-0.067729 25:-0.075399 26:-0.103106 27:-0.083945 28:-0.094412 29:-0.129879 30:-0.090689 31:-0.122893 32:-0.123317 33:-0.136004 34:-0.144821 35:-0.130203 36:-0.114504 37:-0.125325 38:-0.122188 39:-0.150490 40:-0.176199 41:-0.139365 42:-0.161839 43:-0.161860 44:-0.124268 45:-0.183811 46:-0.185258 47:-0.190097 48:-0.129670 49:-0.190970 50:-0.178802 51:-0.169034 52:-0.210057 53:-0.183533 54:-0.195424 55:-0.189668 56:-0.214061 57:-0.227062 58:-0.202976 59:-0.213908 60:-0.216357
1 1:0.002920 2:-0.024268 3:-0.006315 4:0.019182 5:0.010574 6:-0.023777 7:-0.010503 8:-0.013209 9:0.001005 10:-0.042494 11:-0.053924 12:-0.048007 13:-0.037015 14:-0.002966 15:-0.056859 16:-0.063603 17:-0.088705 18:-0.081524 19:-0.043714 20:-0.060927 21:-0.023513 22:-0.098610 23:-0.111295 24:-0.071763 25:-0.088544 26:-0.085405 27:-0.106240 28:-0.099297 29:-0.086287 30:-0.077188 31:-0.105959 32:-0.108608 33:-0.116190 34:-0.096983 35:-0.113239 36:-0.134373 37:-0.133835 38:-0.148897 39:-0.155646 40:-0.146723 41:-0.128872 42:-0.191077 43:-0.151895 44:-0.178792 45:-0.146512 46:-0.152374 47:-0.171233 48:-0.192392 49:-0.188048 50:-0.191986 51:-0.201499 52:-0.185530 53:-0.190504 54:-0.204976 55:-0.215841 56:-0.186182 57:-0.240971 58:-0.207355 59:-0.206567 60:-0.228837
1 1:-0.005390 2:0.011538 3:-0.010281 4:-0.017347 5:-0.032744 6:-0.038862 7:-0.045881 8:-0.057347 9:-0.047441 10:-0.046808 11:-0.024713 12:-0.055084 13:-0.029322 14:-0.038297 15:-0.051928 16:-0.041960 17:-0.074300 18:-0.077969 19:-0.102199 20:-0.073261 21:-0.083514 22:-0.079050 23:-0.080193 24:-0.120909 25:-0.085025 26:-0.098334 27:-0.075131 28:-0.098234 29:-0.099393 30:-0.119900 31:-0.124509 32:-0.116393 33:-0.098327 34:-0.129485 35:-0.141244 36:-0.173352 37:-0.126292 38:-0.124930 39:-0.146485 40:-0.160079 41:-0.181326 42:-0.145218 43:-0.163233 44:-0.139074 45:-0.136172 46:-0.145617 47:-0.165450 48:-0.193547 49:-0.173092 50:-0.168655 51:-0.217800 52:-0.198072 53:-0.175285 54:-0.206021 55:-0.199339 56:-0.199237 57:-0.181397 58:-0.211802 59:-0.216781 60:-0.217615
1 1:-0.001520 2:-0.000471 3:-0.015988 4:0.007551 5:-0.008000 6:-0.019362 7:-0.041536 8:-0.049098 9:-0.027189 10:-0.036649 11:-0.000086 12:-0.059505 13:-0.039972 14:-0.045761 15:-0.050041 16:-0.072656 17:-0.058611 18:-0.074232 19:-0.050660 20:-0.074768 21:-0.060250 22:-0.057907 23:-0.062386 24:-0.123955 25:-0.071267 26:-0.066574 27:-0.066595 28:-0.107723 29:-0.097675 30:-0.114374 31:-0.122283 32:-0.107936 33:-0.148150 34:-0.142431 35:-0.144743 36:-0.139964 37:-0.159531 38:-0.152569 39:-0.113340 40:-0.139618 41:-0.160461 42:-0.128329 43:-0.157746 44:-0.170870 45:-0.173962 46:-0.181913 47:-0.192411 48:-0.164286 49:-0.197308 50:-0.196512 51:-0.195291 52:-0.162010 53:-0.180768 54:-0.206253 55:-0.206472 56:-0.180029 57:-0.179514 58:-0.242120 59:-0.202302 60:-0.220054
1 1:-0.010317 2:0.004455 3:-0.053436 4:0.003895 5:-0.017197 6:-0.004137 7:-0.052309 8:0.002006 9:-0.012322 10:-0.042536 11:-0.051971 12:-0.027521 13:-0.037310 14:-0.041081 15:-0.024849 16:-0.106045 17:-0.076718 18:-0.059473 19:-0.087655 20:-0.062681 21:-0.065969 22:-0.057062 23:-0.079408 24:-0.090164 25:-0.034669 26:-0.069816 27:-0.075538 28:-0.103944 29:-0.075601 30:-0.078243 31:-0.111162 32:-0.148403 33:-0.136882 34:-0.164081 35:-0.118731 36:-0.125000 37:-0.122549 38:-0.124942 39:-0.184537 40:-0.122815 41:-0.141846 42:-0.141027 43:-0.161132 44:-0.177347 45:-0.141675 46:-0.181850 47:-0.192770 48:-0.157870 49:-0.167513 50:-0.218335 51:-0.204637 52:-0.175888 53:-0.226403 54:-0.190928 55:-0.189187 56:-0.208917 57:-0.186037 58:-0.216228 59:-0.224558 60:-0.215463
1 1:-0.001563 2:-0.002237 3:-0.010983 4:0.022129 5:0.013348 6:0.025179 7:-0.016013 8:-0.001220 9:-0.062804 10:-0.050143 11:-0.051846 12:-0.065952 13:-0.051562 14:-0.048006 15:-0.059464 16:-0.060542 17:-0.038271 18:-0.057504 19:-0.086176 20:-0.066435 21:-0.061264 22:-0.035641 23:-0.059200 24:-0.088281 25:-0.086046 26:-0.096789 27:-0.101743 28:-0.116543 29:-0.073698 30:-0.098398 31:-0.079195 32:-0.095752 33:-0.139738 34:-0.158147 35:-0.132158 36:-0.176584 37:-0.175089 38:-0.156099 39:-0.153989 40:-0.153784 41:-0.163972 42:-0.165230 43:-0.138012 44:-0.146191 45:-0.199692 46:-0.197333 47:-0.162023 48:-0.170997 49:-0.194910 50:-0.201856 51:-0.210868 52:-0.192107 53:-0.156714 54:-0.189080 55:-0.193047 56:-0.199576 57:-0.173971 58:-0.196597 59:-0.198084 60:-0.195715
1 1:0.016586 2:0.051388 3:0.036143 4:-0.020802 5:-0.014339 6:-0.021566 7:-0.037823 8:-0.030114 9:-0.045708 10:-0.044787 11:-0.043206 12:-0.032840 13:-0.021842 14:-0.050486 15:-0.052457 16:-0.054863 17:-0.047469 18:-0.056923 19:-0.058619 20:-0.094733 21:-0.060567 22:-0.084658 23:-0.054577 24:-0.085342 25:-0.136234 26:-0.111782 27:-0.116072 28:-0.100234 29:-0.095522 30:-0.117378 31:-0.103855 32:-0.157360 33:-0.124265 34:-0.083553 35:-0.153484 36:-0.109488 37:-0.165107 38:-0.136809 39:-0.167173 40:-0.141260 41:-0.135780 42:-0.182397 43:-0.138553 44:-0.142329 45:-0.162386 46:-0.178682 47:-0.141480 48:-0.147609 49:-0.189580 50:-0.209693 51:-0.235584 52:-0.168309 53:-0.185864 54:-0.171805 55:-0.206889 56:-0.228546 57:-0.181801 58:-0.213106 59:-0.204871 60:-0.195193
1 1:-0.017378 2:0.002426 3:-0.005295 4:0.009558 5:-0.026681 6:-0.017064 7:0.021814 8:-0.045109 9:-0.009591 10:-0.039913 11:-0.013170 12:-0.068709 13:-0.026877 14:-0.023301 15:-0.083873 16:-0.049052 17:-0.061950 18:-0.067016 19:-0.051743 20:-0.047254 21:-0.088364 22:-0.058584 23:-0.080450 24:-0.081780 25:-0.107652 26:-0.067425 27:-0.103867 28:-0.086683 29:-0.084859 30:-0.125214 31:-0.141981 32:-0.121232 33:-0.110180 34:-0.123071 35:-0.101383 36:-0.122541 37:-0.132332 38:-0.166827 39:-0.156902 40:-0.159024 41:-0.160597 42:-0.158408 43:-0.176653 44:-0.180300 45:-0.167632 46:-0.150339 47:-0.207175 48:-0.181492 49:-0.218286 50:-0.149589 51:-0.190043 52:-0.228884 53:-0.188925 54:-0.207761 55:-0.184841 56:-0.191704 57:-0.173695 58:-0.200498 59:-0.208460 60:-0.194525
1 1:0.033094 2:0.004428 3:-0.018165 4:-0.037417 5:-0.000180 6:-0.023454 7:-0.034491 8:-0.005305 9:-0.046598 10:-0.046324 11:-0.047015 12:-0.033134 13:-0.059065 14:-0.109144 15:-0.055582 16:-0.075975 17:-0.037998 18:-0.084702 19:-0.050321 20:-0.059221 21:-0.078816 22:-0.066946 23:-0.061295 24:-0.092700 25:-0.102493 26:-0.094012 27:-0.061602 28:-0.136287 29:-0.103034 30:-0.098796 31:-0.107321 32:-0.126937 33:-0.145581 34:-0.096337 35:-0.107456 36:-0.116105 37:-0.135956 38:-0.162044 39:-0.128677 40:-0.137939 41:-0.155198 42:-0.141840 43:-0.151791 44:-0.187271 45:-0.169862 46:-0.148066 47:-0.187696 48:-0.172101 49:-0.183627 50:-0.184968 51:-0.171541 52:-0.200020 53:-0.170841 54:-0.216689 55:-0.189630 56:-0.196365 57:-0.202110 58:-0.225541 59:-0.238595 60:-0.213627
1 1:-0.000975 2:-0.002873 3:0.006024 4:-0.017689 5:-0.019219 6:-0.025197 7:-0.028018 8:-0.035238 9:-0.046233 10:-0.049318 11:-0.041008 12:-0.058057 13:-0.064468 14:-0.035303 15:-0.045348 16:-0.045438 17:-0.058523 18:-0.029660 19:-0.086429 20:-0.051387 21:-0.073738 22:-0.111476 23:-0.102505 24:-0.077195 25:-0.071338 26:-0.100979 27:-0.085179 28:-0.122913 29:-0.110847 30:-0.112260 31:-0.108782 32:-0.126872 33:-0.122023 34:-0.127365 35:-0.117462 36:-0.177452 37:-0.123616 38:-0.122146 39:-0.151724 40:-0.117309 41:-0.110346 42:-0.151753 43:-0.173453 44:-0.148744 45:-0.171113 46:-0.175999 47:-0.193663 48:-0.192338 49:-0.191094 50:-0.187900 51:-0.158166 52:-0.160351 53:-0.208937 54:-0.243309 55:-0.205671 56:-0.203817 57:-0.207650 58:-0.198384 59:-0.192468 60:-0.209602
1 1:-0.031506 2:-0.008065 3:-0.015369 4:-0.036083 5:-0.009372 6:0.006270 7:-0.010428 8:0.012467 9:-0.023413 10:-0.015313 11:-0.060721 12:-0.011624 13:-0.041448 14:-0.035775 15:-0.057257 16:-0.050746 17:-0.044266 18:-0.065222 19:-0.031192 20:-0.045388 21:-0.061532 22:-0.048674 23:-0.114462 24:-0.099262 25:-0.122360 26:-0.082179 27:-0.072399 28:-0.113893 29:-0.117536 30:-0.133984 31:-0.088239 32:-0.144121 33:-0.170331 34:-0.075422 35:-0.081322 36:-0.104759 37:-0.133487 38:-0.138774 39:-0.119578 40:-0.128568 41:-0.161596 42:-0.171488 43:-0.173952 44:-0.153094 45:-0.168100 46:-0.182938 47:-0.176358 48:-0.200403 49:-0.191204 50:-0.162043 51:-0.180633 52:-0.169653 53:-0.172256 54:-0.235255 55:-0.200322 56:-0.186425 57:-0.208554 58:-0.234551 59:-0.222224 60:-0.224761
1 1:-0.026570 2:-0.001814 3:-0.033796 4:-0.011656 5:-0.023739 6:-0.056192 7:-0.005638 8:-0.039826 9:-0.056194 10:-0.019738 11:-0.046007 12:-0.074381 13:-0.006934 14:-0.065554 15:-0.046735 16:-0.036707 17:-0.034669 18:-0.064642 19:-0.089489 20:-0.111519 21:-0.050643 22:-0.071197 23:-0.069705 24:-0.118345 25:-0.110250 26:-0.101882 27:-0.086414 28:-0.107828 29:-0.101290 30:-0.123341 31:-0.086931 32:-0.160618 33:-0.097211 34:-0.148639 35:-0.122908 36:-0.143306 37:-0.123146 38:-0.135466 39:-0.168804 40:-0.162839 41:-0.154209 42:-0.157463 43:-0.156866 44:-0.146990 45:-0.173931 46:-0.128244 47:-0.161624 48:-0.196613 49:-0.160746 50:-0.158984 51:-0.160796 52:-0.145150 53:-0.206532 54:-0.211807 55:-0.229124 56:-0.194368 57:-0.187113 58:-0.225445 59:-0.222854 60:-0.217962
1 1:-0.003217 2:-0.004175 3:-0.004246 4:0.025818 5:-0.025707 6:-0.085272 7:-0.039704 8:-0.057430 9:-0.031733 10:-0.006187 11:-0.064620 12:-0.037358 13:-0.075842 14:0.001136 15:-0.057731 16:-0.055347 17:-0.040824 18:-0.089155 19:-0.105227 20:-0.023385 21:-0.107832 22:-0.089383 23:-0.067203 24:-0.058374 25:-0.093285 26:-0.109635 27:-0.091660 28:-0.133733 29:-0.105788 30:-0.136220 31:-0.111260 32:-0.115730 33:-0.095985 34:-0.103040 35:-0.091152 36:-0.110349 37:-0.144478 38:-0.135520 39:-0.164554 40:-0.137508 41:-0.171058 42:-0.145754 43:-0.160537 44:-0.171595 45:-0.160711 46:-0.190190 47:-0.174307 48:-0.128749 49:-0.152705 50:-0.181202 51:-0.195644 52:-0.195898 53:-0.156843 54:-0.223485 55:-0.206455 56:-0.196461 57:-0.193182 58:-0.244510 59:-0.224517 60:-0.200260
1 1:-0.031000 2:0.007671 3:0.033519 4:-0.034716 5:-0.001611 6:-0.011469 7:-0.040405 8:-0.022820 9:-0.021297 10:-0.022835 11:-0.038972 12:-0.026614 13:-0.046107 14:-0.077752 15:-0.049100 16:-0.065987 17:-0.048102 18:-0.055097 19:-0.047729 20:-0.086687 21:-0.072980 22:-0.097543 23:-0.065375 24:-0.064120 25:-0.077222 26:-0.116541 27:-0.111009 28:-0.148308 29:-0.073313 30:-0.136914 31:-0.094555 32:-0.146214 33:-0.131435 34:-0.112905 35:-0.147573 36:-0.130525 37:-0.121731 38:-0.132879 39:-0.147871 40:-0.122280 41:-0.163075 42:-0.146005 43:-0.121356 44:-0.183984 45:-0.165267 46:-0.187279 47:-0.168172 48:-0.160745 49:-0.155241 50:-0.198813 51:-0.214364 52:-0.164960 53:-0.224428 54:-0.202919 55:-0.211269 56:-0.203546 57:-0.211186 58:-0.180005 59:-0.214571 60:-0.202450
1 1:0.028516 2:0.000895 3:-0.000478 4:-0.031148 5:0.006992 6:-0.011078 7:-0.005717 8:-0.048816 9:-0.038873 10:-0.030853 11:-0.021161 12:-0.053550 13:-0.027741 14:-0.075451 15:-0.054086 16:-0.090343 17:-0.067351 18:-0.082164 19:-0.027452 20:-0.098397 21:-0.126831 22:-0.074073 23:-0.076818 24:-0.080657 25:-0.097500 26:-0.065893 27:-0.083603 28:-0.088807 29:-0.100217 30:-0.090046 31:-0.109533 32:-0.079994 33:-0.144799 34:-0.113998 35:-0.132787 36:-0.101953 37:-0.158353 38:-0.119828 39:-0.156061 40:-0.189632 41:-0.148752 42:-0.147614 43:-0.193078 44:-0.180951 45:-0.153932 46:-0.172702 47:-0.143907 48:-0.164510 49:-0.185688 50:-0.186861 51:-0.203062 52:-0.186537 53:-0.173497 54:-0.208377 55:-0.180903 56:-0.206718 57:-0.246136 58:-0.167527 59:-0.214620 60:-0.212689
1 1:-0.037159 2:0.010449 3:0.042326 4:-0.039138 5:-0.037925 6:-0.020395 7:-0.036387 8:-0.026463 9:-0.022008 10:-0.032835 11:-0.042928 12:-0.034817 13:-0.035732 14:-0.060125 15:-0.032599 16:-0.063647 17:-0.048328 18:-0.041838 19:-0.092789 20:-0.083139 21:-0.058167 22:-0.069948 23:-0.064637 24:-0.090646 25:-0.075105 26:-0.120160 27:-0.119550 28:-0.087671 29:-0.122556 30:-0.106899 31:-0.118969 32:-0.109906 33:-0.116046 34:-0.134675 35:-0.129977 36:-0.130489 37:-0.151016 38:-0.182361 39:-0.155066 40:-0.145278 41:-0.141235 42:-0.152156 43:-0.174656 44:-0.169563 45:-0.143146 46:-0.143113 47:-0.152840 48:-0.196576 49:-0.175184 50:-0.185707 51:-0.216173 52:-0.186193 53:-0.203920 54:-0.134049 55:-0.204003 56:-0.239894 57:-0.207512 58:-0.203953 59:-0.193238 60:-0.205689
1 1:-0.004148 2:-0.034116 3:-0.048154 4:-0.060987 5:-0.019148 6:-0.003877 7:-0.002834 8:-0.038343 9:-0.033902 10:-0.024500 11:-0.046751 12:-0.040309 13:-0.060060 14:-0.015230 15:-0.057641 16:-0.061162 17:-0.044962 18:-0.084807 19:-0.111128 20:-0.058226 21:-0.055840 22:-0.069073 23:-0.092845 24:-0.069448 25:-0.101511 26:-0.086333 27:-0.100139 28:-0.132510 29:-0.114984 30:-0.131168 31:-0.123764 32:-0.128384 33:-0.110842 34:-0.095655 35:-0.132077 36:-0.182211 37:-0.126145 38:-0.150563 39:-0.142343 40:-0.134191 41:-0.164792 42:-0.140385 43:-0.163966 44:-0.146248 45:-0.152529 46:-0.212426 47:-0.150494 48:-0.160282 49:-0.179324 50:-0.186532 51:-0.195806 52:-0.225011 53:-0.174693 54:-0.215187 55:-0.187731 56:-0.167231 57:-0.182433 58:-0.210621 59:-0.211078 60:-0.204090
1 1:0.066338 2:-0.021936 3:-0.039242 4:0.010158 5:-0.040799 6:-0.040816 7:-0.005132 8:-0.053508 9:-0.037971 10:-0.020192 11:-0.012022 12:-0.028691 13:-0.063062 14:-0.081352 15:-0.087201 16:-0.095721 17:-0.060203 18:-0.104517 19:-0.100053 20:-0.095842 21:-0.065594 22:-0.022793 23:-0.062032 24:-0.098231 25:-0.075861 26:-0.107183 27:-0.093986 28:-0.058044 29:-0.092497 30:-0.127931 31:-0.082292 32:-0.130704 33:-0.085231 34:-0.095107 35:-0.087925 36:-0.154545 37:-0.100321 38:-0.138743 39:-0.123077 40:-0.156758 41:-0.174889 42:-0.148330 43:-0.154738 44:-0.157754 45:-0.187735 46:-0.188971 47:-0.168762 48:-0.171492 49:-0.172486 50:-0.143964 51:-0.179772 52:-0.189744 53:-0.168077 54:-0.230201 55:-0.214167 56:-0.223634 57:-0.168873 58:-0.224408 59:-0.237841 60:-0.219549
1 1:-0.005541 2:-0.008770 3:-0.007167 4:-0.004755 5:-0.023570 6:-0.049443 7:-0.034056 8:-0.068360 9:-0.006462 10:-0.033146 11:-0.044322 12:-0.034783 13:-0.002467 14:-0.066778 15:-0.089464 16:-0.012973 17:-0.075346 18:-0.074055 19:-0.067973 20:-0.083767 21:-0.076131 22:-0.119451 23:-0.084157 24:-0.122386 25:-0.074086 26:-0.115707 27:-0.118117 28:-0.111840 29:-0.092825 30:-0.115989 31:-0.090118 32:-0.115047 33:-0.088304 34:-0.154095 35:-0.164779 36:-0.142555 37:-0.120991 38:-0.155277 39:-0.139634 40:-0.109529 41:-0.141498 42:-0.185213 43:-0.177434 44:-0.146548 45:-0.150061 46:-0.222194 47:-0.159908 48:-0.179824 49:-0.197239 50:-0.174197 51:-0.154569 52:-0.142367 53:-0.196029 54:-0.165527 55:-0.205420 56:-0.206698 57:-0.204665 58:-0.191355 59:-0.220762 60:-0.206419
1 1:0.027592 2:-0.005385 3:0.004960 4:0.010147 5:-0.057670 6:-0.027939 7:-0.045013 8:-0.045263 9:-0.000842 10:-0.065960 11:-0.048496 12:-0.040526 13:-0.048210 14:-0.032198 15:-0.078080 16:-0.069081 17:-0.039193 18:-0.052279 19:-0.053047 20:-0.103785 21:-0.070399 22:-0.057758 23:-0.057770 24:-0.099075 25:-0.100779 26:-0.062568 27:-0.077626 28:-0.054754 29:-0.092782 30:-0.117757 31:-0.135579 32:-0.132110 33:-0.110968 34:-0.133838 35:-0.122043 36:-0.101676 37:-0.155836 38:-0.102787 39:-0.136098 40:-0.153161 41:-0.170045 42:-0.145291 43:-0.164432 44:-0.150516 45:-0.177577 46:-0.156353 47:-0.190085 48:-0.205671 49:-0.194869 50:-0.219644 51:-0.180662 52:-0.160300 53:-0.195163 54:-0.186136 55:-0.205171 56:-0.166358 57:-0.213421 58:-0.211432 59:-0.225079 60:-0.230713
1 1:-0.026992 2:-0.041906 3:-0.006526 4:-0.023141 5:-0.031037 6:-0.035245 7:-0.027233 8:-0.020400 9:0.002445 10:-0.047589 11:-0.018123 12:-0.090347 13:-0.033235 14:-0.044059 15:-0.045849 16:-0.047179 17:-0.078620 18:-0.048496 19:-0.042379 20:-0.080027 21:-0.081894 22:-0.092522 23:-0.090222 24:-0.118291 25:-0.125739 26:-0.100102 27:-0.119042 28:-0.079884 29:-0.092304 30:-0.091729 31:-0.097497 32:-0.101440 33:-0.154175 34:-0.131252 35:-0.091553 36:-0.118266 37:-0.154136 38:-0.161173 39:-0.137553 40:-0.162398 41:-0.147133 42:-0.148024 43:-0.167964 44:-0.137373 45:-0.167744 46:-0.199670 47:-0.168164 48:-0.142297 49:-0.140932 50:-0.196659 51:-0.183798 52:-0.157751 53:-0.177740 54:-0.212527 55:-0.197102 56:-0.198126 57:-0.237138 58:-0.186831 59:-0.225046 60:-0.242426
1 1:-0.030196 2:0.031677 3:0.008761 4:0.014417 5:-0.039854 6:-0.040567 7:-0.009145 8:-0.001445 9:-0.011360 10:-0.076833 11:-0.067063 12:-0.043186 13:-0.037994 14:-0.049120 15:-0.085932 16:-0.068835 17:-0.076054 18:-0.107754 19:-0.095801 20:-0.032981 21:-0.074884 22:-0.076639 23:-0.060433 24:-0.051502 25:-0.120753 26:-0.105547 27:-0.108444 28:-0.081372 29:-0.115124 30:-0.143883 31:-0.112816 32:-0.111975 33:-0.088880 34:-0.110843 35:-0.136201 36:-0.128585 37:-0.135195 38:-0.147617 39:-0.117368 40:-0.145976 41:-0.114326 42:-0.115701 43:-0.183035 44:-0.167535 45:-0.191520 46:-0.158564 47:-0.187699 48:-0.160160 49:-0.202202 50:-0.177952 51:-0.188155 52:-0.235915 53:-0.182558 54:-0.187537 55:-0.179847 56:-0.202414 57:-0.255746 58:-0.186811 59:-0.198540 60:-0.176162
1 1:0.001563 2:0.016329 3:-0.012834 4:-0.070020 5:-0.010996 6:-0.037181 7:-0.015916 8:0.018995 9:-0.020002 10:-0.022231 11:-0.024120 12:-0.033108 13:-0.028786 14:-0.052951 15:-0.088778 16:-0.062513 17:-0.092042 18:-0.074228 19:-0.067270 20:-0.046133 21:-0.040575 22:-0.134264 23:-0.092482 24:-0.108538 25:-0.064673 26:-0.064104 27:-0.084916 28:-0.096943 29:-0.107013 30:-0.096272 31:-0.106924 32:-0.111210 33:-0.159468 34:-0.111532 35:-0.120186 36:-0.142993 37:-0.142656 38:-0.136879 39:-0.172769 40:-0.104526 41:-0.169383 42:-0.103323 43:-0.159144 44:-0.176500 45:-0.132251 46:-0.164442 47:-0.191238 48:-0.192770 49:-0.184232 50:-0.189890 51:-0.205237 52:-0.195235 53:-0.200304 54:-0.228364 55:-0.181311 56:-0.189922 57:-0.181358 58:-0.231484 59:-0.167951 60:-0.227201
1 1:-0.019061 2:-0.032152 3:-0.016494 4:0.005625 5:-0.030590 6:-0.028608 7:-0.005005 8:-0.022647 9:0.000610 10:-0.040731 11:-0.060728 12:-0.004197 13:-0.033548 14:-0.039680 15:-0.049153 16:-0.082448 17:-0.086200 18:-0.096567 19:-0.048987 20:-0.075621 21:-0.050626 22:-0.053734 23:-0.083326 24:-0.108436 25:-0.064631 26:-0.111970 27:-0.092239 28:-0.091955 29:-0.141412 30:-0.094666 31:-0.124422 32:-0.151456 33:-0.107940 34:-0.081988 35:-0.117657 36:-0.075638 37:-0.128717 38:-0.133566 39:-0.124810 40:-0.138247 41:-0.147085 42:-0.153833 43:-0.182023 44:-0.184750 45:-0.151874 46:-0.175212 47:-0.183981 48:-0.209809 49:-0.147092 50:-0.178137 51:-0.192150 52:-0.192729 53:-0.187305 54:-0.212593 55:-0.185839 56:-0.190076 57:-0.236847 58:-0.211922 59:-0.197023 60:-0.243329
1 1:-0.005123 2:-0.033218 3:-0.000434 4:0.022985 5:-0.042791 6:-0.024830 7:-0.049993 8:-0.024155 9:-0.020638 10:-0.016572 11:0.018195 12:-0.018272 13:-0.043910 14:-0.054400 15:-0.092010 16:-0.028589 17:-0.073272 18:-0.062857 19:-0.108056 20:-0.066654 21:-0.089549 22:-0.075801 23:-0.082655 24:-0.079538 25:-0.062343 26:-0.101742 27:-0.073546 28:-0.119026 29:-0.102783 30:-0.090587 31:-0.093041 32:-0.105703 33:-0.101097 34:-0.106898 35:-0.151250 36:-0.141672 37:-0.147395 38:-0.147032 39:-0.127568 40:-0.141873 41:-0.119988 42:-0.166134 43:-0.149227 44:-0.160090 45:-0.190623 46:-0.179119 47:-0.199987 48:-0.183838 49:-0.197392 50:-0.199003 51:-0.194875 52:-0.190203 53:-0.168073 54:-0.219855 55:-0.195046 56:-0.196951 57:-0.201255 58:-0.199206 59:-0.210388 60:-0.213224
1 1:-0.038827 2:0.002851 3:-0.017686 4:-0.016234 5:-0.002535 6:-0.047910 7:-0.032645 8:-0.017699 9:-0.043014 10:-0.003706 11:-0.021694 12:-0.022120 13:-0.066378 14:-0.039269 15:-0.058548 16:-0.036954 17:-0.067221 18:-0.061712 19:-0.079675 20:-0.073832 21:-0.071052 22:-0.051541 23:-0.050289 24:-0.068168 25:-0.080448 26:-0.108410 27:-0.084915 28:-0.133603 29:-0.116489 30:-0.140296 31:-0.128830 32:-0.081008 33:-0.164363 34:-0.107561 35:-0.127964 36:-0.130977 37:-0.095133 38:-0.103959 39:-0.121629 40:-0.171256 41:-0.181595 42:-0.151956 43:-0.163726 44:-0.128141 45:-0.179225 46:-0.160980 47:-0.159308 48:-0.152621 49:-0.193716 50:-0.204841 51:-0.209347 52:-0.195166 53:-0.196769 54:-0.183927 55:-0.214383 56:-0.238180 57:-0.211970 58:-0.208647 59:-0.193289 60:-0.203461
1 1:-0.020509 2:-0.017204 3:-0.008313 4:-0.028541 5:-0.025750 6:-0.005457 7:-0.010218 8:-0.022177 9:-0.075022 10:-0.057297 11:-0.011995 12:-0.048734 13:-0.010305 14:-0.028192 15:-0.029227 16:-0.024613 17:-0.072718 18:-0.042961 19:-0.079149 20:-0.061724 21:-0.061482 22:-0.095537 23:-0.100792 24:-0.069512 25:-0.085522 26:-0.093912 27:-0.104855 28:-0.117595 29:-0.143512 30:-0.092059 31:-0.086089 32:-0.101648 33:-0.099021 34:-0.114923 35:-0.130470 36:-0.123488 37:-0.146693 38:-0.158344 39:-0.114553 40:-0.173116 41:-0.160918 42:-0.169553 43:-0.149799 44:-0.125130 45:-0.166103 46:-0.152799 47:-0.175114 48:-0.153132 49:-0.220039 50:-0.182740 51:-0.178528 52:-0.192995 53:-0.213776 54:-0.157185 55:-0.182876 56:-0.222720 57:-0.217662 58:-0.232628 59:-0.240381 60:-0.209811
1 1:-0.002478 2:0.004071 3:-0.007260 4:-0.042295 5:-0.022013 6:-0.025667 7:0.007101 8:-0.027819 9:-0.063775 10:-0.078638 11:-0.008003 12:-0.035942 13:-0.016612 14:-0.080063 15:-0.050601 16:-0.039048 17:-0.055293 18:-0.056570 19:-0.067644 20:-0.066993 21:-0.088107 22:-0.077679 23:-0.133931 24:-0.057611 25:-0.085306 26:-0.071895 27:-0.121818 28:-0.127017 29:-0.112098 30:-0.089579 31:-0.090384 32:-0.105599 33:-0.135573 34:-0.119089 35:-0.125482 36:-0.143419 37:-0.125883 38:-0.152032 39:-0.132366 40:-0.162230 41:-0.154166 42:-0.190930 43:-0.179061 44:-0.159146 45:-0.172960 46:-0.168028 47:-0.150997 48:-0.210523 49:-0.156569 50:-0.159495 51:-0.194817 52:-0.160503 53:-0.164129 54:-0.173429 55:-0.228144 56:-0.147863 57:-0.192128 58:-0.257504 59:-0.225803 60:-0.216158
1 1:0.014312 2:-0.012689 3:-0.021262 4:-0.046425 5:-0.017883 6:-0.013734 7:-0.018899 8:-0.027720 9:-0.056131 10:-0.075195 11:-0.082744 12:-0.069744 13:-0.024668 14:-0.030875 15:-0.075520 16:-0.055232 17:-0.023821 18:-0.098592 19:-0.073832 20:-0.095517 21:-0.088006 22:-0.045126 23:-0.057728 24:-0.113080 25:-0.100661 26:-0.095821 27:-0.118393 28:-0.084311 29:-0.112219 30:-0.143744 31:-0.144796 32:-0.104767 33:-0.116046 34:-0.159311 35:-0.124490 36:-0.079925 37:-0.147817 38:-0.156174 39:-0.131294 40:-0.133534 41:-0.126098 42:-0.171848 43:-0.171124 44:-0.132622 45:-0.170207 46:-0.174949 47:-0.169586 48:-0.159410 49:-0.168551 50:-0.192419 51:-0.184445 52:-0.158605 53:-0.205097 54:-0.174160 55:-0.158634 56:-0.229461 57:-0.211834 58:-0.187317 59:-0.231360 60:-0.227495
1 1:-0.007966 2:0.017943 3:-0.003379 4:0.003643 5:-0.020872 6:-0.003260 7:-0.015595 8:-0.016361 9:-0.027807 10:-0.030002 11:-0.018039 12:-0.043368 13:-0.056102 14:-0.099119 15:-0.050152 16:-0.062209 17:-0.080641 18:-0.068446 19:-0.076294 20:-0.079459 21:-0.089283 22:-0.085877 23:-0.062790 24:-0.099274 25:-0.124279 26:-0.074665 27:-0.097715 28:-0.093013 29:-0.092239 30:-0.103497 31:-0.097558 32:-0.091810 33:-0.109843 34:-0.154083 35:-0.133984 36:-0.150738 37:-0.144619 38:-0.132244 39:-0.152354 40:-0.151521 41:-0.167225 42:-0.142010 43:-0.131873 44:-0.166677 45:-0.164076 46:-0.172339 47:-0.186882 48:-0.141122 49:-0.196971 50:-0.170756 51:-0.178355 52:-0.170271 53:-0.219776 54:-0.242910 55:-0.192340 56:-0.228631 57:-0.175897 58:-0.199178 59:-0.199963 60:-0.211652
1 1:-0.016701 2:-0.003588 3:-0.007168 4:-0.007397 5:0.017042 6:-0.032750 7:-0.031900 8:-0.034744 9:-0.017083 10:-0.025669 11:-0.040288 12:-0.064315 13:-0.008566 14:-0.043620 15:-0.061327 16:-0.007038 17:-0.088129 18:-0.069787 19:-0.057171 20:-0.082776 21:-0.078653 22:-0.101695 23:-0.089397 24:-0.084900 25:-0.058404 26:-0.091621 27:-0.167060 28:-0.103655 29:-0.138317 30:-0.121622 31:-0.082456 32:-0.148529 33:-0.159569 34:-0.110794 35:-0.105950 36:-0.148826 37:-0.137951 38:-0.094860 39:-0.160458 40:-0.099131 41:-0.189380 42:-0.186755 43:-0.159376 44:-0.163223 45:-0.151408 46:-0.118311 47:-0.196921 48:-0.178803 49:-0.158395 50:-0.183241 51:-0.186638 52:-0.203327 53:-0.218965 54:-0.164825 55:-0.184269 56:-0.208024 57:-0.200157 58:-0.189793 59:-0.241639 60:-0.170182
1 1:-0.023298 2:-0.041891 3:-0.029017 4:0.011333 5:-0.007730 6:-0.041993 7:-0.003085 8:-0.033009 9:-0.034740 10:-0.044023 11:-0.026430 12:-0.048676 13:-0.065701 14:-0.044561 15:-0.080351 16:-0.084284 17:-0.052353 18:-0.047720 19:-0.084318 20:-0.073711 21:-0.077846 22:-0.093909 23:-0.100231 24:-0.129541 25:-0.096728 26:-0.096462 27:-0.109088 28:-0.092447 29:-0.117739 30:-0.114720 31:-0.111251 32:-0.131508 33:-0.117297 34:-0.115228 35:-0.181123 36:-0.082875 37:-0.111062 38:-0.157904 39:-0.144042 40:-0.167824 41:-0.113676 42:-0.137022 43:-0.148381 44:-0.169702 45:-0.165576 46:-0.158429 47:-0.164818 48:-0.140379 49:-0.135215 50:-0.201094 51:-0.220648 52:-0.181870 53:-0.184653 54:-0.213109 55:-0.177351 56:-0.224457 57:-0.200036 58:-0.182071 59:-0.221723 60:-0.231772
1 1:-0.044193 2:-0.022588 3:0.018092 4:-0.057934 5:-0.009685 6:-0.021374 7:-0.018884 8:-0.016583 9:-0.050715 10:-0.044314 11:-0.040424 12:-0.037053 13:-0.026564 14:-0.034341 15:-0.039639 16:-0.085231 17:-0.082675 18:-0.051563 19:-0.086807 20:-0.060853 21:-0.067626 22:-0.053556 23:-0.084737 24:-0.114527 25:-0.090190 26:-0.121488 27:-0.115141 28:-0.085310 29:-0.075471 30:-0.100066 31:-0.132948 32:-0.077448 33:-0.161040 34:-0.102270 35:-0.125432 36:-0.125628 37:-0.139886 38:-0.153178 39:-0.151446 40:-0.166640 41:-0.167142 42:-0.154916 43:-0.179381 44:-0.174093 45:-0.143046 46:-0.174445 47:-0.155535 48:-0.164492 49:-0.148971 50:-0.177091 51:-0.210788 52:-0.205851 53:-0.163551 54:-0.171061 55:-0.199412 56:-0.200090 57:-0.211195 58:-0.223050 59:-0.190343 60:-0.241165
1 1:0.005410 2:0.023244 3:-0.004653 4:0.006421 5:0.001806 6:-0.015549 7:-0.021891 8:0.004408 9:-0.031555 10:-0.051865 11:-0.044568 12:-0.043942 13:-0.055961 14:-0.042735 15:-0.058378 16:-0.055908 17:-0.068095 18:-0.054971 19:-0.061315 20:-0.055262 21:-0.067672 22:-0.108030 23:-0.092380 24:-0.088352 25:-0.106432 26:-0.118537 27:-0.138516 28:-0.094518 29:-0.055030 30:-0.101903 31:-0.129157 32:-0.140249 33:-0.100894 34:-0.105593 35:-0.149637 36:-0.112248 37:-0.153839 38:-0.141309 39:-0.139724 40:-0.134384 41:-0.154185 42:-0.146977 43:-0.121180 44:-0.147201 45:-0.146888 46:-0.193497 47:-0.193669 48:-0.187963 49:-0.204543 50:-0.178711 51:-0.173676 52:-0.151721 53:-0.211773 54:-0.185608 55:-0.211834 56:-0.219150 57:-0.184848 58:-0.202942 59:-0.233221 60:-0.221771
1 1:-0.008328 2:-0.005973 3:-0.001269 4:-0.034343 5:-0.034183 6:-0.006226 7:-0.023365 8:-0.018793 9:-0.041222 10:-0.074893 11:-0.031950 12:-0.041562 13:-0.094562 14:-0.056910 15:-0.011495 16:-0.053759 17:-0.103502 18:-0.068223 19:-0.056610 20:-0.066255 21:-0.067937 22:-0.071891 23:-0.073620 24:-0.066897 25:-0.067959 26:-0.086377 27:-0.120529 28:-0.092815 29:-0.097026 30:-0.104608 31:-0.076824 32:-0.104495 33:-0.121124 34:-0.116584 35:-0.137235 36:-0.111890 37:-0.142395 38:-0.130358 39:-0.147698 40:-0.152307 41:-0.151625 42:-0.137615 43:-0.151386 44:-0.132947 45:-0.195697 46:-0.188018 47:-0.148106 48:-0.177369 49:-0.205787 50:-0.200087 51:-0.217618 52:-0.162451 53:-0.193727 54:-0.211489 55:-0.217265 56:-0.187936 57:-0.202268 58:-0.203349 59:-0.242345 60:-0.207221
1 1:-0.008205 2:-0.046644 3:-0.006513 4:-0.007588 5:-0.034104 6:0.000993 7:-0.062642 8:-0.050331 9:-0.022813 10:-0.030303 11:-0.040359 12:-0.052969 13:-0.067024 14:-0.036482 15:-0.037065 16:-0.066979 17:-0.068881 18:-0.070073 19:-0.079611 20:-0.089226 21:-0.063227 22:-0.099780 23:-0.079397 24:-0.092311 25:-0.098610 26:-0.089849 27:-0.065279 28:-0.109857 29:-0.080394 30:-0.124993 31:-0.129185 32:-0.092329 33:-0.136288 34:-0.117906 35:-0.138548 36:-0.138396 37:-0.125856 38:-0.136458 39:-0.191025 40:-0.128135 41:-0.168799 42:-0.156739 43:-0.159269 44:-0.154240 45:-0.181649 46:-0.174644 47:-0.163699 48:-0.197884 49:-0.186466 50:-0.188917 51:-0.158574 52:-0.190135 53:-0.200926 54:-0.168780 55:-0.205527 56:-0.195494 57:-0.229371 58:-0.206742 59:-0.211462 60:-0.165267
1 1:-0.004499 2:-0.053305 3:-0.004427 4:-0.060554 5:-0.042711 6:-0.009776 7:-0.065060 8:0.006545 9:-0.073361 10:-0.058778 11:-0.002555 12:-0.089522 13:-0.060116 14:-0.043015 15:-0.073375 16:-0.073916 17:-0.073015 18:-0.089316 19:-0.059862 20:-0.074485 21:-0.091944 22:-0.073707 23:-0.079679 24:-0.098664 25:-0.099534 26:-0.096818 27:-0.088671 28:-0.071784 29:-0.072553 30:-0.115349 31:-0.107248 32:-0.113684 33:-0.088554 34:-0.087692 35:-0.188360 36:-0.112432 37:-0.161413 38:-0.107746 39:-0.154127 40:-0.157237 41:-0.131901 42:-0.167877 43:-0.191502 44:-0.155807 45:-0.174276 46:-0.118164 47:-0.175818 48:-0.210371 49:-0.183496 50:-0.175555 51:-0.191498 52:-0.203659 53:-0.169994 54:-0.167589 55:-0.208797 56:-0.194604 57:-0.190658 58:-0.179233 59:-0.214444 60:-0.234540
1 1:-0.012524 2:-0.019066 3:0.015464 4:0.004593 5:-0.026943 6:-0.058844 7:-0.048563 8:-0.030277 9:-0.054683 10:-0.030544 11:-0.056161 12:-0.025190 13:-0.037310 14:-0.017105 15:-0.035650 16:-0.055176 17:-0.046785 18:-0.072222 19:-0.072063 20:-0.098798 21:-0.082219 22:-0.102383 23:-0.067957 24:-0.074882 25:-0.078015 26:-0.086944 27:-0.102188 28:-0.111048 29:-0.093728 30:-0.136094 31:-0.116690 32:-0.089357 33:-0.113805 34:-0.122886 35:-0.138412 36:-0.121270 37:-0.128822 38:-0.156963 39:-0.145021 40:-0.142521 41:-0.150025 42:-0.148444 43:-0.189980 44:-0.155615 45:-0.157640 46:-0.170535 47:-0.188212 48:-0.152267 49:-0.179073 50:-0.185759 51:-0.213953 52:-0.178157 53:-0.208182 54:-0.220350 55:-0.175591 56:-0.201205 57:-0.222367 58:-0.193484 59:-0.208794 60:-0.207909
1 1:-0.043928 2:0.007624 3:-0.031067 4:-0.026135 5:-0.013436 6:-0.030406 7:-0.049381 8:0.002259 9:-0.025191 10:-0.056645 11:-0.020687 12:-0.040498 13:-0.018917 14:-0.081679 15:-0.071749 16:-0.067846 17:-0.065169 18:-0.073397 19:-0.083041 20:-0.079595 21:-0.088065 22:-0.058468 23:-0.067066 24:-0.077099 25:-0.091657 26:-0.088741 27:-0.077269 28:-0.097325 29:-0.093856 30:-0.125368 31:-0.108353 32:-0.106004 33:-0.120482 34:-0.116676 35:-0.097833 36:-0.151762 37:-0.119036 38:-0.089917 39:-0.147139 40:-0.166750 41:-0.134664 42:-0.178432 43:-0.165175 44:-0.138685 45:-0.177883 46:-0.125713 47:-0.156621 48:-0.182064 49:-0.198867 50:-0.186491 51:-0.203142 52:-0.188939 53:-0.191664 54:-0.214284 55:-0.205870 56:-0.228109 57:-0.197660 58:-0.215488 59:-0.213006 60:-0.230499
1 1:-0.020690 2:-0.030814 3:0.019940 4:-0.017462 5:-0.026753 6:-0.038509 7:-0.025678 8:-0.045430 9:-0.031101 10:-0.066210 11:-0.075783 12:-0.036607 13:-0.034856 14:-0.074392 15:-0.073033 16:-0.081853 17:-0.042217 18:-0.049512 19:-0.101976 20:-0.082034 21:-0.088662 22:-0.070200 23:-0.073602 24:-0.101566 25:-0.058658 26:-0.085253 27:-0.089733 28:-0.155408 29:-0.176500 30:-0.130525 31:-0.125020 32:-0.086312 33:-0.123449 34:-0.145570 35:-0.141653 36:-0.106581 37:-0.176252 38:-0.117497 39:-0.125879 40:-0.093538 41:-0.135452 42:-0.138700 43:-0.177084 44:-0.127250 45:-0.163312 46:-0.153218 47:-0.186062 48:-0.165360 49:-0.164165 50:-0.189132 51:-0.191834 52:-0.167328 53:-0.207317 54:-0.178186 55:-0.203599 56:-0.196560 57:-0.207172 58:-0.214923 59:-0.209022 60:-0.219106
1 1:0.025607 2:-0.013665 3:-0.006694 4:-0.013272 5:0.022159 6:0.020182 7:-0.008308 8:-0.055230 9:-0.031554 10:-0.056905 11:-0.057985 12:-0.048417 13:-0.056331 14:-0.073768 15:-0.052689 16:-0.064623 17:-0.036613 18:-0.080754 19:-0.083380 20:-0.045352 21:-0.058091 22:-0.060355 23:-0.112012 24:-0.040658 25:-0.093224 26:-0.064369 27:-0.069687 28:-0.066683 29:-0.103326 30:-0.104757 31:-0.112533 32:-0.104012 33:-0.133648 34:-0.135981 35:-0.106957 36:-0.132955 37:-0.141356 38:-0.168183 39:-0.112887 40:-0.152935 41:-0.151949 42:-0.156221 43:-0.174814 44:-0.147407 45:-0.189745 46:-0.152940 47:-0.154663 48:-0.166217 49:-0.137244 50:-0.216134 51:-0.205597 52:-0.191067 53:-0.218581 54:-0.166591 55:-0.230243 56:-0.213569 57:-0.199473 58:-0.229791 59:-0.192101 60:-0.235550
1 1:-0.032019 2:-0.004415 3:0.016857 4:-0.035896 5:-0.026346 6:-0.017953 7:-0.049298 8:-0.074204 9:-0.037765 10:-0.031540 11:-0.046010 12:-0.072313 13:-0.033955 14:-0.077312 15:-0.054925 16:-0.060791 17:-0.061754 18:-0.050906 19:-0.075340 20:-0.085544 21:-0.078263 22:-0.100775 23:-0.064367 24:-0.099918 25:-0.078511 26:-0.071381 27:-0.106658 28:-0.134749 29:-0.081526 30:-0.091638 31:-0.109714 32:-0.151755 33:-0.131334 34:-0.138522 35:-0.141043 36:-0.125821 37:-0.148772 38:-0.128249 39:-0.136648 40:-0.138953 41:-0.125400 42:-0.187091 43:-0.153499 44:-0.192500 45:-0.192056 46:-0.153294 47:-0.173943 48:-0.120148 49:-0.150318 50:-0.196057 51:-0.211673 52:-0.190072 53:-0.190713 54:-0.211044 55:-0.161499 56:-0.208848 57:-0.195764 58:-0.208244 59:-0.206429 60:-0.205152
1 1:-0.012732 2:-0.020268 3:-0.044202 4:-0.025068 5:-0.022292 6:-0.035029 7:-0.015652 8:-0.032807 9:-0.054686 10:0.013116 11:-0.047571 12:-0.051712 13:-0.063655 14:-0.072964 15:-0.039009 16:-0.036496 17:-0.058089 18:-0.096620 19:-0.050406 20:-0.082347 21:-0.070372 22:-0.052521 23:-0.101919 24:-0.120743 25:-0.139328 26:-0.100707 27:-0.097973 28:-0.102676 29:-0.123159 30:-0.109824 31:-0.099952 32:-0.146420 33:-0.129432 34:-0.080252 35:-0.091558 36:-0.130953 37:-0.088791 38:-0.145218 39:-0.123454 40:-0.136378 41:-0.150294 42:-0.158206 43:-0.191462 44:-0.145942 45:-0.167571 46:-0.156989 47:-0.180533 48:-0.188762 49:-0.178535 50:-0.197213 51:-0.163841 52:-0.177535 53:-0.185440 54:-0.226307 55:-0.197494 56:-0.183142 57:-0.187505 58:-0.217777 59:-0.216713 60:-0.235628
1 1:0.004653 2:-0.009047 3:0.017300 4:0.019162 5:0.014394 6:-0.038830 7:0.003453 8:-0.019205 9:0.004856 10:-0.010397 11:-0.033806 12:-0.032902 13:-0.028189 14:-0.070777 15:-0.072421 16:-0.055564 17:-0.058785 18:-0.039963 19:-0.039572 20:-0.106246 21:-0.067325 22:-0.059757 23:-0.085306 24:-0.103192 25:-0.090474 26:-0.100798 27:-0.105405 28:-0.114547 29:-0.103904 30:-0.111894 31:-0.108645 32:-0.086176 33:-0.147606 34:-0.095178 35:-0.124155 36:-0.134077 37:-0.117970 38:-0.154587 39:-0.130705 40:-0.185325 41:-0.172849 42:-0.199112 43:-0.179342 44:-0.130757 45:-0.183301 46:-0.154241 47:-0.139440 48:-0.137278 49:-0.179764 50:-0.189824 51:-0.144088 52:-0.204565 53:-0.189489 54:-0.197002 55:-0.177235 56:-0.219997 57:-0.194906 58:-0.211316 59:-0.225883 60:-0.253951
1 1:-0.039525 2:-0.006324 3:-0.017157 4:-0.046705 5:-0.002443 6:0.002873 7:-0.011237 8:-0.038460 9:-0.033805 10:-0.044994 11:-0.069242 12:-0.013791 13:-0.070351 14:-0.035119 15:-0.044121 16:-0.063385 17:-0.028995 18:-0.052465 19:-0.058370 20:-0.089313 21:-0.106662 22:-0.100283 23:-0.141881 24:-0.095099 25:-0.069016 26:-0.072374 27:-0.088455 28:-0.118197 29:-0.107621 30:-0.114658 31:-0.150274 32:-0.110895 33:-0.088323 34:-0.114130 35:-0.109616 36:-0.082087 37:-0.138702 38:-0.143776 39:-0.134735 40:-0.115727 41:-0.177953 42:-0.158294 43:-0.147842 44:-0.160358 45:-0.217134 46:-0.137130 47:-0.117641 48:-0.161629 49:-0.160550 50:-0.170532 51:-0.232433 52:-0.191577 53:-0.129160 54:-0.179359 55:-0.236259 56:-0.204421 57:-0.199812 58:-0.257195 59:-0.227084 60:-0.214667
1 1:0.005080 2:-0.045847 3:-0.049056 4:-0.011531 5:-0.056835 6:0.011551 7:-0.033905 8:-0.019455 9:-0.028977 10:-0.022804 11:-0.072586 12:-0.074965 13:-0.030453 14:-0.058091 15:-0.071857 16:-0.028405 17:-0.090278 18:-0.027252 19:-0.066797 20:-0.066585 21:-0.121134 22:-0.095579 23:-0.070930 24:-0.096512 25:-0.065442 26:-0.109824 27:-0.068770 28:-0.127679 29:-0.111602 30:-0.110415 31:-0.118486 32:-0.153777 33:-0.118522 34:-0.102178 35:-0.099446 36:-0.156228 37:-0.125322 38:-0.169948 39:-0.142317 40:-0.138315 41:-0.153437 42:-0.162381 43:-0.136825 44:-0.182782 45:-0.164436 46:-0.171196 47:-0.173751 48:-0.177838 49:-0.209006 50:-0.193659 51:-0.164003 52:-0.174854 53:-0.191784 54:-0.138157 55:-0.186836 56:-0.205241 57:-0.211465 58:-0.205207 59:-0.229986 60:-0.195013
1 1:0.007949 2:-0.004354 3:-0.034891 4:-0.003399 5:-0.037440 6:-0.015463 7:-0.045996 8:-0.041890 9:-0.049832 10:-0.053443 11:-0.054140 12:-0.041408 13:-0.060906 14:-0.028319 15:-0.059722 16:-0.064883 17:-0.072285 18:-0.062617 19:-0.080493 20:-0.082488 21:-0.099719 22:-0.067476 23:-0.084314 24:-0.069891 25:-0.101164 26:-0.140628 27:-0.110874 28:-0.086166 29:-0.074701 30:-0.111228 31:-0.128229 32:-0.113784 33:-0.120854 34:-0.086423 35:-0.118851 36:-0.112847 37:-0.110516 38:-0.154723 39:-0.142791 40:-0.151442 41:-0.127667 42:-0.169022 43:-0.145891 44:-0.154236 45:-0.162107 46:-0.155884 47:-0.153819 48:-0.184211 49:-0.190449 50:-0.164570 51:-0.183133 52:-0.213785 53:-0.178577 54:-0.203752 55:-0.206323 56:-0.177218 57:-0.220495 58:-0.221312 59:-0.221390 60:-0.248606
1 1:-0.009833 2:0.011903 3:-0.003823 4:-0.035512 5:0.008540 6:-0.006771 7:-0.048771 8:0.004919 9:-0.041997 10:-0.043953 11:-0.025782 12:-0.020752 13:-0.049932 14:-0.028061 15:-0.056627 16:-0.060174 17:-0.052841 18:-0.065366 19:-0.032999 20:-0.099622 21:-0.121833 22:-0.070239 23:-0.081316 24:-0.087701 25:-0.087160 26:-0.129813 27:-0.098327 28:-0.081871 29:-0.102047 30:-0.087342 31:-0.129936 32:-0.094409 33:-0.121544 34:-0.112737 35:-0.114015 36:-0.146469 37:-0.113292 38:-0.158528 39:-0.190359 40:-0.194089 41:-0.142388 42:-0.202252 43:-0.155124 44:-0.171460 45:-0.140888 46:-0.156684 47:-0.161147 48:-0.152717 49:-0.169106 50:-0.205622 51:-0.195692 52:-0.175149 53:-0.203475 54:-0.193716 55:-0.212835 56:-0.229273 57:-0.155527 58:-0.175762 59:-0.192169 60:-0.231204
1 1:-0.030435 2:0.031210 3:0.017757 4:-0.004752 5:0.000044 6:-0.015488 7:-0.048102 8:-0.016822 9:-0.021998 10:-0.044063 11:-0.067884 12:0.001403 13:-0.014733 14:-0.037338 15:-0.015532 16:-0.043709 17:-0.032732 18:-0.083853 19:-0.050634 20:-0.096285 21:-0.101238 22:-0.085845 23:-0.081666 24:-0.083501 25:-0.104438 26:-0.107213 27:-0.126959 28:-0.155488 29:-0.124540 30:-0.080329 31:-0.075128 32:-0.128857 33:-0.118503 34:-0.123099 35:-0.124438 36:-0.138955 37:-0.130513 38:-0.144172 39:-0.142770 40:-0.155142 41:-0.169807 42:-0.157035 43:-0.186078 44:-0.175432 45:-0.154926 46:-0.138078 47:-0.166814 48:-0.188103 49:-0.173485 50:-0.187935 51:-0.173225 52:-0.190476 53:-0.217502 54:-0.206661 55:-0.196562 56:-0.198256 57:-0.183033 58:-0.172696 59:-0.192258 60:-0.233742
1 1:-0.015688 2:-0.027620 3:-0.000223 4:-0.016404 5:-0.018385 6:-0.026815 7:-0.034371 8:-0.038358 9:-0.021717 10:-0.031683 11:-0.046144 12:-0.060611 13:-0.009115 14:-0.033383 15:-0.061934 16:-0.052632 17:-0.062775 18:-0.086949 19:-0.085557 20:-0.090370 21:-0.054916 22:-0.037219 23:-0.087037 24:-0.133347 25:-0.107398 26:-0.103580 27:-0.063215 28:-0.119084 29:-0.063381 30:-0.131123 31:-0.144994 32:-0.135868 33:-0.101670 34:-0.140398 35:-0.128511 36:-0.142202 37:-0.149817 38:-0.122021 39:-0.166390 40:-0.137098 41:-0.137651 42:-0.104969 43:-0.181049 44:-0.163333 45:-0.162091 46:-0.165902 47:-0.136624 48:-0.150055 49:-0.165883 50:-0.188052 51:-0.189464 52:-0.196456 53:-0.226826 54:-0.185243 55:-0.176464 56:-0.234560 57:-0.202200 58:-0.216779 59:-0.219907 60:-0.203756
1 1:0.012065 2:0.005420 3:-0.018108 4:-0.030614 5:0.000964 6:-0.053177 7:-0.017508 8:0.001724 9:0.000214 10:-0.055121 11:-0.021279 12:-0.052818 13:-0.059793 14:-0.045392 15:-0.099439 16:-0.084782 17:-0.054692 18:-0.029121 19:-0.065899 20:-0.085428 21:-0.086726 22:-0.068845 23:-0.074181 24:-0.065819 25:-0.092035 26:-0.140132 27:-0.087847 28:-0.067366 29:-0.087672 30:-0.163625 31:-0.113264 32:-0.116145 33:-0.126171 34:-0.145115 35:-0.118193 36:-0.103993 37:-0.119953 38:-0.170252 39:-0.150998 40:-0.149776 41:-0.137633 42:-0.155859 43:-0.108129 44:-0.144734 45:-0.145059 46:-0.185104 47:-0.193817 48:-0.172108 49:-0.174208 50:-0.171325 51:-0.144091 52:-0.199081 53:-0.194436 54:-0.224477 55:-0.209246 56:-0.226052 57:-0.235204 58:-0.203623 59:-0.218224 60:-0.177192
1 1:-0.003182 2:0.016934 3:-0.027455 4:-0.052817 5:-0.034059 6:-0.043688 7:-0.021661 8:-0.017864 9:-0.060866 10:-0.060573 11:-0.046867 12:-0.025754 13:-0.021753 14:-0.059193 15:-0.047482 16:-0.075795 17:-0.053113 18:-0.073562 19:-0.063007 20:-0.042983 21:-0.080114 22:-0.058911 23:-0.105748 24:-0.127000 25:-0.073078 26:-0.094455 27:-0.065895 28:-0.069699 29:-0.103790 30:-0.116884 31:-0.111010 32:-0.096783 33:-0.100406 34:-0.102529 35:-0.125222 36:-0.110551 37:-0.124624 38:-0.139729 39:-0.137437 40:-0.171964 41:-0.147715 42:-0.143002 43:-0.159390 44:-0.155274 45:-0.149504 46:-0.187410 47:-0.137380 48:-0.206701 49:-0.159392 50:-0.163334 51:-0.196006 52:-0.193924 53:-0.230726 54:-0.221492 55:-0.218930 56:-0.214839 57:-0.238749 58:-0.230336 59:-0.194620 60:-0.184302
1 1:-0.017715 2:0.038783 3:-0.044969 4:-0.044636 5:0.007969 6:-0.043307 7:-0.032210 8:0.001809 9:-0.035425 10:-0.004389 11:-0.079578 12:-0.089286 13:-0.059077 14:-0.043165 15:-0.035032 16:-0.072853 17:-0.049332 18:-0.048606 19:-0.091373 20:-0.063310 21:-0.050425 22:-0.095943 23:-0.105879 24:-0.072413 25:-0.091211 26:-0.038366 27:-0.102407 28:-0.084847 29:-0.111126 30:-0.126225 31:-0.121994 32:-0.108744 33:-0.117755 34:-0.133341 35:-0.116781 36:-0.136651 37:-0.133534 38:-0.137256 39:-0.154814 40:-0.151891 41:-0.168754 42:-0.162860 43:-0.164447 44:-0.172151 45:-0.199044 46:-0.156712 47:-0.141764 48:-0.165559 49:-0.186926 50:-0.183814 51:-0.208032 52:-0.151252 53:-0.203251 54:-0.214221 55:-0.184353 56:-0.190007 57:-0.213464 58:-0.226640 59:-0.216676 60:-0.169744
1 1:-0.027923 2:-0.026283 3:-0.025240 4:-0.013267 5:-0.011354 6:-0.021518 7:0.004094 8:-0.040984 9:-0.073803 10:-0.080270 11:-0.011262 12:-0.004481 13:-0.051567 14:-0.086975 15:-0.048309 16:-0.083588 17:-0.060191 18:-0.090343 19:-0.082531 20:-0.108582 21:-0.086903 22:-0.095031 23:-0.072689 24:-0.101546 25:-0.035733 26:-0.129146 27:-0.085460 28:-0.113128 29:-0.104794 30:-0.090702 31:-0.135895 32:-0.101160 33:-0.153629 34:-0.099636 35:-0.135538 36:-0.148536 37:-0.110378 38:-0.167176 39:-0.103601 40:-0.134700 41:-0.183507 42:-0.132225 43:-0.174108 44:-0.182716 45:-0.148826 46:-0.137822 47:-0.159294 48:-0.185176 49:-0.156906 50:-0.203241 51:-0.169263 52:-0.187935 53:-0.165847 54:-0.181764 55:-0.210971 56:-0.204525 57:-0.196126 58:-0.213465 59:-0.197205 60:-0.238701
1 1:-0.020374 2:-0.038170 3:0.005389 4:-0.012395 5:0.008848 6:0.014744 7:-0.020597 8:-0.018145 9:-0.016237 10:-0.046954 11:-0.042759 12:-0.032858 13:-0.059514 14:-0.069762 15:-0.033201 16:-0.023612 17:-0.066197 18:-0.040793 19:-0.094443 20:-0.055608 21:-0.058771 22:-0.069791 23:-0.086195 24:-0.094376 25:-0.112257 26:-0.129215 27:-0.099721 28:-0.056546 29:-0.121846 30:-0.122821 31:-0.113839 32:-0.105545 33:-0.110730 34:-0.113024 35:-0.130079 36:-0.130112 37:-0.141451 38:-0.149239 39:-0.139762 40:-0.157938 41:-0.182249 42:-0.146011 43:-0.167148 44:-0.149900 45:-0.184234 46:-0.163297 47:-0.179041 48:-0.155080 49:-0.195192 50:-0.172198 51:-0.133567 52:-0.191052 53:-0.132640 54:-0.199428 55:-0.191969 56:-0.213913 57:-0.225692 58:-0.219980 59:-0.240874 60:-0.235679
1 1:-0.002418 2:-0.021901 3:0.002339 4:-0.039557 5:-0.005977 6:0.003773 7:-0.018937 8:-0.024204 9:-0.023694 10:-0.058396 11:-0.050233 12:-0.028823 13:-0.003447 14:-0.076973 15:-0.024169 16:-0.022569 17:-0.043928 18:-0.045764 19:-0.080937 20:-0.104373 21:-0.078301 22:-0.092888 23:-0.088922 24:-0.120058 25:-0.120353 26:-0.081454 27:-0.065551 28:-0.116966 29:-0.148612 30:-0.113217 31:-0.096757 32:-0.114770 33:-0.147058 34:-0.093979 35:-0.114535 36:-0.130328 37:-0.137591 38:-0.144458 39:-0.131341 40:-0.157896 41:-0.153648 42:-0.172847 43:-0.176578 44:-0.165394 45:-0.199292 46:-0.142587 47:-0.202731 48:-0.169364 49:-0.172599 50:-0.178229 51:-0.190715 52:-0.167734 53:-0.163780 54:-0.226793 55:-0.170215 56:-0.189008 57:-0.190361 58:-0.198433 59:-0.229970 60:-0.213536
1 1:-0.006043 2:-0.039578 3:0.023585 4:-0.018125 5:-0.022560 6:-0.003545 7:-0.024016 8:-0.043099 9:-0.077184 10:-0.052816 11:-0.055502 12:-0.031115 13:-0.020654 14:-0.067893 15:-0.014092 16:-0.027723 17:-0.047959 18:-0.126199 19:-0.066191 20:-0.041206 21:-0.044796 22:-0.082137 23:-0.090677 24:-0.102094 25:-0.053264 26:-0.077991 27:-0.095730 28:-0.124727 29:-0.105076 30:-0.106321 31:-0.131502 32:-0.074798 33:-0.069229 34:-0.141403 35:-0.150506 36:-0.164425 37:-0.139600 38:-0.187824 39:-0.132374 40:-0.150887 41:-0.148020 42:-0.141605 43:-0.166663 44:-0.159749 45:-0.163486 46:-0.147483 47:-0.145854 48:-0.159220 49:-0.146437 50:-0.183891 51:-0.161043 52:-0.209480 53:-0.198896 54:-0.187875 55:-0.228741 56:-0.200667 57:-0.235194 58:-0.220084 59:-0.198139 60:-0.223054
1 1:0.023093 2:-0.002183 3:0.005721 4:-0.021818 5:-0.022498 6:-0.080224 7:0.010692 8:-0.056656 9:0.016993 10:0.003760 11:-0.046518 12:0.007288 13:-0.055550 14:-0.040808 15:-0.066586 16:-0.034015 17:-0.086536 18:-0.063694 19:-0.065434 20:-0.090167 21:-0.061633 22:-0.086338 23:-0.101422 24:-0.079829 25:-0.095724 26:-0.088804 27:-0.089867 28:-0.112879 29:-0.109355 30:-0.092023 31:-0.099821 32:-0.087576 33:-0.124739 34:-0.124604 35:-0.151279 36:-0.113145 37:-0.115655 38:-0.158596 39:-0.138017 40:-0.141132 41:-0.150049 42:-0.171068 43:-0.158048 44:-0.155053 45:-0.193895 46:-0.181994 47:-0.174192 48:-0.205586 49:-0.220260 50:-0.134111 51:-0.184563 52:-0.172825 53:-0.189557 54:-0.201420 55:-0.176888 56:-0.208619 57:-0.193340 58:-0.211782 59:-0.205917 60:-0.230773
1 1:0.011433 2:-0.002703 3:-0.059183 4:-0.013904 5:-0.003888 6:-0.026592 7:-0.036173 8:-0.024078 9:-0.015633 10:-0.011692 11:-0.046194 12:-0.016609 13:-0.029305 14:-0.065474 15:-0.072977 16:-0.072743 17:-0.061474 18:-0.031832 19:-0.045105 20:-0.075959 21:-0.065900 22:-0.076646 23:-0.050698 24:-0.091906 25:-0.102113 26:-0.058393 27:-0.143045 28:-0.088401 29:-0.074805 30:-0.126228 31:-0.093276 32:-0.093026 33:-0.131506 34:-0.127722 35:-0.129227 36:-0.142905 37:-0.121550 38:-0.142444 39:-0.137085 40:-0.132344 41:-0.190481 42:-0.117233 43:-0.109354 44:-0.156022 45:-0.206521 46:-0.197741 47:-0.142194 48:-0.195407 49:-0.195003 50:-0.162004 51:-0.187598 52:-0.191019 53:-0.185196 54:-0.200558 55:-0.228303 56:-0.200902 57:-0.217673 58:-0.227396 59:-0.208756 60:-0.214390
1 1:0.008387 2:-0.003253 3:0.005313 4:0.005422 5:-0.033569 6:0.000253 7:0.026553 8:-0.048368 9:-0.061113 10:-0.029999 11:-0.039948 12:-0.024825 13:-0.061495 14:-0.052980 15:-0.049067 16:-0.054282 17:-0.050472 18:-0.111309 19:-0.091406 20:-0.090011 21:-0.063189 22:-0.075632 23:-0.097849 24:-0.085177 25:-0.066052 26:-0.093287 27:-0.089372 28:-0.085608 29:-0.080672 30:-0.090070 31:-0.107668 32:-0.146020 33:-0.134849 34:-0.102618 35:-0.127459 36:-0.152048 37:-0.160494 38:-0.095706 39:-0.157828 40:-0.184834 41:-0.170165 42:-0.155628 43:-0.178453 44:-0.184460 45:-0.175978 46:-0.187011 47:-0.176974 48:-0.171624 49:-0.131523 50:-0.205162 51:-0.198133 52:-0.168334 53:-0.184335 54:-0.222075 55:-0.202958 56:-0.218830 57:-0.123342 58:-0.191227 59:-0.203671 60:-0.206383
1 1:-0.003468 2:-0.033174 3:-0.036523 4:-0.016568 5:0.014222 6:-0.019621 7:-0.023998 8:-0.006518 9:0.022654 10:-0.046275 11:-0.038388 12:-0.050357 13:-0.062193 14:-0.051055 15:-0.061874 16:-0.021570 17:-0.116291 18:-0.056007 19:-0.080894 20:-0.084108 21:-0.075884 22:-0.076298 23:-0.105584 24:-0.078901 25:-0.106688 26:-0.152089 27:-0.108856 28:-0.047086 29:-0.068897 30:-0.111959 31:-0.074540 32:-0.071740 33:-0.101432 34:-0.134021 35:-0.158599 36:-0.138310 37:-0.122322 38:-0.154330 39:-0.156412 40:-0.150800 41:-0.144769 42:-0.169304 43:-0.143289 44:-0.136721 45:-0.217167 46:-0.177974 47:-0.148439 48:-0.169665 49:-0.167288 50:-0.179085 51:-0.220692 52:-0.165586 53:-0.188680 54:-0.163758 55:-0.204366 56:-0.205670 57:-0.213302 58:-0.225807 59:-0.207830 60:-0.208517
1 1:0.004664 2:-0.038040 3:-0.027825 4:-0.017252 5:-0.012547 6:-0.015029 7:-0.016506 8:-0.020255 9:-0.071421 10:-0.021624 11:-0.065094 12:-0.055539 13:-0.043966 14:-0.071856 15:-0.037320 16:-0.082196 17:-0.052518 18:-0.064162 19:-0.064418 20:-0.090987 21:-0.084370 22:-0.104954 23:-0.057003 24:-0.065073 25:-0.060852 26:-0.139136 27:-0.108111 28:-0.096709 29:-0.098575 30:-0.107696 31:-0.117112 32:-0.101522 33:-0.105681 34:-0.130908 35:-0.125176 36:-0.148279 37:-0.134648 38:-0.172070 39:-0.179587 40:-0.167023 41:-0.117687 42:-0.149966 43:-0.187838 44:-0.152773 45:-0.144522 46:-0.165328 47:-0.142888 48:-0.163299 49:-0.187305 50:-0.186563 51:-0.198777 52:-0.198953 53:-0.197786 54:-0.180576 55:-0.218680 56:-0.167682 57:-0.234169 58:-0.219437 59:-0.169825 60:-0.203242
1 1:0.002694 2:-0.017212 3:-0.010003 4:-0.024866 5:-0.000466 6:-0.022250 7:-0.007438 8:-0.046167 9:-0.064057 10:-0.045856 11:-0.065344 12:-0.083629 13:-0.041744 14:-0.072077 15:-0.052944 16:-0.054194 17:-0.049665 18:-0.078756 19:-0.081627 20:-0.032882 21:-0.039817 22:-0.092466 23:-0.090002 24:-0.107901 25:-0.082736 26:-0.096096 27:-0.076857 28:-0.111391 29:-0.126182 30:-0.064511 31:-0.127262 32:-0.119002 33:-0.094471 34:-0.124156 35:-0.100993 36:-0.088295 37:-0.146674 38:-0.134465 39:-0.142712 40:-0.129217 41:-0.144206 42:-0.143680 43:-0.133175 44:-0.188800 45:-0.183762 46:-0.149290 47:-0.157605 48:-0.182852 49:-0.171155 50:-0.195392 51:-0.196195 52:-0.192737 53:-0.208877 54:-0.230914 55:-0.183207 56:-0.219987 57:-0.196134 58:-0.222379 59:-0.208101 60:-0.231580
1 1:-0.021272 2:0.040968 3:0.003952 4:0.016083 5:-0.002392 6:-0.023577 7:-0.020042 8:-0.029774 9:-0.051589 10:-0.021823 11:-0.052956 12:-0.031554 13:-0.064630 14:-0.043394 15:-0.070897 16:-0.049430 17:-0.065961 18:-0.110518 19:-0.079729 20:-0.046286 21:-0.103276 22:-0.050682 23:-0.085931 24:-0.090744 25:-0.098448 26:-0.118991 27:-0.095264 28:-0.147100 29:-0.109316 30:-0.110670 31:-0.124552 32:-0.083610 33:-0.124820 34:-0.132188 35:-0.114961 36:-0.129762 37:-0.150534 38:-0.127859 39:-0.141089 40:-0.125774 41:-0.173805 42:-0.149235 43:-0.154692 44:-0.154070 45:-0.168720 46:-0.174793 47:-0.177493 48:-0.174720 49:-0.165928 50:-0.200188 51:-0.177853 52:-0.174748 53:-0.176251 54:-0.201787 55:-0.182522 56:-0.213386 57:-0.204303 58:-0.211690 59:-0.238503 60:-0.192910
1 1:0.026891 2:-0.018117 3:0.007685 4:-0.011635 5:-0.015560 6:-0.048269 7:0.010029 8:-0.002036 9:-0.011167 10:-0.032640 11:-0.023948 12:0.017482 13:-0.070267 14:-0.030115 15:-0.078609 16:-0.053335 17:-0.042879 18:-0.067369 19:-0.061641 20:-0.076637 21:-0.095867 22:-0.085150 23:-0.088309 24:-0.090119 25:-0.096633 26:-0.063069 27:-0.118572 28:-0.093987 29:-0.110919 30:-0.069815 31:-0.135807 32:-0.111599 33:-0.139992 34:-0.084984 35:-0.125256 36:-0.108738 37:-0.131215 38:-0.112225 39:-0.179521 40:-0.122612 41:-0.157110 42:-0.145513 43:-0.163820 44:-0.104051 45:-0.222908 46:-0.164371 47:-0.153317 48:-0.172695 49:-0.184718 50:-0.194100 51:-0.180074 52:-0.241539 53:-0.226494 54:-0.211942 55:-0.188392 56:-0.203160 57:-0.234861 58:-0.193672 59:-0.179907 60:-0.202236
1 1:-0.024711 2:0.031886 3:-0.022593 4:0.002647 5:-0.000917 6:-0.005623 7:-0.014091 8:-0.052872 9:-0.031034 10:-0.048280 11:-0.066257 12:-0.078515 13:-0.055342 14:-0.037676 15:-0.082782 16:-0.047695 17:-0.037235 18:-0.044709 19:-0.050818 20:-0.071790 21:-0.102007 22:-0.086353 23:-0.065930 24:-0.090302 25:-0.061707 26:-0.094588 27:-0.101255 28:-0.093419 29:-0.098818 30:-0.087148 31:-0.121321 32:-0.109572 33:-0.132814 34:-0.126167 35:-0.099921 36:-0.115306 37:-0.125427 38:-0.124250 39:-0.156140 40:-0.134827 41:-0.145471 42:-0.190942 43:-0.144310 44:-0.170673 45:-0.139032 46:-0.207760 47:-0.165971 48:-0.195560 49:-0.198516 50:-0.186175 51:-0.198595 52:-0.182759 53:-0.224088 54:-0.196407 55:-0.189372 56:-0.209304 57:-0.183567 58:-0.190709 59:-0.240281 60:-0.201164
1 1:0.016758 2:-0.000343 3:-0.038085 4:-0.017156 5:0.001779 6:-0.011895 7:-0.034514 8:-0.018473 9:-0.031154 10:-0.060627 11:-0.024454 12:-0.063321 13:-0.050070 14:-0.059774 15:-0.052503 16:-0.038133 17:-0.028157 18:-0.041701 19:-0.112576 20:-0.050783 21:-0.066900 22:-0.047144 23:-0.064154 24:-0.080544 25:-0.087030 26:-0.080005 27:-0.086238 28:-0.094627 29:-0.118923 30:-0.097722 31:-0.149285 32:-0.131777 33:-0.126712 34:-0.131294 35:-0.116698 36:-0.128132 37:-0.104796 38:-0.154671 39:-0.146316 40:-0.129612 41:-0.134417 42:-0.155768 43:-0.156432 44:-0.156570 45:-0.130838 46:-0.147649 47:-0.157594 48:-0.168165 49:-0.224488 50:-0.178800 51:-0.196371 52:-0.161722 53:-0.211468 54:-0.216315 55:-0.201505 56:-0.233012 57:-0.196891 58:-0.228012 59:-0.214243 60:-0.240871
1 1:-0.008587 2:0.012084 3:0.005679 4:-0.057755 5:-0.058764 6:0.002646 7:-0.062389 8:-0.031428 9:-0.040743 10:-0.050921 11:-0.080750 12:-0.033380 13:-0.041984 14:-0.019729 15:-0.078235 16:-0.049690 17:-0.076931 18:-0.060844 19:-0.094793 20:-0.062393 21:-0.097856 22:-0.101189 23:-0.042968 24:-0.082917 25:-0.083782 26:-0.082856 27:-0.128657 28:-0.088965 29:-0.074569 30:-0.102288 31:-0.089240 32:-0.106390 33:-0.136492 34:-0.124714 35:-0.142014 36:-0.096942 37:-0.136601 38:-0.119834 39:-0.158991 40:-0.168431 41:-0.163709 42:-0.107560 43:-0.162056 44:-0.159703 45:-0.174517 46:-0.130333 47:-0.150235 48:-0.185052 49:-0.176987 50:-0.172113 51:-0.199800 52:-0.196474 53:-0.207682 54:-0.204270 55:-0.172240 56:-0.206042 57:-0.213515 58:-0.240866 59:-0.218954 60:-0.218962
1 1:0.027043 2:-0.028890 3:-0.005467 4:-0.002004 5:-0.025684 6:-0.032595 7:-0.036498 8:-0.036537 9:-0.034699 10:0.013589 11:-0.039700 12:-0.042589 13:-0.027591 14:-0.039555 15:-0.037437 16:-0.017732 17:-0.045581 18:-0.055982 19:-0.082989 20:-0.076899 21:-0.069495 22:-0.062270 23:-0.081047 24:-0.131654 25:-0.092827 26:-0.125563 27:-0.107324 28:-0.164104 29:-0.138123 30:-0.132047 31:-0.086358 32:-0.137381 33:-0.121484 34:-0.152115 35:-0.145076 36:-0.091665 37:-0.166051 38:-0.133839 39:-0.097903 40:-0.122984 41:-0.146282 42:-0.142538 43:-0.147327 44:-0.132540 45:-0.149213 46:-0.159019 47:-0.168431 48:-0.167950 49:-0.194296 50:-0.166463 51:-0.204963 52:-0.169451 53:-0.190413 54:-0.225441 55:-0.220167 56:-0.199950 57:-0.193877 58:-0.210196 59:-0.210613 60:-0.219971
1 1:0.020676 2:-0.007319 3:-0.045447 4:-0.008939 5:-0.032246 6:-0.013934 7:-0.057031 8:-0.007937 9:-0.064228 10:-0.037765 11:-0.024212 12:-0.053590 13:-0.063032 14:-0.045167 15:-0.035950 16:-0.039940 17:-0.051460 18:-0.067774 19:-0.047412 20:-0.085002 21:-0.067265 22:-0.055263 23:-0.113395 24:-0.044466 25:-0.119041 26:-0.115037 27:-0.115705 28:-0.106807 29:-0.124392 30:-0.130253 31:-0.117007 32:-0.129827 33:-0.100035 34:-0.150907 35:-0.116171 36:-0.128254 37:-0.089967 38:-0.155410 39:-0.115101 40:-0.125449 41:-0.169321 42:-0.150307 43:-0.148323 44:-0.176828 45:-0.126507 46:-0.139130 47:-0.113220 48:-0.183994 49:-0.188386 50:-0.178654 51:-0.221567 52:-0.212142 53:-0.185112 54:-0.181607 55:-0.184407 56:-0.222243 57:-0.209884 58:-0.235380 59:-0.226207 60:-0.217504
1 1:0.022379 2:0.007250 3:-0.013057 4:0.030730 5:-0.015608 6:0.020803 7:-0.038061 8:0.001465 9:-0.068540 10:-0.051976 11:-0.045128 12:-0.048343 13:-0.083343 14:-0.052792 15:0.003022 16:-0.084893 17:-0.069151 18:-0.037370 19:-0.054105 20:-0.111472 21:-0.056966 22:-0.123566 23:-0.098071 24:-0.101510 25:-0.075893 26:-0.049982 27:-0.103544 28:-0.092294 29:-0.086163 30:-0.113263 31:-0.085843 32:-0.129812 33:-0.145503 34:-0.130106 35:-0.166185 36:-0.146786 37:-0.142705 38:-0.127949 39:-0.151682 40:-0.121051 41:-0.174923 42:-0.154964 43:-0.138844 44:-0.109746 45:-0.179018 46:-0.187819 47:-0.145976 48:-0.192846 49:-0.158540 50:-0.169661 51:-0.216726 52:-0.163528 53:-0.163124 54:-0.193530 55:-0.204263 56:-0.226940 57:-0.173998 58:-0.245012 59:-0.187784 60:-0.227248
1 1:-0.014211 2:0.013984 3:-0.024321 4:0.030622 5:0.019792 6:-0.026304 7:0.011124 8:-0.039162 9:-0.056225 10:-0.050571 11:-0.060691 12:-0.047258 13:-0.016993 14:-0.065438 15:-0.038379 16:-0.032907 17:-0.065543 18:-0.063657 19:-0.045138 20:-0.051919 21:-0.093426 22:-0.065333 23:-0.109094 24:-0.077568 25:-0.055805 26:-0.121259 27:-0.119623 28:-0.116746 29:-0.114812 30:-0.142518 31:-0.125402 32:-0.097081 33:-0.155653 34:-0.152386 35:-0.130443 36:-0.128121 37:-0.129939 38:-0.159732 39:-0.132239 40:-0.144358 41:-0.135856 42:-0.144213 43:-0.166887 44:-0.151136 45:-0.140770 46:-0.154813 47:-0.171291 48:-0.180743 49:-0.175274 50:-0.148571 51:-0.183514 52:-0.169676 53:-0.201038 54:-0.241528 55:-0.184096 56:-0.223528 57:-0.186190 58:-0.217271 59:-0.224411 60:-0.201804
1 1:-0.003057 2:-0.006020 3:0.002889 4:-0.008492 5:-0.016626 6:-0.041211 7:-0.027514 8:-0.023041 9:-0.036458 10:-0.006609 11:-0.043108 12:-0.045951 13:-0.030562 14:-0.030676 15:-0.011843 16:-0.066099 17:-0.056815 18:-0.073689 19:-0.048824 20:-0.089269 21:-0.057756 22:-0.068682 23:-0.090565 24:-0.098517 25:-0.080024 26:-0.067962 27:-0.109365 28:-0.117606 29:-0.079484 30:-0.095593 31:-0.125332 32:-0.162270 33:-0.149746 34:-0.127816 35:-0.097084 36:-0.128489 37:-0.152392 38:-0.160158 39:-0.163543 40:-0.163261 41:-0.143864 42:-0.159746 43:-0.170249 44:-0.156892 45:-0.133902 46:-0.152647 47:-0.171138 48:-0.174805 49:-0.149581 50:-0.181708 51:-0.192253 52:-0.189867 53:-0.160296 54:-0.218553 55:-0.190552 56:-0.232317 57:-0.181222 58:-0.236828 59:-0.230137 60:-0.209059
1 1:-0.020379 2:0.001953 3:-0.039504 4:0.019762 5:-0.006759 6:-0.007970 7:-0.042479 8:0.001923 9:-0.070555 10:-0.063469 11:-0.014176 12:-0.027477 13:-0.073353 14:-0.021414 15:-0.035149 16:-0.057650 17:-0.052580 18:-0.072898 19:-0.046133 20:-0.085926 21:-0.078810 22:-0.078503 23:-0.108215 24:-0.069504 25:-0.065859 26:-0.091832 27:-0.071809 28:-0.088450 29:-0.099176 30:-0.115387 31:-0.121531 32:-0.116399 33:-0.167395 34:-0.143998 35:-0.124947 36:-0.155876 37:-0.114205 38:-0.132872 39:-0.137450 40:-0.149144 41:-0.163087 42:-0.145938 43:-0.204376 44:-0.156676 45:-0.167851 46:-0.167376 47:-0.146936 48:-0.192567 49:-0.160510 50:-0.148019 51:-0.207743 52:-0.162733 53:-0.192722 54:-0.209525 55:-0.186408 56:-0.218290 57:-0.207204 58:-0.206036 59:-0.212078 60:-0.225700
1 1:-0.009734 2:0.019669 3:-0.018810 4:-0.002212 5:0.013274 6:-0.002081 7:-0.020170 8:-0.029503 9:-0.019706 10:-0.023142 11:0.000889 12:-0.020338 13:-0.054893 14:-0.038448 15:-0.076546 16:-0.054772 17:-0.041085 18:-0.068237 19:-0.097345 20:-0.080032 21:-0.078234 22:-0.088245 23:-0.075313 24:-0.060896 25:-0.088692 26:-0.138549 27:-0.117073 28:-0.143911 29:-0.128337 30:-0.089033 31:-0.119821 32:-0.107800 33:-0.123785 34:-0.111862 35:-0.103737 36:-0.130212 37:-0.141731 38:-0.122587 39:-0.174966 40:-0.140689 41:-0.174754 42:-0.162813 43:-0.169793 44:-0.135568 45:-0.133826 46:-0.139704 47:-0.194095 48:-0.156404 49:-0.156188 50:-0.197769 51:-0.179665 52:-0.201802 53:-0.173218 54:-0.202067 55:-0.182401 56:-0.214150 57:-0.190214 58:-0.235920 59:-0.202849 60:-0.247569
1 1:-0.032839 2:-0.004468 3:0.001466 4:-0.007958 5:-0.008630 6:-0.066307 7:-0.054127 8:-0.032628 9:-0.019302 10:-0.035006 11:-0.035146 12:-0.074662 13:-0.043728 14:-0.032837 15:-0.046790 16:-0.057229 17:-0.063908 18:-0.046640 19:-0.042022 20:-0.105157 21:-0.054080 22:-0.068497 23:-0.107640 24:-0.080855 25:-0.089335 26:-0.098797 27:-0.075902 28:-0.030005 29:-0.070334 30:-0.097652 31:-0.070635 32:-0.118040 33:-0.120526 34:-0.140963 35:-0.180303 36:-0.151264 37:-0.144510 38:-0.121395 39:-0.114479 40:-0.152463 41:-0.167693 42:-0.151765 43:-0.177916 44:-0.104798 45:-0.172184 46:-0.188776 47:-0.159788 48:-0.179530 49:-0.173948 50:-0.199944 51:-0.168051 52:-0.195602 53:-0.204293 54:-0.225848 55:-0.204828 56:-0.179761 57:-0.190189 58:-0.193934 59:-0.221603 60:-0.256208
1 1:-0.004508 2:-0.037999 3:-0.003879 4:0.013349 5:-0.012120 6:-0.033967 7:-0.052625 8:-0.001794 9:0.002819 10:-0.043374 11:-0.039622 12:-0.031064 13:-0.025258 14:-0.039651 15:-0.064023 16:-0.064595 17:-0.080894 18:-0.071990 19:-0.088189 20:-0.088608 21:-0.091264 22:-0.102312 23:-0.103931 24:-0.050287 25:-0.115839 26:-0.104662 27:-0.065226 28:-0.092624 29:-0.126618 30:-0.083055 31:-0.090273 32:-0.088633 33:-0.117732 34:-0.171211 35:-0.133891 36:-0.179937 37:-0.134975 38:-0.146079 39:-0.162860 40:-0.136137 41:-0.150249 42:-0.171064 43:-0.128847 44:-0.181841 45:-0.162855 46:-0.168817 47:-0.176038 48:-0.148256 49:-0.157238 50:-0.151975 51:-0.183730 52:-0.195620 53:-0.202097 54:-0.164931 55:-0.204587 56:-0.217759 57:-0.192478 58:-0.232447 59:-0.216998 60:-0.202039
1 1:-0.025607 2:-0.027172 3:-0.017432 4:-0.007735 5:-0.025704 6:-0.045702 7:-0.044300 8:-0.070098 9:-0.050450 10:-0.018769 11:-0.014596 12:-0.017874 13:-0.049157 14:-0.061635 15:-0.036544 16:-0.063633 17:-0.068458 18:-0.072329 19:-0.091996 20:-0.100213 21:-0.105914 22:-0.096131 23:-0.116127 24:-0.084382 25:-0.149560 26:-0.097918 27:-0.075971 28:-0.102034 29:-0.132217 30:-0.109880 31:-0.102745 32:-0.075013 33:-0.125908 34:-0.121647 35:-0.120702 36:-0.143902 37:-0.107023 38:-0.088371 39:-0.154894 40:-0.154775 41:-0.167747 42:-0.162908 43:-0.174310 44:-0.152462 45:-0.146311 46:-0.140240 47:-0.180567 48:-0.176954 49:-0.163424 50:-0.162171 51:-0.191710 52:-0.176016 53:-0.210383 54:-0.176864 55:-0.159313 56:-0.202577 57:-0.241937 58:-0.191162 59:-0.187295 60:-0.266323
1 1:0.024878 2:0.006390 3:-0.001272 4:-0.033294 5:-0.006686 6:-0.064045 7:-0.038066 8:-0.014638 9:-0.026570 10:-0.007399 11:-0.040063 12:-0.061239 13:-0.031019 14:-0.030209 15:-0.103604 16:-0.056708 17:-0.069971 18:-0.069975 19:-0.100439 20:-0.071670 21:-0.042725 22:-0.114190 23:-0.034188 24:-0.099912 25:-0.141746 26:-0.089814 27:-0.110494 28:-0.074465 29:-0.149406 30:-0.125973 31:-0.105106 32:-0.117987 33:-0.092620 34:-0.114993 35:-0.155335 36:-0.113988 37:-0.113959 38:-0.120631 39:-0.152555 40:-0.160191 41:-0.149509 42:-0.131595 43:-0.169344 44:-0.160624 45:-0.165169 46:-0.179202 47:-0.157052 48:-0.175157 49:-0.136986 50:-0.180141 51:-0.174984 52:-0.243185 53:-0.172797 54:-0.168032 55:-0.200944 56:-0.160861 57:-0.244704 58:-0.185526 59:-0.247241 60:-0.212933
1 1:0.007370 2:-0.009749 3:0.001803 4:-0.013383 5:-0.019679 6:-0.047344 7:-0.030671 8:-0.077188 9:-0.012133 10:0.002080 11:-0.024881 12:-0.042473 13:-0.049624 14:-0.045341 15:-0.050037 16:-0.093877 17:-0.088641 18:-0.078808 19:-0.077529 20:-0.092093 21:-0.086666 22:-0.108972 23:-0.077751 24:-0.131496 25:-0.055173 26:-0.116370 27:-0.088700 28:-0.099452 29:-0.063361 30:-0.115363 31:-0.074468 32:-0.167566 33:-0.123227 34:-0.119761 35:-0.140150 36:-0.121609 37:-0.132681 38:-0.166591 39:-0.120352 40:-0.145307 41:-0.166285 42:-0.186034 43:-0.162381 44:-0.150277 45:-0.186607 46:-0.158588 47:-0.171497 48:-0.168313 49:-0.141908 50:-0.183259 51:-0.148095 52:-0.181778 53:-0.215143 54:-0.160135 55:-0.166603 56:-0.211907 57:-0.182030 58:-0.245294 59:-0.209894 60:-0.225107
