-1 1:0.509693 2:0.887525 3:-0.893979 4:1.291101 5:-1.074209 6:0.013611 7:1.919314 8:1.135901 9:0.689080 10:-1.526779 11:-0.394916 12:-0.949509 13:-0.253397 14:-0.594523 15:0.771582 16:1.388968 17:1.048714 18:-1.464143 19:1.723970 20:-0.172849 21:0.952199 22:-0.854470 23:-0.173371 24:-0.151596 25:0.496233 26:0.232996 27:-1.325133 28:-1.079552 29:1.297503 30:0.688996 31:0.182621 32:-1.190571 33:0.773726 34:0.962366 35:0.666337 36:0.191192 37:-0.738583 38:1.944813 39:1.628381 40:-0.307908 41:-0.779262 42:-0.742154 43:0.502591 44:0.725320 45:-2.085211 46:-0.123860 47:-0.614464 48:0.677084 49:-1.386604 50:0.911429 51:-0.156122 52:0.739047 53:0.818853 54:-1.180775 55:-1.202579 56:-0.663390 57:0.998170 58:-0.753451 59:-1.388475 60:0.213353 61:0.455689 62:-3.118836 63:-0.037653 64:0.182645 65:1.943430 66:0.344569 67:-0.135443 68:0.033937 69:0.809148 70:1.329452
-1 1:-0.910156 2:-0.300884 3:0.784570 4:0.044883 5:-0.197520 6:-1.487436 7:-0.583936 8:2.193523 9:1.028587 10:-1.424177 11:0.287418 12:-0.561515 13:1.750719 14:1.160122 15:0.856789 16:-0.890849 17:-1.538492 18:-0.077835 19:0.169404 20:-0.322194 21:0.099912 22:0.649807 23:2.182868 24:-1.488179 25:-0.125431 26:-1.374792 27:-0.658366 28:1.078161 29:1.721017 30:0.722999 31:-0.070601 32:1.884582 33:-0.490264 34:1.110065 35:1.020676 36:0.923164 37:0.932102 38:1.036334 39:-0.172526 40:-1.994334 41:-0.587559 42:-0.947210 43:-0.350448 44:0.409002 45:-1.457392 46:0.000457 47:1.704566 48:1.283823 49:-0.970140 50:-1.781014 51:-1.435049 52:0.403054 53:0.292711 54:0.980693 55:-1.201851 56:-1.032764 57:-0.069379 58:-0.252918 59:-0.832695 60:0.295035 61:0.205212 62:-0.640259 63:-0.938646 64:-1.701829 65:-0.361708 66:-0.836610 67:0.771645 68:-0.418891 69:-1.196774 70:-1.258346
-1 1:-0.329720 2:-0.344017 3:0.110165 4:-1.977483 5:-0.623863 6:0.245065 7:-1.131463 8:0.005326 9:-0.326357 10:0.190864 11:-0.515448 12:-0.066660 13:-0.698821 14:0.159125 15:0.500301 16:0.268279 17:-0.767682 18:-0.715096 19:-1.642890 20:-0.790691 21:0.946098 22:0.644269 23:-0.508694 24:0.720331 25:-0.406701 26:-0.910438 27:-0.126340 28:1.073508 29:-0.772907 30:-0.333389 31:1.956900 32:1.636725 33:1.443853 34:0.242877 35:-0.193818 36:1.332516 37:-1.681030 38:2.006364 39:-0.045554 40:-0.319718 41:-0.251847 42:0.708601 43:-0.934309 44:0.315044 45:-1.384655 46:0.338214 47:-0.425569 48:1.361601 49:-1.452510 50:1.651622 51:0.182827 52:2.645428 53:0.782051 54:-1.050768 55:-0.290899 56:-0.294890 57:0.967282 58:0.329747 59:-0.001992 60:1.632447 61:-1.420838 62:0.485560 63:-2.022385 64:1.056578 65:-0.476562 66:0.773964 67:0.109295 68:0.583296 69:-1.915533 70:1.832668
-1 1:-0.595318 2:0.829105 3:-0.437460 4:-0.461002 5:-0.232369 6:-0.748320 7:0.589077 8:-1.461955 9:0.470565 10:0.138897 11:-0.298966 12:-0.973787 13:1.137813 14:0.247283 15:1.534174 16:-2.323547 17:0.257900 18:-1.027984 19:1.938475 20:-0.054542 21:0.058537 22:1.667457 23:0.182021 24:0.662989 25:-0.306647 26:0.579804 27:-0.042704 28:-0.558653 29:0.410990 30:-1.977489 31:-1.174076 32:-0.069676 33:0.048709 34:-0.308195 35:-0.418530 36:-1.504502 37:-0.714534 38:2.005716 39:0.669875 40:0.395602 41:-0.941922 42:0.664718 43:1.489184 44:-0.146443 45:0.679128 46:0.373169 47:-2.004458 48:1.000653 49:-0.128698 50:0.554420 51:0.123986 52:-0.820347 53:-1.686730 54:-1.038231 55:-0.133853 56:-0.143637 57:1.054723 58:-1.665700 59:0.636771 60:-0.223455 61:-0.421932 62:-0.628550 63:-1.416219 64:0.591217 65:-1.324727 66:1.793535 67:-1.314651 68:-0.107530 69:-0.209244 70:-0.486475
-1 1:0.199746 2:-2.621769 3:-0.623053 4:1.479504 5:0.698310 6:1.202506 7:0.656086 8:-1.427711 9:0.617163 10:0.139662 11:-0.242782 12:-0.412894 13:-0.903755 14:-0.044043 15:0.474367 16:1.751851 17:-0.438183 18:-0.903581 19:-0.339572 20:1.447348 21:-0.000078 22:-0.507126 23:1.221740 24:-1.525621 25:-1.015129 26:0.631674 27:1.102710 28:-1.447898 29:0.598290 30:-1.137586 31:0.638449 32:-0.349143 33:0.843180 34:1.626658 35:0.001374 36:-0.497474 37:2.010164 38:0.315204 39:-0.095956 40:-0.559833 41:-0.801084 42:0.634788 43:-0.506917 44:0.416348 45:-0.876277 46:-0.147749 47:0.903058 48:1.089121 49:0.312649 50:0.086441 51:0.609796 52:1.456995 53:0.870841 54:2.053847 55:1.537843 56:-0.349473 57:2.586894 58:-0.529010 59:0.591317 60:-2.210439 61:0.839633 62:0.797252 63:1.956031 64:0.643319 65:0.075552 66:-0.935490 67:-1.262315 68:-0.930196 69:1.352557 70:0.095349
-1 1:-0.774437 2:1.950822 3:0.562834 4:-1.195805 5:0.025873 6:-0.373317 7:-1.428640 8:-1.009096 9:1.623092 10:-0.773449 11:-0.708474 12:-1.074219 13:0.121649 14:-0.733408 15:0.761545 16:0.325226 17:-1.639248 18:-0.972015 19:-1.382617 20:0.079108 21:-0.611785 22:1.023600 23:1.078540 24:-0.752258 25:-0.325161 26:-0.456359 27:1.848407 28:1.217845 29:0.059077 30:-0.421174 31:-0.643436 32:0.919639 33:1.329053 34:-0.385033 35:0.263200 36:0.074627 37:0.624975 38:1.093280 39:2.323441 40:-0.360535 41:-0.897331 42:-2.781973 43:-0.022785 44:-1.190678 45:-0.327414 46:1.898295 47:-0.889175 48:-0.782869 49:-1.563216 50:2.524756 51:-0.992455 52:0.658883 53:1.019188 54:-2.382059 55:-0.498841 56:-2.609715 57:-0.880094 58:-0.100599 59:-1.280897 60:0.974911 61:0.978129 62:-0.634848 63:1.132157 64:1.624644 65:2.178370 66:-1.292275 67:0.091106 68:-0.535435 69:-0.010471 70:0.893234
-1 1:-0.679534 2:-0.471192 3:1.555355 4:0.563816 5:1.202610 6:0.934926 7:0.558822 8:1.360596 9:-1.020134 10:-0.552537 11:-0.007138 12:0.870151 13:-1.348936 14:-0.287236 15:-1.823410 16:-0.607574 17:-0.854678 18:-0.802900 19:-0.900186 20:0.763661 21:-0.707503 22:0.516481 23:-0.505275 24:0.405644 25:-0.697253 26:-1.247493 27:-0.074693 28:0.728039 29:2.030914 30:-0.831400 31:-1.126531 32:-0.997806 33:0.398178 34:-0.593115 35:-0.520473 36:-0.459995 37:-1.201621 38:0.322133 39:-0.292923 40:1.979959 41:-0.659677 42:-2.230977 43:1.446102 44:1.684832 45:0.686269 46:-0.525430 47:-0.551185 48:-0.737280 49:-1.732568 50:-1.426829 51:-2.001449 52:0.941153 53:1.448877 54:-0.571930 55:-0.602277 56:0.789831 57:-1.542719 58:0.362627 59:-0.948853 60:-0.818993 61:-1.261396 62:0.740725 63:1.096907 64:0.616854 65:2.326895 66:-2.379509 67:-0.072043 68:0.719684 69:0.760728 70:-1.498800
-1 1:1.757656 2:0.978204 3:-0.552894 4:-0.407966 5:0.767529 6:-1.584744 7:0.508622 8:0.116387 9:-0.683250 10:-0.367023 11:0.019124 12:-0.063506 13:-1.460116 14:2.158002 15:-0.147331 16:0.058308 17:-0.059822 18:0.517784 19:-2.460634 20:1.193222 21:-0.800448 22:2.352631 23:0.978879 24:-0.575374 25:-1.835315 26:0.797944 27:-0.013568 28:0.829597 29:1.110314 30:0.195528 31:0.445221 32:0.600242 33:0.336691 34:1.092835 35:-0.553622 36:-0.188633 37:0.367192 38:0.452777 39:-0.675622 40:1.483071 41:-0.447980 42:-1.748345 43:-2.847491 44:-0.313164 45:0.195868 46:1.091481 47:1.173077 48:-0.519881 49:0.105646 50:-0.586616 51:1.575090 52:-2.206840 53:3.167555 54:-0.568303 55:-1.185316 56:0.442383 57:-0.125344 58:0.615578 59:0.433929 60:-0.693485 61:-0.915931 62:-0.189157 63:-0.031349 64:0.550970 65:0.042090 66:-1.302239 67:-2.110252 68:-0.329290 69:0.010173 70:0.403129
-1 1:-0.856160 2:-1.564700 3:-1.555336 4:-1.188590 5:-1.361444 6:-0.841568 7:-0.574583 8:0.020839 9:0.690602 10:-1.034863 11:0.108030 12:-0.754009 13:1.534377 14:-2.283651 15:-0.310441 16:2.068307 17:-2.085064 18:-0.502973 19:0.890074 20:-0.780869 21:-0.135226 22:1.192378 23:-0.441323 24:-0.153702 25:-0.204897 26:-0.559286 27:-0.239162 28:-1.719968 29:1.421400 30:0.506949 31:0.470245 32:0.262514 33:0.606299 34:-0.221996 35:0.696057 36:0.069089 37:0.888644 38:0.904222 39:0.986788 40:0.040659 41:-0.220069 42:0.896538 43:-1.857829 44:-0.418671 45:2.516537 46:0.059925 47:-1.095903 48:-3.033508 49:0.944928 50:0.553074 51:-1.068015 52:-0.441748 53:0.038740 54:-0.619304 55:0.828513 56:-1.775243 57:-0.523354 58:-1.079261 59:-0.884559 60:-1.221880 61:0.138432 62:0.144262 63:-1.063817 64:-0.632852 65:-1.171409 66:0.948296 67:0.232629 68:-0.318832 69:1.139193 70:-0.588648
-1 1:1.691248 2:0.615984 3:1.715313 4:1.119327 5:-0.296595 6:-0.684432 7:-0.740053 8:-1.419811 9:0.392720 10:0.509408 11:0.053315 12:-0.218200 13:0.459885 14:-1.714954 15:-0.291574 16:-0.250121 17:0.186585 18:0.059147 19:0.116804 20:-0.632485 21:-0.233053 22:1.226843 23:3.591117 24:1.386419 25:0.549989 26:0.254787 27:-0.895837 28:0.991954 29:-1.304206 30:-1.607024 31:0.711604 32:0.560540 33:1.012829 34:0.322911 35:1.410725 36:-0.685313 37:0.047589 38:0.148295 39:0.044290 40:1.939240 41:-0.039302 42:0.212405 43:-0.268826 44:0.469204 45:1.510432 46:0.133292 47:-2.079971 48:0.397971 49:-1.431782 50:0.774978 51:1.769534 52:-0.127214 53:-0.152976 54:0.920028 55:0.469208 56:-1.157484 57:-0.215586 58:-1.646423 59:-0.291285 60:0.802202 61:1.580423 62:0.311428 63:-0.485530 64:0.120568 65:-0.529831 66:0.725880 67:0.784658 68:-2.491381 69:0.406765 70:1.111946
-1 1:-0.376686 2:-0.638203 3:0.010627 4:0.155937 5:0.467468 6:-2.022697 7:-1.376974 8:-0.790831 9:-0.075123 10:-0.053383 11:-0.354433 12:-0.715532 13:-0.495004 14:0.642455 15:0.696643 16:1.081559 17:1.178007 18:0.748344 19:-0.760784 20:-1.054717 21:-1.442060 22:0.882011 23:-0.903022 24:1.926733 25:-1.088466 26:-1.139375 27:-0.877632 28:0.114989 29:-0.175813 30:1.146259 31:1.584879 32:-0.128861 33:1.664985 34:-0.504811 35:0.497314 36:-0.585101 37:-2.772026 38:1.930270 39:1.506384 40:2.224354 41:1.465386 42:-1.019020 43:-1.341440 44:0.081943 45:-0.980187 46:1.695268 47:-0.056102 48:-1.026051 49:0.001042 50:0.404971 51:0.159795 52:-0.850959 53:-2.175944 54:-0.994186 55:1.040763 56:0.066331 57:-1.622560 58:-0.362655 59:0.733922 60:-0.418498 61:1.216053 62:-0.735476 63:-1.311827 64:1.127275 65:2.114892 66:-1.319551 67:0.252746 68:2.589164 69:-0.381850 70:-0.464294
-1 1:0.731867 2:0.169897 3:0.460542 4:-1.009067 5:1.490696 6:-0.528909 7:-0.502779 8:1.018887 9:-2.239095 10:0.344769 11:-0.656191 12:0.080076 13:-0.696102 14:0.477311 15:0.588650 16:-0.971083 17:0.923243 18:0.236098 19:1.456852 20:-0.536005 21:0.523114 22:-2.357264 23:1.888753 24:-0.590201 25:-1.535132 26:-0.762629 27:1.522377 28:-0.762385 29:-0.911137 30:-0.908300 31:0.411537 32:-0.429057 33:-0.260898 34:-0.047314 35:-1.373541 36:0.556524 37:0.057793 38:-0.560457 39:-1.723535 40:0.437708 41:0.780302 42:0.162728 43:2.642916 44:0.662796 45:0.118199 46:-0.284750 47:0.736833 48:1.321970 49:-0.972491 50:1.201467 51:0.380811 52:0.053689 53:0.656402 54:-0.860047 55:-0.707624 56:0.825129 57:-0.031318 58:-0.436536 59:0.165858 60:0.294601 61:0.031547 62:-1.133250 63:0.073985 64:1.379222 65:-0.833493 66:0.126421 67:-0.693746 68:-0.351759 69:0.202940 70:-0.098884
-1 1:-1.275793 2:0.322300 3:-2.104152 4:-0.930582 5:0.014939 6:1.244457 7:1.399832 8:-0.746016 9:-0.191776 10:1.670777 11:-0.059452 12:0.132272 13:0.154449 14:-0.074624 15:0.443541 16:0.771141 17:0.560286 18:-0.701428 19:0.819876 20:-0.303186 21:-0.286862 22:-1.568128 23:0.119855 24:1.156099 25:-0.395656 26:0.428320 27:-1.068287 28:-1.059183 29:-0.521281 30:-0.028043 31:2.299159 32:-0.289761 33:-1.129891 34:0.389667 35:-0.650775 36:0.670211 37:-0.784781 38:-0.094421 39:-1.230103 40:0.046691 41:-0.487470 42:-0.684336 43:-1.017021 44:-0.056435 45:0.313993 46:0.012430 47:-0.543640 48:-0.642333 49:0.656178 50:0.221854 51:0.582759 52:-1.933858 53:0.868766 54:-2.069522 55:-0.547434 56:0.142589 57:1.343255 58:0.080668 59:-0.599984 60:0.575450 61:-1.233334 62:1.161806 63:0.624399 64:-0.191017 65:-0.650759 66:1.287403 67:-0.815691 68:-0.850907 69:-0.590874 70:-0.798685
-1 1:0.542777 2:-0.495169 3:1.130686 4:0.341012 5:-0.329531 6:0.297884 7:-2.869596 8:1.779199 9:0.360766 10:1.551637 11:0.010468 12:0.242065 13:1.120880 14:-0.881860 15:-0.626646 16:-0.069653 17:-0.217594 18:0.588964 19:0.188716 20:-0.591632 21:-2.036266 22:1.034359 23:-0.222098 24:0.989744 25:0.254927 26:1.100539 27:1.959559 28:-0.761447 29:0.079974 30:0.682416 31:-1.267833 32:0.055366 33:-0.182573 34:0.758446 35:0.648210 36:1.298875 37:-1.725388 38:0.678777 39:-1.943687 40:0.512406 41:0.110663 42:-0.917749 43:0.427001 44:2.654064 45:-1.694671 46:-0.499940 47:1.235419 48:1.579648 49:1.118589 50:1.689904 51:-1.476763 52:-0.580743 53:-0.886883 54:0.709646 55:-0.415227 56:2.444938 57:1.365855 58:0.288198 59:-1.023195 60:-0.430859 61:-2.310003 62:-0.896735 63:0.455152 64:-0.540310 65:-0.698538 66:0.944634 67:0.027978 68:-2.390609 69:0.695605 70:-1.027505
-1 1:0.984846 2:-0.851320 3:-1.580028 4:0.625851 5:1.158230 6:-1.574184 7:-0.438102 8:0.674433 9:0.253634 10:-0.003399 11:0.920194 12:-0.716659 13:-1.186772 14:0.352971 15:0.260509 16:1.292362 17:-0.146857 18:0.009921 19:-0.951493 20:0.613678 21:-1.455997 22:0.952280 23:-0.800037 24:-2.017582 25:0.406603 26:0.614876 27:-1.110173 28:0.103772 29:1.226704 30:-1.125054 31:0.788035 32:1.703880 33:0.492015 34:0.245254 35:-1.351600 36:0.204207 37:0.916503 38:0.795790 39:0.393659 40:-0.019964 41:-1.740058 42:-0.487656 43:-0.615739 44:-0.590688 45:-0.607295 46:-1.029548 47:-0.599305 48:2.092255 49:-0.276888 50:1.627696 51:-0.966417 52:-1.334903 53:0.639497 54:0.212954 55:-1.020726 56:0.042309 57:2.295986 58:-2.102543 59:0.491190 60:0.243479 61:-0.596350 62:0.379135 63:1.328074 64:0.050196 65:-0.355082 66:-0.807843 67:1.050507 68:0.626447 69:-0.686657 70:-0.310636
-1 1:-1.444452 2:0.964727 3:-0.902956 4:0.293691 5:0.535407 6:1.073348 7:-1.183151 8:1.485238 9:0.404276 10:0.518893 11:-0.425095 12:-0.852523 13:-0.761479 14:0.166056 15:-0.879169 16:-0.478576 17:-0.727938 18:0.146234 19:1.165274 20:-1.163418 21:-1.554209 22:0.864267 23:-0.243742 24:0.059158 25:-1.078851 26:1.110649 27:-0.489900 28:-1.179213 29:1.304523 30:1.140322 31:0.680368 32:-1.283357 33:-2.110110 34:0.784056 35:0.398318 36:-0.311029 37:0.160065 38:0.971442 39:-0.410187 40:-1.062643 41:-0.023725 42:-1.379998 43:-0.210327 44:0.980553 45:-1.580170 46:-0.442821 47:-2.214995 48:2.333714 49:0.886170 50:-0.923349 51:0.450851 52:1.546990 53:-0.856890 54:-0.275937 55:-0.555827 56:-0.458969 57:-0.151934 58:3.195526 59:0.634617 60:-1.514288 61:0.274196 62:-0.172594 63:-0.575713 64:-0.562148 65:-0.638163 66:-1.180930 67:-0.439010 68:1.509789 69:0.271536 70:-0.940549
-1 1:0.017152 2:0.720217 3:1.595580 4:0.557710 5:2.094389 6:1.551328 7:-0.289356 8:0.547084 9:-0.725228 10:1.652495 11:-0.021589 12:-1.412687 13:-1.465824 14:-2.100572 15:-0.570222 16:1.351773 17:-0.190403 18:-0.513202 19:0.417032 20:-2.508424 21:1.103701 22:-0.463427 23:-1.540489 24:-0.560138 25:0.106152 26:-3.208110 27:-1.378757 28:1.124514 29:0.505436 30:0.280074 31:0.836739 32:1.033600 33:0.516879 34:-1.123443 35:-1.094588 36:0.195617 37:0.573505 38:0.438021 39:-1.445603 40:0.969747 41:1.279230 42:1.140877 43:-0.634183 44:-0.583621 45:0.400809 46:-1.403908 47:0.487132 48:0.483025 49:-1.809118 50:0.698995 51:0.728899 52:2.052333 53:-0.968545 54:-1.018732 55:-1.257474 56:-0.158051 57:-1.123986 58:2.663460 59:-0.627498 60:0.039085 61:0.647676 62:-2.432305 63:-0.244073 64:1.058967 65:-0.699007 66:1.767742 67:0.627781 68:-0.866616 69:-1.609593 70:0.683796
-1 1:0.972330 2:-0.602596 3:-0.041842 4:0.887757 5:-1.703709 6:0.497868 7:-0.346762 8:-0.691103 9:-1.068819 10:-0.686387 11:-2.017359 12:0.591801 13:-0.983051 14:-1.074456 15:1.414548 16:1.663850 17:-0.251539 18:1.699207 19:-0.916610 20:-0.648005 21:-0.395574 22:-0.863273 23:-0.804691 24:0.503431 25:0.793636 26:0.685754 27:1.406606 28:-0.249211 29:-0.898191 30:-0.144044 31:2.379751 32:0.558897 33:0.423291 34:-0.216183 35:-0.565028 36:-0.357067 37:0.200289 38:-1.868368 39:-1.379599 40:0.326975 41:0.932399 42:-0.899670 43:-0.202255 44:0.825631 45:-0.611620 46:-0.612125 47:-0.458989 48:0.813116 49:0.547400 50:-1.342518 51:-0.760568 52:-0.865141 53:0.050074 54:0.039045 55:-1.163263 56:-0.471349 57:-0.173405 58:0.123403 59:-1.723631 60:1.339579 61:0.537893 62:1.214819 63:1.147899 64:-0.044834 65:0.391455 66:-0.050161 67:-0.470063 68:-1.005155 69:0.995471 70:-1.056202
-1 1:-0.038284 2:0.698594 3:-1.292100 4:0.938807 5:-1.091013 6:1.806664 7:1.539734 8:0.949146 9:1.544403 10:-0.502430 11:-0.616985 12:0.471332 13:0.155375 14:-1.093996 15:-0.228169 16:-0.009117 17:-0.318773 18:-0.859132 19:0.038822 20:-1.198550 21:-1.371179 22:0.029619 23:-1.024436 24:-0.208767 25:1.744447 26:0.217346 27:0.603985 28:2.405228 29:-1.500685 30:-0.649374 31:0.152029 32:-1.643969 33:-1.293400 34:-1.039271 35:0.017767 36:-0.130667 37:0.547234 38:-0.358855 39:-0.446275 40:0.865869 41:-1.615089 42:-1.066967 43:1.229192 44:-0.550993 45:0.413294 46:-1.291278 47:0.341359 48:-1.502405 49:1.504121 50:0.273593 51:0.322261 52:-0.911835 53:0.875247 54:-0.222230 55:0.360061 56:-1.365597 57:0.530662 58:1.555051 59:-1.211684 60:0.087952 61:-0.797770 62:-0.165107 63:1.754278 64:-0.046732 65:-0.166182 66:-0.073258 67:0.610546 68:0.928782 69:0.135003 70:-0.252317
-1 1:-0.261011 2:-0.194063 3:-0.061656 4:0.103164 5:2.284542 6:-0.593391 7:0.347276 8:0.518569 9:-0.259849 10:1.552784 11:-0.809600 12:0.417592 13:1.209549 14:0.168480 15:0.554411 16:-0.292975 17:1.013494 18:0.141528 19:-3.272520 20:-1.216243 21:-0.548807 22:-0.634510 23:-0.275584 24:0.793433 25:-1.909476 26:0.270857 27:1.261628 28:-0.426731 29:-0.540856 30:-2.283443 31:0.514462 32:0.974637 33:-1.267476 34:-0.217118 35:0.479598 36:-1.342225 37:0.400819 38:2.559791 39:-1.080796 40:0.823575 41:-0.633691 42:-1.039814 43:1.768230 44:-0.442726 45:1.240856 46:0.842291 47:-0.913108 48:-1.246465 49:0.991452 50:0.692683 51:1.274532 52:-0.183277 53:-1.222646 54:0.056854 55:0.771620 56:-0.310837 57:0.569277 58:1.054095 59:0.318015 60:-0.041169 61:0.992628 62:-1.249778 63:0.121135 64:0.620658 65:0.436984 66:0.054274 67:0.853964 68:0.626291 69:1.062763 70:2.434080
-1 1:-1.766748 2:-2.064990 3:-0.720257 4:-0.760992 5:1.462576 6:-0.718039 7:1.539400 8:-0.366818 9:-0.454085 10:0.231934 11:-1.033486 12:-0.329346 13:-0.287220 14:1.287643 15:-0.160655 16:-0.266315 17:0.518418 18:-0.138467 19:0.014945 20:-0.941580 21:0.506439 22:0.330246 23:2.395891 24:-0.461496 25:0.877363 26:1.002828 27:0.321083 28:0.696336 29:-0.312128 30:-1.579746 31:-0.606382 32:-0.062968 33:0.154352 34:-1.088197 35:-1.263998 36:-0.507952 37:1.827350 38:-0.286040 39:0.124417 40:0.018330 41:-0.895634 42:-1.097739 43:-0.291391 44:1.070396 45:-0.194626 46:-0.922187 47:-0.681467 48:-1.142274 49:-1.666123 50:0.640260 51:-0.155347 52:-0.328991 53:-0.108565 54:0.299453 55:-0.613052 56:0.190857 57:0.386992 58:-1.129182 59:-1.683995 60:0.628535 61:-0.810643 62:-0.379276 63:-2.012621 64:1.010680 65:1.290725 66:2.216939 67:0.364303 68:1.285484 69:0.345310 70:-0.258092
-1 1:-1.694760 2:0.306130 3:0.718462 4:-1.984870 5:-0.617221 6:-0.550567 7:0.006339 8:0.610436 9:0.962758 10:-0.228983 11:1.925261 12:0.453691 13:1.312169 14:-0.351187 15:0.448859 16:-1.009554 17:-0.684639 18:-1.333231 19:0.119739 20:-0.586690 21:-1.420741 22:0.840569 23:1.222038 24:-0.489578 25:-1.141452 26:-0.012660 27:-0.443948 28:-0.244518 29:-0.386667 30:0.204274 31:-0.476722 32:-0.008624 33:1.258344 34:-0.764035 35:-0.705903 36:-0.608855 37:-0.240909 38:-0.140928 39:1.544462 40:0.053369 41:-1.002378 42:1.468433 43:-1.093391 44:-0.150706 45:-0.566858 46:-0.234015 47:0.861984 48:0.366135 49:0.403540 50:-0.361148 51:0.107066 52:0.111434 53:-0.586332 54:0.185111 55:1.982875 56:0.347644 57:0.893412 58:-0.218480 59:-0.348976 60:1.715800 61:1.021538 62:0.692125 63:-1.119506 64:0.981525 65:0.140065 66:0.762271 67:0.963234 68:0.064338 69:0.109753 70:0.538736
-1 1:0.879429 2:0.951571 3:-1.188476 4:0.584791 5:-0.341959 6:-0.888393 7:0.797802 8:-1.185533 9:-0.813076 10:0.849004 11:-1.279055 12:0.557996 13:0.059444 14:-0.484401 15:-1.209396 16:-0.989980 17:-0.077303 18:-0.476474 19:1.143989 20:-0.400263 21:-0.293267 22:-3.786544 23:-0.410885 24:-0.786967 25:0.174182 26:0.318822 27:-0.814617 28:-1.864769 29:-0.022052 30:-0.774175 31:-1.035812 32:0.384182 33:0.115337 34:0.559609 35:-0.009305 36:-1.814488 37:-0.608024 38:-0.703901 39:-0.443874 40:-0.905929 41:-0.890606 42:-1.348905 43:0.208780 44:-3.719454 45:0.604538 46:2.646711 47:-0.254683 48:-0.308314 49:0.060447 50:0.294762 51:2.046136 52:2.697353 53:-0.294619 54:0.943813 55:-0.473023 56:0.571785 57:2.219605 58:1.375005 59:-0.221829 60:0.569908 61:0.241915 62:-1.156116 63:0.204699 64:-1.271408 65:-0.532894 66:1.075388 67:-0.852804 68:-0.327977 69:-1.384779 70:0.603917
-1 1:-0.985459 2:-1.132179 3:-0.432268 4:2.201563 5:0.910058 6:-0.127397 7:-1.081258 8:-0.959931 9:-1.300344 10:3.470239 11:0.484426 12:0.287245 13:-0.319613 14:1.098324 15:0.556802 16:0.300673 17:-1.775308 18:-0.327527 19:0.099156 20:-0.466704 21:0.983580 22:3.161685 23:-0.155387 24:0.097488 25:-0.901860 26:-0.724387 27:0.370692 28:-0.778852 29:0.101163 30:-1.949295 31:-0.884472 32:2.637761 33:-1.748704 34:0.185703 35:1.015365 36:-1.789410 37:-1.169748 38:1.293119 39:-0.129145 40:0.560645 41:0.504909 42:0.587244 43:2.897241 44:-0.379496 45:0.051558 46:0.717555 47:-0.809175 48:0.495029 49:0.534193 50:-0.819117 51:1.054641 52:-0.730246 53:-0.132012 54:0.965500 55:1.440752 56:0.350076 57:-1.461224 58:-1.302175 59:1.184647 60:-0.013827 61:-0.136785 62:-0.390033 63:0.766426 64:-0.121319 65:-1.164723 66:-0.789411 67:1.093761 68:0.072130 69:-1.268838 70:-0.512822
-1 1:1.312121 2:-1.108578 3:-1.063497 4:-0.854287 5:-0.533613 6:1.677704 7:0.731801 8:-0.231611 9:-0.769770 10:0.513963 11:0.299458 12:0.950388 13:0.645860 14:-0.814711 15:0.286134 16:-1.261046 17:-1.935852 18:1.160912 19:0.744959 20:-0.167077 21:1.290647 22:-0.180371 23:-0.355037 24:0.889828 25:-0.193097 26:-0.398680 27:-0.119390 28:1.392831 29:-0.875552 30:0.942380 31:-1.792842 32:0.049871 33:-1.487913 34:1.633487 35:-0.625397 36:-1.582925 37:-0.075179 38:0.056169 39:0.238698 40:-0.144066 41:-0.612835 42:-0.076741 43:1.071656 44:1.970444 45:-1.166880 46:-0.256131 47:0.128320 48:-0.546585 49:-1.489027 50:-0.000072 51:0.853892 52:-0.794735 53:-1.750238 54:0.329360 55:0.959977 56:-1.603179 57:1.220422 58:0.140467 59:-0.403806 60:-1.132577 61:0.179072 62:-1.484451 63:0.305318 64:1.720864 65:0.977591 66:0.490301 67:0.309218 68:-0.690798 69:-1.016969 70:1.343349
-1 1:-0.411556 2:-1.731044 3:0.942325 4:0.298501 5:2.922347 6:0.548370 7:1.247967 8:0.456880 9:-1.132581 10:-0.282122 11:-4.124773 12:1.302156 13:-1.817821 14:0.766996 15:1.207331 16:0.104349 17:0.055111 18:-0.594928 19:1.095622 20:1.964070 21:-0.435555 22:-0.325970 23:0.947489 24:1.175191 25:-0.173347 26:-0.721902 27:-0.718643 28:1.390051 29:0.819066 30:2.650209 31:1.252348 32:-0.331769 33:-0.193202 34:-0.345774 35:-1.450256 36:0.701442 37:-0.650453 38:-0.363823 39:-1.606294 40:0.965940 41:2.328112 42:0.458104 43:-0.594507 44:1.217777 45:0.724201 46:0.372353 47:0.693934 48:-1.716402 49:-0.113880 50:-1.050962 51:-0.467026 52:-0.246208 53:-0.317799 54:0.714496 55:1.857219 56:-0.994099 57:-2.420363 58:1.801663 59:-0.443494 60:-0.464144 61:0.327814 62:-0.445563 63:0.397862 64:-0.596553 65:-2.005352 66:-0.420060 67:1.790010 68:0.217110 69:0.632810 70:0.684160
-1 1:0.976417 2:-0.696273 3:0.422082 4:-0.532151 5:-0.340267 6:0.306685 7:-1.540958 8:1.106816 9:-0.466316 10:0.298559 11:-0.044580 12:1.269249 13:-0.019349 14:0.364106 15:-0.167889 16:-0.414367 17:1.350861 18:-1.191343 19:0.421339 20:-0.594680 21:1.046827 22:0.948753 23:-0.481156 24:-0.431772 25:-1.080423 26:0.241776 27:0.441338 28:1.995891 29:1.361270 30:-1.512734 31:0.896820 32:-1.135450 33:0.308991 34:-1.461496 35:0.131135 36:0.436798 37:1.327888 38:-0.444238 39:0.635825 40:2.257786 41:-0.502644 42:-1.843524 43:-0.064108 44:-0.963936 45:0.754385 46:0.647330 47:1.500990 48:3.014641 49:-0.197657 50:-0.824058 51:-1.184287 52:-0.053251 53:-1.067914 54:1.987121 55:1.634300 56:-1.777002 57:-1.290840 58:-0.069718 59:0.743933 60:1.409356 61:0.075312 62:-1.041996 63:1.899455 64:-0.996664 65:1.716420 66:0.036973 67:-2.194940 68:-1.222306 69:-0.058093 70:1.260424
-1 1:-0.141343 2:-1.176353 3:-0.206275 4:2.367029 5:0.225440 6:-1.670382 7:-0.544250 8:-0.217211 9:-0.320903 10:-1.071859 11:-0.190994 12:0.405630 13:-0.390108 14:0.475239 15:-1.135130 16:-1.389027 17:0.313410 18:-0.494133 19:0.595669 20:-0.490571 21:-0.730809 22:1.001801 23:-0.439998 24:1.112555 25:0.368328 26:-1.282368 27:-1.304235 28:0.024943 29:-1.709007 30:-0.737194 31:-0.319794 32:1.412653 33:2.190125 34:1.298376 35:0.176733 36:-1.567478 37:0.786184 38:-0.102800 39:0.485724 40:-0.492851 41:1.134380 42:-0.710763 43:0.607057 44:-0.252848 45:-1.338822 46:-0.412523 47:-0.494457 48:-0.279970 49:1.151728 50:0.024789 51:-1.007830 52:-0.926126 53:-1.961402 54:-0.379778 55:-1.200193 56:1.133489 57:-0.369742 58:1.353032 59:0.368687 60:1.300795 61:0.014854 62:2.053292 63:-0.983581 64:-0.015725 65:-0.816196 66:-0.998808 67:0.069777 68:1.483052 69:1.375300 70:1.291576
-1 1:2.041627 2:0.195478 3:0.438223 4:0.666821 5:-1.380202 6:-0.831258 7:-0.262845 8:0.635741 9:1.367082 10:1.052618 11:-0.422338 12:-0.065303 13:-0.306170 14:2.029834 15:-0.579898 16:0.791297 17:0.866465 18:0.275903 19:0.010749 20:-1.636124 21:-0.023250 22:0.968831 23:-0.566016 24:0.237168 25:-1.280152 26:-0.737341 27:-1.356269 28:0.433278 29:1.417411 30:-0.794477 31:0.299298 32:0.358808 33:-1.039321 34:-0.270828 35:-1.028237 36:-0.803629 37:-0.692818 38:0.264118 39:0.590329 40:0.279320 41:-0.085663 42:-0.196816 43:0.139245 44:1.905454 45:-0.267273 46:-1.944557 47:-1.722905 48:-0.148705 49:0.195065 50:-0.553823 51:-0.940291 52:2.316451 53:-1.746832 54:0.158158 55:-0.875473 56:0.087595 57:-0.449557 58:1.180975 59:-0.824348 60:0.479529 61:-1.026158 62:-1.529717 63:-1.147510 64:0.156652 65:0.468641 66:1.307396 67:0.116745 68:-1.752156 69:-0.745588 70:0.116312
-1 1:-0.938396 2:0.426310 3:3.217704 4:1.482880 5:-1.187798 6:0.136433 7:-2.533646 8:-0.156029 9:-1.135664 10:0.825425 11:-0.509233 12:-0.033420 13:-1.153677 14:-0.673006 15:-0.617878 16:-2.583757 17:1.497838 18:-0.828143 19:0.916395 20:1.228764 21:1.680237 22:1.029211 23:1.211759 24:-0.299031 25:0.736469 26:0.239767 27:-1.237306 28:0.467230 29:1.429601 30:-0.540167 31:-0.189182 32:1.490843 33:1.952350 34:-0.276849 35:-1.143147 36:-1.015782 37:-0.676109 38:0.256608 39:1.794947 40:1.254217 41:-0.256299 42:-0.711060 43:3.067528 44:-0.536464 45:0.910057 46:-0.487362 47:-0.719369 48:-0.245905 49:0.659325 50:-0.461012 51:1.792084 52:-0.851430 53:-2.024436 54:0.501302 55:-0.669302 56:0.918061 57:-0.196497 58:-0.173220 59:-0.418396 60:0.044796 61:-0.754492 62:-0.778674 63:-0.988079 64:2.031477 65:1.505826 66:0.871557 67:-0.661035 68:-0.456609 69:-0.365850 70:-0.559162
-1 1:-0.453592 2:1.649671 3:-1.778730 4:0.329937 5:1.075220 6:-1.343446 7:1.073504 8:-2.000729 9:-1.042712 10:0.984859 11:-0.355814 12:1.442871 13:-0.798555 14:-0.001716 15:0.266238 16:-0.371821 17:1.973748 18:-1.248684 19:0.603581 20:0.780974 21:-0.516535 22:0.108067 23:-0.463733 24:0.507461 25:0.402293 26:0.080503 27:1.939438 28:-0.399909 29:0.201580 30:-0.173742 31:-1.204121 32:1.919961 33:0.716739 34:-0.136442 35:0.753610 36:-0.452039 37:-0.515475 38:-1.393528 39:0.063317 40:1.277198 41:-1.399624 42:1.453717 43:-0.736923 44:1.794740 45:0.817604 46:0.779616 47:1.106444 48:1.270266 49:-1.597572 50:-0.550130 51:-1.698475 52:-0.888515 53:-0.635118 54:-2.565713 55:1.479057 56:0.874815 57:2.142054 58:-0.137365 59:0.346463 60:1.811653 61:-0.879816 62:-0.010960 63:0.117302 64:-0.467734 65:-0.854043 66:0.619114 67:1.700596 68:0.354548 69:-0.007535 70:0.307161
-1 1:-0.145185 2:1.894714 3:-2.058976 4:1.939184 5:-0.522584 6:0.066441 7:-1.424461 8:0.152947 9:-0.489563 10:1.018795 11:-0.442851 12:-1.428056 13:0.524164 14:-0.739661 15:-1.494914 16:-0.978081 17:0.200373 18:0.659259 19:1.464904 20:1.056943 21:1.110452 22:0.144720 23:0.007697 24:0.114279 25:-0.009306 26:1.998933 27:0.302863 28:0.896660 29:-1.518120 30:0.433015 31:-0.655319 32:-0.722337 33:1.095639 34:-0.115445 35:0.476708 36:-1.149820 37:0.344665 38:0.751654 39:-1.579488 40:-1.290192 41:0.848584 42:1.669441 43:1.642264 44:0.238169 45:-1.058193 46:-0.966838 47:0.736533 48:1.383481 49:1.594215 50:-0.356438 51:-0.618883 52:1.142546 53:-0.599944 54:1.091294 55:0.162866 56:-0.363028 57:0.383011 58:0.157493 59:0.361566 60:-1.003157 61:0.781215 62:-1.636547 63:1.480515 64:0.251361 65:1.604620 66:0.402470 67:-1.793669 68:-0.355139 69:-0.373062 70:0.302676
-1 1:0.887096 2:-1.840448 3:0.141157 4:1.366330 5:-0.100487 6:-1.708575 7:-1.065983 8:-0.216923 9:-1.754434 10:-0.713491 11:2.409534 12:0.043795 13:0.439183 14:-0.777237 15:-0.744505 16:-0.212678 17:0.296497 18:0.674881 19:0.250147 20:0.997005 21:-0.157651 22:-1.613816 23:0.594588 24:0.141620 25:1.372995 26:-1.040380 27:-1.095712 28:-0.800688 29:0.435142 30:0.322099 31:-0.340037 32:0.819799 33:0.159686 34:-1.104458 35:-0.798064 36:-0.803583 37:-1.800839 38:0.971782 39:-0.959378 40:-0.200856 41:0.452085 42:-0.672364 43:1.663580 44:-0.864106 45:1.306236 46:0.114770 47:-0.080641 48:-0.853759 49:-0.252535 50:0.116734 51:-0.074750 52:0.108017 53:0.116510 54:1.400476 55:0.825121 56:-0.448858 57:-0.007366 58:-1.592712 59:0.038667 60:-0.245036 61:0.525757 62:0.205693 63:0.478332 64:-0.197668 65:1.296230 66:1.353232 67:1.231650 68:-0.337470 69:1.008377 70:-0.199700
-1 1:-0.471625 2:0.907233 3:-0.984066 4:1.393525 5:1.146253 6:-0.338735 7:0.465557 8:1.056871 9:-0.070430 10:1.240783 11:-0.568887 12:-0.933250 13:-2.120162 14:0.846490 15:-0.406886 16:2.683884 17:1.360786 18:-0.569840 19:-0.357526 20:-0.602343 21:-0.741871 22:0.263815 23:-0.757238 24:1.475109 25:-2.088974 26:-0.953583 27:0.275361 28:-0.481044 29:-0.262791 30:1.247683 31:0.844659 32:0.467585 33:0.169608 34:-0.831698 35:-0.335750 36:0.184163 37:0.284487 38:-0.886694 39:1.029192 40:-0.103526 41:0.739492 42:0.261012 43:0.491108 44:0.392051 45:0.014024 46:-0.556276 47:0.182379 48:0.367001 49:-0.041815 50:-0.525812 51:-0.959855 52:-0.008827 53:-0.200277 54:-1.349487 55:0.218588 56:1.042400 57:-1.322398 58:1.585639 59:0.567900 60:-0.176366 61:-0.023658 62:0.334033 63:-0.203744 64:-0.805926 65:-0.638196 66:1.679482 67:-0.664561 68:-0.567914 69:0.695729 70:-0.150419
-1 1:-0.795291 2:0.255054 3:1.103230 4:0.176023 5:1.134127 6:-0.167523 7:0.586690 8:0.002340 9:0.175690 10:-0.379491 11:-2.252880 12:0.734738 13:-2.049265 14:0.927726 15:-0.361979 16:-0.113258 17:-0.866127 18:-0.412195 19:0.275142 20:2.006657 21:0.881054 22:1.309838 23:-0.707822 24:-0.456547 25:-1.683232 26:-0.869864 27:-0.181661 28:-0.698573 29:1.127575 30:1.734223 31:0.493613 32:-0.005152 33:0.952594 34:-3.696584 35:0.730187 36:-0.619581 37:-1.356234 38:-0.812370 39:-0.149683 40:0.909776 41:-0.091514 42:0.076238 43:-1.676679 44:1.003451 45:-0.423177 46:0.430643 47:-1.099866 48:0.999129 49:0.379139 50:-0.302481 51:-0.103811 52:-0.557205 53:2.162465 54:-0.824192 55:1.424339 56:-0.375107 57:-0.682150 58:-0.783691 59:0.149263 60:-0.220164 61:-1.227600 62:-1.575098 63:1.692017 64:-2.478690 65:-0.423108 66:1.182674 67:0.504492 68:-1.223479 69:-0.006241 70:0.911778
-1 1:-0.572219 2:-1.102318 3:0.386387 4:-0.430367 5:-0.402023 6:-0.969625 7:-0.424199 8:1.302739 9:-0.701262 10:-0.466475 11:0.414988 12:-1.102500 13:-0.841204 14:-0.961440 15:0.174733 16:0.312770 17:-0.499559 18:1.331981 19:-0.215572 20:0.173588 21:0.236438 22:0.769256 23:0.328398 24:0.042904 25:-2.004284 26:-0.615183 27:0.955974 28:-0.667614 29:-0.994497 30:1.144019 31:-0.536687 32:-0.534495 33:0.050794 34:-0.117200 35:0.978675 36:1.407837 37:1.717063 38:-0.499206 39:-0.554943 40:-1.026896 41:-0.088884 42:1.048764 43:1.372732 44:-1.840880 45:-0.641760 46:-1.381897 47:0.626072 48:1.328156 49:0.914250 50:-1.165628 51:-0.673174 52:0.183910 53:-0.810714 54:-0.745907 55:1.256605 56:0.134948 57:0.293303 58:-1.094242 59:-1.175246 60:1.848715 61:0.100446 62:-1.373372 63:-0.074095 64:0.891930 65:-0.638052 66:-0.273140 67:0.045784 68:1.267632 69:-1.051684 70:-0.597152
-1 1:1.201982 2:0.871366 3:-0.059180 4:0.872196 5:0.925578 6:-0.745873 7:-1.951952 8:0.412035 9:-0.256026 10:0.124211 11:0.405863 12:0.665685 13:0.118711 14:-0.840936 15:1.425304 16:0.459827 17:0.444185 18:-0.735795 19:-0.742839 20:-1.644308 21:-0.000926 22:-1.038300 23:0.067126 24:0.659777 25:0.494138 26:-0.077397 27:0.631258 28:-0.337561 29:-0.971057 30:1.353866 31:0.334116 32:0.313089 33:0.894078 34:1.959861 35:-0.441691 36:-0.255556 37:0.887196 38:0.511238 39:-0.164826 40:2.055089 41:1.440072 42:0.119931 43:0.179775 44:-0.853251 45:-1.013528 46:0.836734 47:-1.379871 48:-1.729352 49:0.772671 50:-0.033037 51:1.579182 52:1.753147 53:0.131279 54:0.362058 55:-0.645375 56:0.187843 57:-0.411346 58:-0.240788 59:-0.682416 60:0.249505 61:0.941813 62:-0.034472 63:-0.535113 64:-0.424605 65:-0.533648 66:0.094555 67:3.101497 68:-0.847874 69:1.969482 70:1.204939
-1 1:0.320367 2:-2.002120 3:-1.991742 4:-0.621902 5:-0.041579 6:0.018862 7:-0.683638 8:0.320365 9:-1.388764 10:-1.316317 11:-1.542718 12:1.265515 13:-1.559401 14:0.451867 15:0.884430 16:0.300774 17:-0.065892 18:0.628179 19:0.642047 20:0.744265 21:0.576513 22:0.902093 23:-2.006030 24:0.694043 25:-0.204126 26:0.965547 27:-1.553661 28:1.073055 29:1.055897 30:0.064033 31:0.055300 32:-0.013074 33:1.211826 34:0.772285 35:-0.976983 36:0.762957 37:-0.655375 38:0.607161 39:-1.477677 40:0.193706 41:-1.239742 42:0.643691 43:-0.462147 44:0.875684 45:1.374928 46:-0.455305 47:1.911813 48:0.914840 49:-0.079019 50:0.429769 51:-0.084670 52:-1.147605 53:0.738650 54:-1.156497 55:-0.206992 56:-0.852971 57:-1.177407 58:-0.436637 59:1.168317 60:-0.815782 61:1.118665 62:-0.442800 63:-0.069154 64:1.084361 65:-0.668912 66:0.712015 67:0.929255 68:-0.283870 69:-1.208881 70:0.535069
-1 1:-0.597275 2:-0.870809 3:-0.414766 4:0.751260 5:0.794026 6:0.202182 7:1.171876 8:-0.556969 9:-0.521601 10:-0.948083 11:0.647006 12:-0.383869 13:0.040091 14:-0.200138 15:-0.115448 16:1.046055 17:-0.461117 18:-1.645167 19:1.080327 20:-0.472732 21:0.639598 22:-0.254452 23:-1.252906 24:-1.037468 25:-1.120344 26:-0.101782 27:0.380888 28:1.061743 29:1.454190 30:-0.338172 31:-0.930763 32:0.199274 33:0.491591 34:1.921840 35:-1.761852 36:-1.373091 37:-0.017865 38:-0.675239 39:-0.650406 40:0.573902 41:1.300801 42:-0.143922 43:0.762182 44:-0.984878 45:-1.634182 46:0.974010 47:1.352817 48:0.900542 49:-0.754645 50:-1.148438 51:0.667197 52:0.768791 53:-1.201050 54:-1.581929 55:-0.811814 56:-0.520053 57:1.134648 58:-0.223115 59:-0.778138 60:-0.798327 61:-0.656374 62:1.229182 63:-1.004518 64:1.091165 65:-0.731253 66:1.501644 67:-0.378298 68:1.902956 69:-0.398752 70:0.949725
-1 1:-1.031707 2:0.061497 3:-2.184270 4:-0.340405 5:-0.029239 6:-0.768905 7:-1.093983 8:0.501748 9:-1.284359 10:1.043552 11:0.327065 12:-0.584370 13:-2.021607 14:0.431539 15:-0.629434 16:-2.953857 17:0.045719 18:0.978785 19:1.101795 20:-0.808559 21:0.052218 22:-0.843256 23:0.039267 24:1.011518 25:-0.203643 26:0.979626 27:0.185393 28:0.918966 29:-1.993131 30:-1.020655 31:-0.762382 32:0.488104 33:0.333330 34:-0.673089 35:-0.340524 36:-0.299231 37:-0.061769 38:1.164747 39:-0.714179 40:1.084631 41:-1.417886 42:-0.907306 43:0.140362 44:-0.030144 45:1.148529 46:1.251367 47:-1.830608 48:-1.567740 49:-0.927317 50:-1.815501 51:-1.128841 52:-0.842710 53:-0.873385 54:-0.645498 55:-0.219994 56:0.574886 57:-0.372661 58:-0.262582 59:-1.647063 60:-0.349109 61:-0.218080 62:1.667156 63:-0.249785 64:-0.284292 65:-0.371280 66:-0.357739 67:-0.428541 68:1.662101 69:0.428277 70:0.744946
-1 1:-1.967395 2:0.810649 3:0.344955 4:-1.029073 5:0.030501 6:-1.247357 7:-0.354266 8:-0.400627 9:-0.706549 10:-1.547402 11:1.010873 12:2.030918 13:-2.162717 14:-0.146724 15:0.615891 16:-0.080987 17:-0.645340 18:-1.151159 19:1.656807 20:0.534172 21:1.466662 22:1.667032 23:-1.254873 24:-0.221410 25:0.264514 26:-0.520175 27:0.598163 28:-0.947107 29:1.528246 30:-0.942554 31:-0.357552 32:-1.306314 33:0.008516 34:-0.347064 35:1.923095 36:0.534756 37:-1.401372 38:0.406268 39:-0.162317 40:-0.525060 41:2.553556 42:-0.523013 43:0.368786 44:-2.522135 45:-0.451131 46:-0.791721 47:-0.145636 48:0.275872 49:0.091415 50:-0.333723 51:0.656984 52:0.566988 53:-0.527753 54:0.337110 55:0.716437 56:-1.649916 57:-0.113615 58:-0.122778 59:0.459017 60:-1.824292 61:0.198850 62:0.233575 63:-1.265864 64:0.375499 65:2.482800 66:2.927047 67:-0.216848 68:-0.185901 69:-0.217247 70:0.839477
-1 1:-1.034938 2:-0.325985 3:0.134307 4:-0.556989 5:0.460290 6:0.017468 7:1.001723 8:-0.807660 9:-1.157338 10:-0.909262 11:-0.064884 12:-2.248796 13:-0.908666 14:0.092919 15:0.521286 16:0.639517 17:-1.680342 18:-1.538614 19:-0.236602 20:0.299944 21:-0.814600 22:0.870249 23:-0.969285 24:0.560917 25:0.773352 26:0.568776 27:0.847728 28:-0.582177 29:-1.496978 30:-0.762206 31:1.603194 32:-1.403258 33:-1.063420 34:-2.907823 35:1.356529 36:-0.300261 37:1.447665 38:-0.956907 39:0.136279 40:-0.171861 41:0.979972 42:-0.946932 43:2.147296 44:-0.969461 45:-0.104205 46:-0.194175 47:-2.414928 48:-1.100857 49:1.740376 50:1.450067 51:0.389659 52:-2.606618 53:-1.354151 54:0.488302 55:0.871511 56:0.293595 57:-0.344204 58:0.166781 59:1.353086 60:0.327357 61:-0.419853 62:0.158598 63:-1.110527 64:0.483124 65:0.530341 66:-1.622060 67:-2.118560 68:-0.040799 69:1.111727 70:-0.090773
-1 1:1.159562 2:-0.996393 3:-0.842806 4:0.531250 5:-1.650419 6:-1.655815 7:0.456100 8:-0.868243 9:-0.331132 10:-0.056632 11:-2.287494 12:1.258493 13:-1.021299 14:-1.267475 15:-1.297301 16:-0.752231 17:1.935927 18:-0.940700 19:-1.881848 20:-1.998348 21:1.149462 22:-0.247514 23:0.044572 24:0.222047 25:1.037350 26:-0.594406 27:0.438242 28:-0.720403 29:1.852038 30:1.421000 31:-0.142616 32:-0.249880 33:1.088530 34:0.972623 35:-0.453744 36:-1.173460 37:1.039606 38:-0.666619 39:-0.384517 40:-0.065904 41:-0.819635 42:1.683851 43:-0.119232 44:-0.339903 45:0.063080 46:-0.273226 47:1.686102 48:-0.748551 49:-1.432019 50:0.390298 51:1.053982 52:0.185099 53:-0.118795 54:-1.439924 55:0.009436 56:0.064990 57:1.194372 58:0.371122 59:-0.120452 60:-0.765513 61:-0.179938 62:1.607433 63:-0.066301 64:0.225317 65:-0.247628 66:-1.593005 67:-0.900997 68:-0.006320 69:0.179696 70:-0.618906
-1 1:-0.235859 2:-1.071921 3:-0.364209 4:0.326529 5:-1.212803 6:2.348123 7:0.512707 8:0.579153 9:-0.966742 10:1.169404 11:0.198288 12:0.663715 13:1.882749 14:0.536869 15:1.121212 16:2.892184 17:-2.063054 18:-1.108954 19:-2.129056 20:1.695821 21:-1.411339 22:1.054556 23:0.405604 24:-0.409675 25:0.130142 26:0.210594 27:-0.783787 28:1.682392 29:-0.451522 30:-0.928746 31:-2.171948 32:1.235560 33:-0.126493 34:0.442455 35:-1.652704 36:0.477134 37:-0.483241 38:0.838176 39:-1.906640 40:-0.402380 41:1.169700 42:1.202936 43:-0.053541 44:0.021066 45:-1.360353 46:-0.341173 47:0.038541 48:1.218651 49:0.070358 50:1.251437 51:0.666922 52:-0.850812 53:1.305295 54:-1.191253 55:-0.233290 56:0.579948 57:0.682029 58:1.374240 59:-0.263067 60:0.194240 61:-0.625432 62:-1.106136 63:-0.253000 64:0.358231 65:-0.264018 66:-0.017802 67:0.459937 68:0.867350 69:0.609866 70:0.487210
-1 1:0.811160 2:1.150004 3:0.014233 4:0.654101 5:1.201422 6:-1.077600 7:-0.835818 8:0.470959 9:-0.801639 10:0.495119 11:0.705701 12:0.122560 13:-1.082496 14:0.594146 15:-1.203820 16:-0.428849 17:0.000085 18:-0.567794 19:-0.291370 20:-1.398745 21:-0.226865 22:2.022007 23:0.348142 24:0.166460 25:-2.132122 26:0.317949 27:0.429683 28:0.070382 29:2.659890 30:-0.204804 31:0.963195 32:0.124329 33:-1.430143 34:-0.806051 35:1.013559 36:0.241630 37:1.313963 38:-1.158921 39:-1.804402 40:1.621981 41:0.236158 42:-0.030545 43:-1.186254 44:-0.587961 45:0.236488 46:1.770945 47:1.350616 48:-1.054271 49:-0.016908 50:1.627172 51:-1.744942 52:-1.264767 53:-0.111497 54:0.126636 55:-1.234298 56:0.022081 57:1.175147 58:-0.688544 59:0.603401 60:-0.025907 61:-0.069483 62:1.657287 63:-0.038555 64:-0.415495 65:-0.425790 66:1.911298 67:-0.869614 68:-0.504612 69:-1.691378 70:0.049534
-1 1:-1.048987 2:1.139809 3:-0.369808 4:-1.432833 5:-0.862375 6:0.147280 7:-0.522716 8:0.921787 9:0.065244 10:1.086817 11:0.321948 12:1.025789 13:0.895842 14:1.156383 15:0.561749 16:-0.987178 17:0.445852 18:0.023245 19:-1.535645 20:1.258576 21:1.296252 22:0.812254 23:0.665330 24:0.721991 25:-1.086207 26:-0.962441 27:-1.298188 28:0.410349 29:-0.186450 30:-0.366624 31:0.592746 32:-1.387094 33:0.089139 34:-1.015959 35:-2.122431 36:-0.997793 37:-0.835462 38:-0.350777 39:-0.101036 40:-0.339712 41:2.082512 42:-0.911785 43:0.925264 44:1.834064 45:-0.665410 46:-1.664234 47:0.073051 48:-0.885350 49:0.815655 50:0.226684 51:-1.421388 52:-1.035003 53:0.094775 54:-0.635963 55:0.404696 56:-1.825489 57:-1.221072 58:-0.621584 59:0.441805 60:0.880476 61:-0.817481 62:-1.459563 63:0.067289 64:0.417447 65:1.726224 66:-1.027401 67:-0.001174 68:-1.054856 69:-0.371861 70:0.197952
-1 1:0.890780 2:0.121821 3:-0.685046 4:-0.633708 5:0.571797 6:-0.083475 7:0.486010 8:-2.483942 9:1.768562 10:3.678356 11:-0.762203 12:0.299546 13:0.960005 14:1.176455 15:0.060925 16:-0.240340 17:-0.059561 18:1.894687 19:-0.746375 20:0.867290 21:-0.223381 22:2.314026 23:-0.373521 24:-0.831080 25:-0.811419 26:0.612195 27:1.513241 28:-1.041454 29:0.480086 30:-1.347437 31:-1.049657 32:-2.288813 33:0.298223 34:0.886374 35:-1.397649 36:0.105936 37:-1.158674 38:-1.059035 39:-2.304779 40:-1.842253 41:1.000659 42:-1.962921 43:1.319769 44:-0.472821 45:-0.072788 46:0.245970 47:1.126189 48:0.014801 49:1.387441 50:-1.514172 51:1.646081 52:-2.441214 53:-1.708612 54:-0.350721 55:-0.162752 56:0.145718 57:0.250434 58:0.186441 59:0.216224 60:-0.970724 61:-1.027665 62:-0.182278 63:-0.583937 64:0.365318 65:0.176728 66:2.221204 67:-0.406540 68:-1.276359 69:-1.481850 70:-1.042827
-1 1:0.847684 2:0.855295 3:0.189517 4:0.149347 5:-2.001112 6:-1.631444 7:0.146228 8:1.291696 9:-0.758778 10:1.265384 11:-1.665916 12:-0.594236 13:-0.776407 14:-0.582308 15:1.128761 16:0.691656 17:-0.787019 18:-0.463021 19:0.177873 20:1.534230 21:0.241757 22:0.570211 23:0.458623 24:-0.028887 25:1.440487 26:0.016679 27:0.889774 28:-0.692095 29:-1.515776 30:-0.231027 31:-1.274677 32:-0.448778 33:2.159909 34:0.549279 35:-0.084455 36:0.417433 37:-0.521922 38:0.396572 39:0.016521 40:-0.516011 41:-0.229534 42:-1.007515 43:0.574926 44:-0.642922 45:-0.227356 46:-0.343822 47:1.490310 48:0.064387 49:-0.765468 50:0.051315 51:1.246034 52:0.956258 53:-1.831631 54:-0.680644 55:0.413577 56:1.429729 57:-2.252849 58:-0.678498 59:-0.102575 60:0.293604 61:1.234391 62:-0.829459 63:1.046553 64:1.981532 65:0.467357 66:-0.993373 67:0.135722 68:1.327691 69:-0.573390 70:0.081178
-1 1:0.375338 2:1.461571 3:-1.222938 4:2.119430 5:-0.459254 6:0.820704 7:-0.367859 8:0.216843 9:0.202849 10:-0.275967 11:0.242081 12:-0.050572 13:0.484695 14:-0.297805 15:-1.453954 16:-0.419661 17:-0.266506 18:1.503639 19:1.306354 20:0.754005 21:1.094803 22:-0.520707 23:-0.535609 24:0.024034 25:-0.216040 26:-0.506890 27:1.232776 28:1.882664 29:0.103306 30:-0.707135 31:0.021517 32:-1.196965 33:0.022802 34:0.165503 35:0.689789 36:1.014221 37:-1.177995 38:-2.621592 39:0.159609 40:1.071870 41:0.138220 42:-0.565050 43:-0.587801 44:-0.320274 45:1.870059 46:-1.041360 47:-1.173434 48:2.360375 49:1.085119 50:0.028233 51:-0.611123 52:0.033288 53:-1.055472 54:1.023565 55:0.840716 56:0.167638 57:0.014571 58:-0.612180 59:0.670025 60:1.249059 61:0.805677 62:1.218441 63:-0.881754 64:1.307668 65:-1.147872 66:0.218414 67:-0.163781 68:0.549624 69:0.578789 70:0.370860
-1 1:-0.083340 2:0.024798 3:-1.097693 4:0.966586 5:2.282649 6:0.570614 7:-1.091120 8:0.278481 9:0.727997 10:-0.856625 11:-0.193492 12:0.874832 13:-2.819325 14:-0.231261 15:-0.204412 16:0.175853 17:2.192737 18:1.507258 19:0.014867 20:1.046770 21:0.044656 22:0.833999 23:-0.720554 24:-0.317156 25:0.523554 26:1.314408 27:0.828498 28:-1.282794 29:-1.884433 30:-2.046631 31:0.695333 32:-0.581095 33:1.925357 34:1.039845 35:0.245512 36:-1.777082 37:0.102996 38:2.587031 39:0.825209 40:-0.476139 41:-0.300577 42:-3.230227 43:0.332015 44:0.727876 45:0.282202 46:-1.130748 47:1.114202 48:0.158613 49:-0.268201 50:0.691163 51:-2.100437 52:1.992161 53:-0.477917 54:0.236310 55:-0.961322 56:-1.138863 57:-0.514720 58:0.441908 59:0.599857 60:1.315559 61:-0.478661 62:-0.912533 63:1.698004 64:-0.009675 65:-1.287779 66:0.590615 67:1.615869 68:-0.741439 69:-0.972120 70:-0.113964
-1 1:-0.484667 2:-0.617860 3:-0.391926 4:0.690122 5:-0.943872 6:0.519931 7:-0.133758 8:-0.734759 9:0.495322 10:-0.514277 11:0.249674 12:-1.238220 13:1.201596 14:-0.158191 15:1.564304 16:-0.683347 17:0.223090 18:0.509392 19:0.263250 20:-0.452397 21:-0.033727 22:-1.358377 23:0.070649 24:-2.548603 25:0.053436 26:-0.154995 27:-1.034478 28:-3.054906 29:-0.007828 30:0.949430 31:-1.284414 32:0.560764 33:0.196654 34:0.239268 35:0.661093 36:0.323324 37:1.083431 38:-1.900072 39:0.172543 40:-1.634296 41:-0.745862 42:0.632322 43:0.531201 44:1.218607 45:0.021969 46:0.381564 47:-1.660360 48:1.297425 49:1.041302 50:-0.176164 51:0.292922 52:0.909040 53:-0.180190 54:-0.748474 55:-0.029736 56:0.638005 57:0.136649 58:-0.724497 59:-0.441263 60:2.239819 61:0.113129 62:-0.309077 63:0.656747 64:-0.519951 65:0.367991 66:1.765416 67:1.701995 68:0.507463 69:0.552199 70:-0.088095
-1 1:-0.537862 2:1.548922 3:-0.543593 4:1.676268 5:0.152091 6:-0.646614 7:0.128698 8:-0.354920 9:2.250575 10:-0.411429 11:-0.383238 12:-0.335726 13:1.728714 14:-0.156571 15:-1.426095 16:-0.606296 17:-0.811249 18:0.356149 19:-0.507835 20:0.305345 21:1.009582 22:-0.947271 23:-1.015345 24:-1.100133 25:1.365475 26:-1.092514 27:1.633417 28:-1.025705 29:0.709369 30:-1.803762 31:-0.832506 32:1.366675 33:0.299173 34:1.322300 35:-0.342745 36:-0.538286 37:0.102166 38:-0.707358 39:-0.059696 40:1.030320 41:0.305634 42:0.636545 43:0.283826 44:-0.133389 45:-0.457079 46:-2.538465 47:0.329765 48:0.954809 49:0.443145 50:1.979669 51:1.146151 52:2.110616 53:1.082672 54:0.973786 55:-1.169292 56:-0.026436 57:-0.428647 58:1.281792 59:1.750665 60:1.682158 61:0.136383 62:1.936395 63:-0.430863 64:-0.470204 65:-0.254367 66:2.248880 67:2.208941 68:-2.411041 69:0.462078 70:-0.271620
-1 1:0.189834 2:-1.418032 3:1.027199 4:1.084573 5:-1.549839 6:-1.113568 7:0.597650 8:0.095682 9:0.305023 10:0.840779 11:0.301364 12:-0.379121 13:-1.422341 14:0.793599 15:0.101183 16:-0.579640 17:1.361136 18:-2.871978 19:1.081515 20:0.381473 21:1.008601 22:-0.515732 23:-0.276133 24:-0.479153 25:0.633951 26:0.799052 27:-0.146205 28:-0.277251 29:0.318155 30:-0.693610 31:1.716849 32:1.454747 33:1.564893 34:1.540052 35:1.581445 36:-0.656662 37:-1.603565 38:0.613949 39:0.177560 40:-0.357419 41:0.053105 42:-1.103414 43:0.305678 44:-1.457621 45:0.517403 46:0.354917 47:-0.717182 48:-0.469503 49:-0.308763 50:-0.819815 51:0.272145 52:-0.626483 53:0.585404 54:0.183117 55:-0.876376 56:1.100190 57:-0.672857 58:-0.023487 59:0.492009 60:-0.274974 61:-1.301817 62:-0.022219 63:-1.110182 64:0.339188 65:-1.851547 66:0.116357 67:-0.192215 68:-0.560375 69:-0.016347 70:0.680820
-1 1:-0.606451 2:-0.143184 3:-0.190722 4:-0.771024 5:0.694919 6:1.921645 7:-0.132407 8:0.936274 9:-1.711357 10:0.578103 11:-0.771269 12:-0.847048 13:0.093287 14:-1.232054 15:-0.082277 16:-1.166751 17:2.265718 18:-0.109192 19:-0.044066 20:-0.099097 21:-0.070577 22:-0.692082 23:2.261084 24:-1.163994 25:1.583493 26:-0.308720 27:-1.303011 28:-1.816113 29:-0.129083 30:-1.427033 31:1.129320 32:0.334241 33:-0.016243 34:-2.126822 35:-1.288208 36:-0.288097 37:-0.919929 38:1.459353 39:-0.860737 40:-0.027602 41:-0.550623 42:-0.256635 43:-1.021165 44:0.502154 45:-0.347389 46:-0.467089 47:1.406227 48:-1.238004 49:0.500121 50:0.183481 51:-0.096044 52:-1.140283 53:1.478059 54:-2.353707 55:1.632158 56:1.304713 57:0.745850 58:0.124976 59:-1.426386 60:0.189231 61:-0.407245 62:1.053222 63:-0.221677 64:-1.050762 65:1.041229 66:1.487455 67:0.404575 68:0.801046 69:-0.046467 70:-0.555064
-1 1:0.186882 2:-0.192254 3:0.694646 4:0.826584 5:-0.401603 6:0.822895 7:0.236456 8:-0.266870 9:-0.814344 10:0.145559 11:-0.585582 12:-0.394339 13:0.562119 14:0.839691 15:-0.822485 16:0.091258 17:1.031324 18:0.528077 19:-0.826320 20:-0.854471 21:-0.492411 22:-0.641804 23:-1.355985 24:-0.777160 25:1.410898 26:0.006720 27:1.996665 28:-0.698014 29:-0.201126 30:0.876051 31:-0.338568 32:0.351854 33:-0.491930 34:0.189045 35:-0.400958 36:-0.637401 37:-0.131825 38:0.141815 39:0.711446 40:1.010330 41:-1.014836 42:-0.488322 43:-1.290282 44:0.533567 45:-1.532795 46:0.640994 47:-0.789772 48:-1.367181 49:0.154415 50:2.800312 51:0.661721 52:0.801109 53:0.648739 54:-0.017520 55:1.840075 56:-0.368698 57:-0.093080 58:1.167391 59:-0.055241 60:0.140164 61:0.021766 62:-0.643966 63:-0.894318 64:-0.093652 65:-0.832038 66:-0.370963 67:0.764079 68:-0.974908 69:-0.962017 70:-0.413154
-1 1:0.489649 2:1.068948 3:0.914929 4:1.464081 5:1.083165 6:-0.216274 7:-1.830726 8:-1.836336 9:-0.803712 10:-1.282026 11:0.508408 12:-0.227118 13:0.804359 14:1.838816 15:0.873021 16:-1.057550 17:-0.110513 18:-0.606562 19:0.544894 20:-0.717115 21:1.113122 22:-0.173088 23:-1.624704 24:-0.169704 25:1.707398 26:0.032670 27:-0.037261 28:0.089527 29:0.126471 30:-1.014380 31:-0.861553 32:-1.196103 33:-1.042218 34:1.583489 35:-0.496425 36:0.212516 37:-0.174243 38:-0.027622 39:0.832207 40:-1.209449 41:-0.329394 42:-0.286220 43:1.554491 44:-0.310186 45:0.150325 46:-0.902485 47:-0.431307 48:0.443782 49:0.320739 50:1.548028 51:0.966294 52:0.236995 53:0.010264 54:-2.122550 55:-0.471121 56:-0.198892 57:-0.754250 58:-0.704246 59:1.219143 60:-1.446717 61:-0.892900 62:0.009764 63:0.926729 64:0.305322 65:-0.131148 66:-0.515166 67:1.199753 68:0.186104 69:1.173378 70:-0.548465
-1 1:-0.933743 2:0.829874 3:2.374473 4:0.059031 5:-0.478579 6:0.694498 7:2.101468 8:-1.491835 9:1.447865 10:-0.473420 11:-2.084104 12:-0.364701 13:0.164514 14:0.464982 15:0.338086 16:-0.967191 17:-1.129817 18:0.816665 19:-0.513696 20:-0.810769 21:-0.226444 22:0.201370 23:0.877744 24:1.386557 25:0.544142 26:0.800148 27:1.484542 28:0.990907 29:-0.191313 30:-1.714792 31:0.382670 32:0.428643 33:0.276112 34:-0.318897 35:-0.858873 36:0.096707 37:0.375047 38:0.608033 39:1.015294 40:-0.679170 41:0.215747 42:1.363875 43:-0.223471 44:-0.195551 45:-0.369749 46:-0.012555 47:0.850589 48:-0.242121 49:-0.492991 50:0.669919 51:-0.145329 52:-1.044642 53:1.886899 54:0.393627 55:0.174636 56:-0.171602 57:0.744139 58:-0.716342 59:1.165329 60:0.233392 61:0.836859 62:0.031832 63:0.034987 64:0.164022 65:-0.187101 66:-0.767667 67:0.121251 68:-2.260509 69:-0.324038 70:-2.405565
-1 1:-0.249015 2:-0.173178 3:0.440182 4:-1.008834 5:-0.623058 6:-1.297698 7:-2.530350 8:-1.147940 9:1.459135 10:0.911337 11:0.885393 12:1.086335 13:-0.025301 14:1.898195 15:0.760570 16:0.832054 17:1.425810 18:0.552681 19:-0.051697 20:-0.550452 21:1.017344 22:-0.853841 23:0.896374 24:-0.180407 25:-1.225011 26:-1.162017 27:0.788821 28:0.280083 29:0.574488 30:-1.536889 31:-0.339618 32:1.031026 33:0.789438 34:-0.955658 35:-0.129051 36:-0.385514 37:1.179065 38:-1.242186 39:-1.617246 40:-0.333700 41:0.747032 42:-2.415588 43:1.218833 44:-0.648719 45:-0.910300 46:-0.344049 47:0.036988 48:-2.086591 49:0.060990 50:0.079178 51:0.251888 52:0.667173 53:-1.177705 54:2.043494 55:0.685933 56:0.034007 57:0.745425 58:-1.435396 59:0.602114 60:-0.211830 61:-0.332643 62:1.997804 63:0.036353 64:-0.424805 65:0.275391 66:-0.150409 67:0.362671 68:0.350889 69:-0.707774 70:-0.229830
-1 1:-2.364583 2:-0.813947 3:-0.044909 4:0.199397 5:-0.599846 6:-0.907638 7:-0.742867 8:-0.418378 9:-0.995973 10:-0.587249 11:0.406013 12:1.517739 13:-1.072278 14:-0.291847 15:-1.091669 16:1.524386 17:-1.136961 18:-0.196234 19:0.848572 20:1.542318 21:-1.113756 22:-0.542528 23:1.298100 24:-2.076437 25:1.105828 26:0.435335 27:2.139354 28:0.562541 29:0.445052 30:0.661176 31:-1.063448 32:-1.976281 33:0.669485 34:0.966885 35:-0.333344 36:-0.173961 37:-0.797724 38:0.180339 39:-0.086006 40:0.585980 41:-2.053190 42:0.995755 43:1.247832 44:1.451559 45:0.263541 46:-0.334124 47:0.050479 48:1.028627 49:0.223648 50:1.578136 51:-1.221653 52:-0.139091 53:0.381053 54:0.591361 55:0.567341 56:0.411350 57:-0.513837 58:0.484730 59:-0.900479 60:0.287000 61:1.065949 62:1.617739 63:-0.792577 64:1.000502 65:-0.354667 66:-0.029669 67:-0.405378 68:-1.067298 69:-1.169346 70:-0.179118
-1 1:1.253944 2:-0.317179 3:1.174482 4:0.317834 5:0.307457 6:-2.355524 7:0.251416 8:0.427684 9:0.519599 10:-1.227566 11:-0.021591 12:1.797719 13:-0.860552 14:1.244718 15:0.096259 16:0.041733 17:-1.132301 18:1.224063 19:2.216146 20:1.270283 21:1.250589 22:-0.223866 23:-1.796642 24:1.378264 25:0.409738 26:0.835169 27:-0.498211 28:-0.104031 29:-0.055822 30:-0.441139 31:0.152025 32:0.912931 33:-0.618294 34:0.831064 35:-0.575092 36:-1.459228 37:0.476847 38:0.875507 39:0.993473 40:-1.631502 41:-1.630146 42:-0.536045 43:-2.070424 44:0.755623 45:-0.586671 46:0.124248 47:-2.023238 48:0.581326 49:-0.002116 50:0.454951 51:-0.562029 52:1.545260 53:0.205102 54:-1.092048 55:0.458458 56:-0.940381 57:-0.480710 58:0.296315 59:-1.783471 60:0.253705 61:1.202452 62:-1.044299 63:0.062254 64:0.174665 65:0.961744 66:-0.347825 67:1.108266 68:0.247586 69:-1.002040 70:0.782370
-1 1:-0.162587 2:-0.235487 3:-0.278753 4:0.264063 5:-0.361358 6:-0.036517 7:-0.368529 8:0.855765 9:0.404895 10:-0.216657 11:-2.411065 12:-0.319336 13:-1.777135 14:-0.261492 15:-1.265765 16:0.266623 17:-0.494832 18:1.341789 19:-0.699784 20:0.764181 21:0.195847 22:-0.328429 23:-0.811999 24:-1.065546 25:-1.232247 26:0.496627 27:0.144994 28:-0.103043 29:2.968415 30:-1.684144 31:0.016996 32:-1.249802 33:-0.835047 34:-0.249939 35:0.206758 36:1.230968 37:0.005520 38:0.922842 39:-1.138721 40:0.596738 41:-2.901933 42:0.415679 43:-0.267449 44:0.808837 45:-1.454324 46:1.162818 47:0.228066 48:-1.042808 49:0.883646 50:-0.635557 51:-0.492097 52:0.297561 53:-2.046793 54:-0.329777 55:1.583057 56:0.376398 57:-0.976383 58:0.558118 59:-1.908743 60:-1.566631 61:-0.339540 62:-1.470035 63:0.894063 64:1.088318 65:1.442943 66:-0.541548 67:2.605813 68:0.510241 69:0.323439 70:0.659186
-1 1:-0.047703 2:0.357639 3:-0.315948 4:-0.255349 5:0.452402 6:-0.575450 7:1.111818 8:0.390568 9:1.075259 10:0.028669 11:-1.224456 12:-0.551676 13:0.235889 14:-0.372464 15:-1.397399 16:0.177949 17:2.141491 18:0.899051 19:1.661600 20:0.628483 21:1.287999 22:1.022132 23:-1.691254 24:0.642094 25:-2.106700 26:-0.592563 27:-1.657186 28:-0.997876 29:1.454220 30:-1.094785 31:0.198222 32:-1.218534 33:1.598860 34:-1.150004 35:-1.550423 36:-0.640499 37:-1.526404 38:0.046816 39:0.498386 40:1.119169 41:-0.469152 42:-0.110359 43:1.024388 44:1.653092 45:0.032412 46:0.949732 47:1.224950 48:0.941110 49:-1.005142 50:-1.232904 51:0.499254 52:-0.613159 53:-0.653298 54:-0.854255 55:1.439238 56:-0.307353 57:0.491129 58:-1.058877 59:1.018137 60:0.248179 61:1.392167 62:0.054491 63:1.185815 64:1.229721 65:-0.947096 66:-0.221618 67:0.877317 68:-1.910203 69:-0.715090 70:1.203034
-1 1:-0.313495 2:0.519019 3:0.911773 4:0.822883 5:-0.329749 6:0.843704 7:-1.455937 8:0.778128 9:-0.548726 10:-1.044460 11:1.371471 12:0.579281 13:-2.167631 14:-0.478702 15:-0.910986 16:-0.321990 17:-0.584451 18:0.666188 19:-3.092829 20:0.840163 21:-0.143931 22:2.002916 23:-0.162012 24:0.006189 25:-1.271906 26:-0.329537 27:0.399697 28:-0.711598 29:-0.043341 30:0.168630 31:2.256136 32:0.520802 33:-0.220396 34:0.203944 35:0.485038 36:1.176903 37:1.409764 38:0.461146 39:0.745649 40:-0.346962 41:0.194587 42:0.192361 43:1.550879 44:0.324293 45:0.944164 46:-0.055876 47:-0.406742 48:-0.105434 49:0.189229 50:0.579746 51:0.226826 52:1.958984 53:-0.650795 54:0.367182 55:-0.664198 56:1.235849 57:1.583969 58:1.002901 59:0.344259 60:1.747660 61:0.274141 62:0.343161 63:-1.167071 64:-1.162603 65:0.717742 66:1.308797 67:-0.019190 68:0.282090 69:-1.056956 70:0.476433
-1 1:0.155190 2:-0.767566 3:0.595132 4:1.233556 5:0.170361 6:-0.338241 7:-1.438414 8:-1.014245 9:-1.274039 10:0.940055 11:-0.234035 12:-1.155095 13:1.203496 14:0.331792 15:-1.461632 16:1.896939 17:-1.527819 18:0.303295 19:-1.147855 20:-2.107900 21:-0.680481 22:0.879995 23:-0.570909 24:-0.686609 25:-0.518509 26:-1.256884 27:-0.218994 28:0.626577 29:0.269470 30:-1.034443 31:-0.759672 32:-1.410983 33:0.667225 34:0.833066 35:0.511187 36:-0.632139 37:-0.423363 38:0.025574 39:-0.019080 40:-0.255830 41:0.062592 42:0.588047 43:1.071097 44:-1.142682 45:-0.822041 46:-1.280868 47:-1.567333 48:0.182046 49:-0.804283 50:0.446388 51:0.322434 52:-1.636331 53:-2.111811 54:-0.381701 55:0.357071 56:-0.284754 57:0.486891 58:-0.158131 59:-0.446037 60:1.282960 61:0.257447 62:2.265119 63:-0.212171 64:0.706619 65:0.840289 66:0.364578 67:-0.319810 68:-0.347701 69:0.540323 70:-0.160485
-1 1:1.883618 2:1.191898 3:0.153967 4:0.833138 5:-0.473868 6:-0.343379 7:-0.479409 8:-0.951632 9:-0.207675 10:1.602048 11:-1.668848 12:0.430923 13:-1.269549 14:-0.461398 15:-0.457737 16:1.795156 17:0.096431 18:-0.575914 19:-0.750602 20:-1.110324 21:0.217580 22:-0.699210 23:-0.323571 24:-0.491186 25:-0.152691 26:1.013387 27:-0.418017 28:0.908970 29:1.786694 30:-0.757676 31:-0.044905 32:1.029782 33:0.636342 34:0.217409 35:1.321500 36:-0.156753 37:2.520268 38:-0.039936 39:2.034704 40:-0.024276 41:-0.061678 42:0.534311 43:-0.144245 44:-1.338552 45:0.097414 46:-1.017742 47:0.386809 48:0.506333 49:-2.426585 50:-1.587227 51:0.374214 52:-1.216378 53:-2.140968 54:-1.455830 55:-0.960613 56:0.269271 57:0.582561 58:-0.319874 59:0.016861 60:0.330807 61:0.615165 62:1.268979 63:1.022882 64:0.055496 65:0.342488 66:-0.011354 67:-0.769028 68:-0.600139 69:0.450279 70:-0.101941
-1 1:-1.158555 2:0.259304 3:0.084112 4:-0.585763 5:0.185993 6:2.036910 7:1.458428 8:-0.356590 9:1.026073 10:0.833411 11:0.227963 12:0.504413 13:-0.819979 14:-1.185784 15:-0.708893 16:-0.021020 17:1.318587 18:-0.196915 19:0.276859 20:-1.023980 21:0.839426 22:-1.673750 23:-1.369117 24:-0.547804 25:0.012460 26:-0.717245 27:0.554957 28:0.631833 29:-0.267721 30:0.421309 31:-0.099170 32:-1.754624 33:-1.109762 34:-0.051591 35:0.805815 36:-0.629066 37:0.305768 38:1.797439 39:-0.987169 40:0.416751 41:-0.667106 42:1.101255 43:-0.461397 44:0.456540 45:0.326038 46:-1.360976 47:-1.186207 48:-0.359659 49:1.040947 50:1.061278 51:-0.756518 52:-0.416805 53:-1.216983 54:-0.452600 55:-0.776479 56:-1.122858 57:0.940170 58:1.062591 59:-0.059005 60:0.008754 61:0.195603 62:0.509109 63:0.677520 64:-0.669875 65:0.456521 66:-0.177388 67:-0.017383 68:-0.105436 69:-1.580812 70:-0.440462
-1 1:0.929983 2:0.241443 3:-0.445808 4:-0.017875 5:-0.183491 6:0.129110 7:-2.215473 8:-1.324080 9:1.363356 10:0.576305 11:-0.974179 12:0.343452 13:2.683760 14:0.240689 15:1.825919 16:0.838144 17:-1.432065 18:0.426906 19:-1.731607 20:1.156421 21:-0.600184 22:-0.535163 23:-0.994143 24:-0.860958 25:0.986787 26:-0.005277 27:1.299507 28:0.703189 29:-0.016682 30:-0.858314 31:0.248384 32:-0.309930 33:0.446657 34:-1.460365 35:0.096030 36:1.020628 37:-1.834565 38:1.227258 39:1.028451 40:0.337617 41:1.243400 42:-1.769781 43:-0.984920 44:-1.116058 45:2.929569 46:0.515450 47:-0.554269 48:-0.316835 49:-0.197294 50:0.098335 51:2.054461 52:-0.406729 53:-0.569040 54:-1.337691 55:1.176603 56:-0.025585 57:-0.168545 58:0.848704 59:0.485050 60:-1.510394 61:0.736979 62:-0.901673 63:-1.274786 64:-0.784211 65:0.609206 66:-0.801509 67:1.260670 68:1.103895 69:1.709729 70:-0.162468
-1 1:-0.300428 2:0.570992 3:0.700820 4:-0.369028 5:0.790197 6:0.771563 7:-0.778508 8:-2.254795 9:-0.189614 10:0.625092 11:0.286121 12:-0.610300 13:0.999233 14:-0.664762 15:-0.932428 16:0.529558 17:1.264617 18:-0.489942 19:0.860827 20:-1.104776 21:0.891546 22:0.844145 23:-0.667486 24:1.102131 25:-0.002165 26:0.143683 27:1.003356 28:-0.391382 29:-0.208268 30:-1.239920 31:0.515745 32:0.668514 33:1.369926 34:1.047908 35:-0.935587 36:-0.674662 37:0.377281 38:-1.256586 39:1.309722 40:1.664355 41:1.370914 42:0.306307 43:-0.827950 44:0.252701 45:-1.447292 46:-1.724857 47:0.481232 48:-0.455731 49:0.168726 50:-0.838322 51:-0.044587 52:-0.819586 53:-0.811521 54:0.502328 55:-0.829335 56:-0.854320 57:-0.281179 58:-0.585626 59:0.666047 60:1.330317 61:-0.546880 62:-0.436184 63:-1.001257 64:1.467618 65:0.977320 66:-1.388958 67:-0.093258 68:-0.066025 69:-0.424633 70:1.423317
-1 1:1.379861 2:0.638962 3:0.008174 4:-1.033663 5:0.437121 6:0.610493 7:-0.336679 8:-1.467591 9:0.280449 10:-0.013901 11:0.419966 12:-0.856520 13:0.217356 14:-0.846624 15:-1.137710 16:-0.154321 17:-0.325716 18:-0.218840 19:0.234158 20:0.968386 21:1.465266 22:-1.538987 23:-1.199558 24:0.508976 25:0.543136 26:-0.486919 27:0.522097 28:1.601666 29:-0.311324 30:0.367946 31:-0.572541 32:0.613548 33:-0.709590 34:0.907987 35:-2.514301 36:-0.748122 37:0.557746 38:0.629222 39:-0.814349 40:0.052147 41:-0.778685 42:-0.169413 43:-1.633471 44:-0.715862 45:-0.614210 46:-3.910139 47:0.531582 48:0.131477 49:0.718896 50:-1.604531 51:1.513754 52:0.255463 53:-0.524539 54:-0.506994 55:1.153512 56:0.584998 57:-0.706738 58:1.086343 59:-0.164989 60:0.474917 61:-0.329601 62:0.599187 63:0.538518 64:0.017992 65:0.758255 66:0.804028 67:-0.258303 68:-0.557047 69:0.486731 70:0.979310
-1 1:0.533810 2:-1.465497 3:0.095690 4:-1.299926 5:0.384047 6:-1.371872 7:-0.394280 8:1.058760 9:0.901661 10:0.849088 11:0.062602 12:-1.876027 13:-1.115536 14:-2.359608 15:0.372073 16:0.030637 17:0.410987 18:1.290581 19:-1.008152 20:-0.611861 21:-0.662031 22:0.056662 23:-1.192727 24:1.438207 25:-0.480172 26:0.430132 27:-0.205837 28:-0.440101 29:-1.184792 30:0.748889 31:-0.589210 32:0.276299 33:-1.251260 34:-1.448251 35:0.412397 36:-2.177594 37:1.652772 38:0.004482 39:0.029397 40:-1.067278 41:-1.458157 42:-0.693347 43:0.403844 44:1.011474 45:2.032932 46:0.868384 47:-0.546228 48:2.116145 49:-0.786927 50:0.497919 51:1.911895 52:-0.638302 53:1.151817 54:-2.254669 55:0.423858 56:1.557543 57:-0.005998 58:1.222332 59:1.443053 60:-1.084409 61:-1.278301 62:-0.685993 63:-0.505986 64:0.187407 65:-1.462223 66:-0.217424 67:1.509828 68:-0.770747 69:1.255836 70:-0.640930
-1 1:0.679419 2:-1.463344 3:-1.107159 4:-1.606457 5:1.153212 6:-0.516646 7:-0.030266 8:-0.611229 9:1.492165 10:-1.640301 11:-0.622076 12:1.524682 13:-0.868413 14:-0.485400 15:-0.987790 16:0.253900 17:-1.667454 18:-0.615986 19:-2.191922 20:0.535351 21:-1.115483 22:-1.563692 23:1.139681 24:0.641114 25:-0.537529 26:-0.733557 27:0.197736 28:0.622041 29:-0.032190 30:-0.530541 31:0.781447 32:0.300027 33:-0.687944 34:0.971823 35:-0.306924 36:-0.002913 37:0.278125 38:-0.089156 39:0.830876 40:-0.239549 41:-0.982236 42:-0.346607 43:-1.958018 44:-0.137492 45:-0.444564 46:-0.175883 47:-0.387503 48:1.951318 49:-0.163987 50:-0.069671 51:-1.381816 52:-0.128649 53:-1.666847 54:-2.486891 55:0.497425 56:-0.585698 57:0.183676 58:0.747313 59:1.080136 60:1.221642 61:0.524871 62:-0.124177 63:-0.431853 64:-0.580517 65:-1.453742 66:-0.377146 67:0.185474 68:0.518245 69:0.825137 70:-0.351492
-1 1:1.815887 2:1.594688 3:2.432752 4:0.877273 5:0.873310 6:-0.622389 7:-0.318201 8:-0.580053 9:0.757360 10:0.016379 11:0.239998 12:-0.009141 13:-0.224290 14:0.643810 15:-1.052935 16:-0.482081 17:1.006093 18:-2.942935 19:0.282975 20:-0.418843 21:2.935235 22:0.757723 23:-0.186650 24:2.813310 25:0.489096 26:-0.970871 27:0.200684 28:-0.066909 29:1.653310 30:-0.443794 31:-0.483935 32:0.822114 33:-0.082980 34:-0.859339 35:0.071051 36:-1.537078 37:1.966045 38:-0.677124 39:-1.554938 40:-0.769519 41:0.305886 42:-0.156383 43:-0.844439 44:-0.484289 45:-0.135093 46:0.354198 47:0.230391 48:0.385412 49:1.408991 50:0.238864 51:0.068892 52:-0.124807 53:-0.756986 54:1.090208 55:0.095862 56:-0.743448 57:-0.412447 58:0.675932 59:-0.426678 60:0.605689 61:-0.166034 62:-1.208997 63:1.949869 64:-0.386242 65:1.672886 66:-0.128006 67:-0.541216 68:0.513037 69:0.002593 70:-0.348942
-1 1:-1.734033 2:-0.468333 3:0.698065 4:1.622806 5:0.774305 6:-0.279082 7:0.608826 8:-1.614692 9:-1.597357 10:-0.566194 11:-0.066478 12:-0.839859 13:0.385543 14:0.346113 15:0.496304 16:-1.845812 17:-1.209925 18:-1.087377 19:0.272583 20:-0.948847 21:0.401266 22:0.698123 23:0.321847 24:-0.037576 25:-0.025560 26:-1.431022 27:0.227612 28:0.153020 29:-0.031698 30:1.592451 31:-0.915234 32:-0.025872 33:-0.250850 34:0.753364 35:-0.400819 36:1.113742 37:0.881470 38:0.161621 39:0.098683 40:-0.481067 41:0.156579 42:-1.113020 43:1.636605 44:-1.418853 45:1.088950 46:-0.861964 47:0.971647 48:0.725157 49:0.842419 50:-0.015904 51:0.435040 52:1.813860 53:0.195364 54:0.355025 55:-0.488884 56:-1.076493 57:-1.223758 58:-0.664475 59:0.922402 60:1.083803 61:0.961478 62:0.419664 63:-0.246967 64:-0.415627 65:0.772908 66:1.150849 67:0.393362 68:-0.456910 69:0.464266 70:0.216172
-1 1:1.045856 2:0.354017 3:-1.374690 4:0.786103 5:-0.495204 6:-0.214907 7:0.928947 8:0.852689 9:0.312742 10:-1.667061 11:-1.034592 12:1.658362 13:-0.491208 14:1.123075 15:0.110211 16:0.030890 17:0.862864 18:0.704118 19:1.282681 20:0.237958 21:0.168222 22:0.169884 23:-1.613177 24:0.938876 25:-1.260178 26:0.055739 27:0.572308 28:-1.571247 29:-1.719932 30:-3.299227 31:-0.149316 32:0.021665 33:-0.062903 34:-1.665236 35:0.172204 36:-0.330948 37:-0.632580 38:-1.116295 39:-0.421074 40:2.492380 41:-0.264510 42:0.583639 43:0.400151 44:0.509732 45:-0.792517 46:0.626904 47:0.080131 48:-0.329776 49:-1.194785 50:0.968387 51:1.093600 52:0.346599 53:-0.810464 54:-0.653407 55:-0.617351 56:0.503630 57:-0.094804 58:-0.457139 59:1.557906 60:-1.170225 61:-0.340719 62:-0.857987 63:0.229814 64:0.614953 65:-0.184892 66:-0.113010 67:-0.566421 68:-0.227639 69:-1.711451 70:0.295817
-1 1:1.578203 2:1.080442 3:-0.768315 4:-1.628786 5:-0.812790 6:0.221046 7:-0.482143 8:-0.027052 9:-1.232840 10:0.396030 11:0.678335 12:-0.913165 13:2.170787 14:2.164930 15:-0.221924 16:0.693701 17:0.682761 18:0.550501 19:2.037468 20:1.233491 21:2.341656 22:0.632750 23:0.020372 24:1.034749 25:-0.402150 26:-2.562445 27:0.267573 28:0.579671 29:0.315948 30:-0.644317 31:0.562204 32:0.199777 33:1.213801 34:0.134784 35:-0.517399 36:0.236858 37:1.442413 38:0.230618 39:1.553517 40:0.385521 41:2.270193 42:-1.535828 43:0.962112 44:0.119682 45:-0.017396 46:0.797774 47:-0.853610 48:-0.144143 49:-0.765069 50:0.709289 51:-0.965583 52:1.110837 53:-1.144605 54:0.381524 55:1.114071 56:-0.451740 57:0.698768 58:-1.685020 59:0.548467 60:0.359423 61:-0.588343 62:1.610886 63:0.328491 64:-0.327469 65:0.660989 66:1.349330 67:-0.547444 68:1.058395 69:-0.220571 70:0.086610
-1 1:0.589252 2:-0.837939 3:-0.452538 4:-1.419508 5:0.467892 6:0.622448 7:-0.901599 8:1.110636 9:0.091035 10:0.054898 11:-0.162607 12:-0.727187 13:0.915027 14:-0.166979 15:-0.305201 16:-0.636212 17:-1.205283 18:0.155690 19:-1.498517 20:-1.318659 21:0.402036 22:-1.635324 23:-0.065448 24:-0.281398 25:0.596769 26:2.033245 27:-1.214062 28:-0.176905 29:-0.171254 30:-0.788090 31:-1.291363 32:1.134063 33:-0.952185 34:-2.970219 35:-0.201319 36:-0.233268 37:-0.048559 38:0.959469 39:-0.549054 40:0.272655 41:-0.018214 42:-1.067829 43:-0.951703 44:1.791437 45:-0.169026 46:0.454803 47:-0.380209 48:-0.900569 49:0.014144 50:-0.402435 51:-0.134285 52:-0.627525 53:-0.939691 54:1.145655 55:-0.044602 56:0.532652 57:0.185695 58:0.513026 59:-0.945307 60:2.204266 61:1.018181 62:0.945762 63:0.375200 64:-0.467012 65:-0.136028 66:-0.064528 67:0.231871 68:0.552896 69:-0.998569 70:0.477411
-1 1:-2.125870 2:-0.747558 3:0.394858 4:0.246431 5:-1.156747 6:0.683744 7:0.963212 8:1.366455 9:-0.274174 10:0.386372 11:0.640430 12:1.687331 13:-0.010430 14:-0.892238 15:-0.501660 16:0.182721 17:-1.196001 18:0.616375 19:-0.814300 20:-0.573345 21:0.842275 22:0.554566 23:-0.658507 24:-0.579794 25:-2.274256 26:-0.285769 27:0.578036 28:0.822425 29:-0.373045 30:-0.199376 31:0.257542 32:1.233375 33:-1.136861 34:-0.156341 35:-0.248278 36:-1.887128 37:-1.283673 38:-0.712584 39:-0.617240 40:-0.339734 41:-1.177884 42:0.361387 43:-0.641239 44:-1.663115 45:2.176223 46:0.370190 47:1.527850 48:-1.752225 49:-1.399952 50:-0.230962 51:0.457987 52:-0.215747 53:-0.875920 54:-2.468135 55:0.464690 56:-0.429120 57:-1.452765 58:1.088815 59:-0.158837 60:1.515209 61:2.208968 62:-0.383692 63:-1.003834 64:-1.417875 65:-1.093383 66:-0.711726 67:-0.887240 68:1.217226 69:-0.669720 70:-0.731951
-1 1:0.304712 2:1.878189 3:0.066978 4:-0.429821 5:-0.009725 6:0.451495 7:1.534623 8:1.490475 9:0.022754 10:-0.372972 11:2.208828 12:-0.795264 13:0.835431 14:0.046855 15:0.194427 16:-3.004731 17:-0.558251 18:-2.400538 19:0.776015 20:1.376373 21:0.619628 22:0.495875 23:1.093824 24:-0.978715 25:-1.155170 26:1.372968 27:1.443821 28:-0.011528 29:1.148209 30:-0.084771 31:1.605325 32:1.311640 33:1.335782 34:2.260673 35:-0.651861 36:1.377846 37:1.376261 38:-0.819814 39:-1.485050 40:-0.154884 41:2.110394 42:-0.926620 43:-1.530390 44:0.228473 45:-1.253781 46:-0.797054 47:0.758668 48:1.352598 49:-0.251112 50:0.931332 51:-0.752981 52:0.839015 53:-0.645959 54:0.583833 55:1.357055 56:0.990853 57:-0.824587 58:1.273836 59:-0.334206 60:1.095088 61:1.758911 62:0.993837 63:0.558478 64:2.380981 65:0.738368 66:0.632761 67:-1.084915 68:-2.413712 69:-1.070034 70:-0.609459
-1 1:-0.140382 2:0.856523 3:-0.750344 4:0.259928 5:-1.176688 6:-0.212706 7:0.789047 8:-0.666463 9:0.021838 10:0.550024 11:-0.398077 12:-0.378210 13:-0.960278 14:1.476830 15:-0.144048 16:-0.959142 17:0.215597 18:0.360137 19:-0.555151 20:-0.433411 21:0.728347 22:0.244931 23:-0.774336 24:0.518384 25:2.122238 26:0.554807 27:-1.078662 28:0.494633 29:0.163265 30:-0.498804 31:0.685544 32:-0.394757 33:0.178784 34:-0.899421 35:1.430721 36:0.063652 37:1.389870 38:-1.018148 39:0.188838 40:1.126007 41:0.750691 42:-1.932508 43:1.665456 44:-0.561444 45:-0.120019 46:1.372954 47:0.340936 48:-0.802770 49:-0.418703 50:-1.487116 51:0.255633 52:1.829851 53:1.985074 54:-0.163942 55:-0.142391 56:-0.221466 57:0.994125 58:-0.663595 59:0.242749 60:-1.245179 61:0.329352 62:-0.535558 63:-0.533239 64:0.078207 65:2.394828 66:-0.868208 67:-0.261324 68:-0.542841 69:-0.351893 70:-0.731291
-1 1:-0.240164 2:0.911343 3:-0.678951 4:-0.200609 5:-0.482314 6:-1.143853 7:-2.051124 8:0.309899 9:-2.008430 10:0.218652 11:0.357287 12:-0.851412 13:-0.584240 14:-2.129640 15:2.289213 16:-0.269894 17:2.066193 18:-0.923150 19:-0.628990 20:-0.603982 21:-0.218673 22:1.088790 23:-0.253112 24:-0.538934 25:0.052043 26:0.069166 27:-1.622461 28:1.507055 29:0.915004 30:-1.311158 31:0.118706 32:-0.227743 33:1.025761 34:0.340254 35:-0.111648 36:-0.587380 37:-0.305478 38:0.767710 39:-0.262230 40:0.077843 41:0.346867 42:1.797567 43:-0.733036 44:1.976906 45:0.478809 46:0.089929 47:1.068313 48:1.070613 49:-0.481060 50:1.729027 51:0.139615 52:0.313598 53:0.753371 54:-0.428986 55:-1.408845 56:-0.679280 57:0.029283 58:0.249789 59:-0.862874 60:1.201309 61:-0.102356 62:-1.404158 63:0.497731 64:0.374789 65:1.125213 66:-0.327060 67:-0.508295 68:0.591283 69:-0.911955 70:1.035058
-1 1:-1.421649 2:-0.509286 3:-1.606691 4:-2.065289 5:-1.379852 6:1.739930 7:2.470419 8:-0.158042 9:1.504566 10:0.956419 11:-0.991384 12:-0.283573 13:-1.057499 14:-1.499287 15:-0.578243 16:0.397005 17:0.492300 18:0.053116 19:-0.441102 20:-1.156701 21:-0.479068 22:0.929929 23:0.281209 24:-0.154640 25:-0.952446 26:-1.113153 27:1.948328 28:0.646451 29:0.913107 30:-0.010327 31:-0.172599 32:-0.733352 33:-0.046204 34:0.184354 35:-0.062864 36:1.693531 37:-0.199957 38:1.720714 39:0.387406 40:0.989439 41:-0.727270 42:0.104919 43:-1.015940 44:1.196955 45:-0.968014 46:0.530769 47:0.498909 48:0.564209 49:-0.388344 50:-0.420682 51:-0.853473 52:1.226806 53:0.088862 54:-1.081887 55:0.554819 56:0.002890 57:1.422884 58:1.257541 59:-1.751602 60:-1.494853 61:0.673550 62:0.199711 63:0.738049 64:2.169017 65:0.744362 66:1.438721 67:-1.888819 68:-1.218228 69:1.900940 70:-0.769756
-1 1:1.188979 2:0.423763 3:0.793582 4:-1.042878 5:-0.228787 6:-0.161718 7:0.726188 8:-1.241856 9:-0.643958 10:0.736518 11:0.923819 12:-0.483565 13:1.756998 14:-0.314538 15:0.757678 16:0.378099 17:0.559779 18:-0.438842 19:1.875111 20:0.056151 21:0.218023 22:-0.965381 23:-0.023357 24:0.574327 25:-1.709835 26:1.014829 27:-0.548850 28:1.724979 29:0.015360 30:0.885865 31:1.146671 32:-0.393583 33:-0.621390 34:-1.370409 35:1.304993 36:-0.596313 37:1.841773 38:-1.051369 39:1.306221 40:-0.268599 41:-0.395227 42:0.309695 43:0.459480 44:0.054073 45:0.204936 46:1.666478 47:-0.762136 48:-1.262073 49:0.231519 50:-0.970766 51:1.304263 52:-0.757995 53:0.667421 54:0.513619 55:0.904068 56:0.780006 57:2.876240 58:-1.307018 59:-0.988419 60:-2.058292 61:0.916650 62:-0.880048 63:-1.139997 64:-0.546790 65:-0.840303 66:-0.562872 67:0.186497 68:-0.362140 69:2.693674 70:-0.295595
-1 1:1.965198 2:-0.839661 3:-0.067595 4:-0.426548 5:-0.745709 6:0.082104 7:-0.245287 8:0.616134 9:0.794657 10:-0.566257 11:0.503809 12:0.826076 13:0.742655 14:0.160362 15:1.209145 16:-2.341444 17:-0.534365 18:1.625253 19:0.500681 20:0.289539 21:-1.375023 22:1.056506 23:-0.402875 24:-0.145330 25:2.021491 26:0.607970 27:-1.854559 28:2.695897 29:-0.565828 30:-0.089274 31:-1.009502 32:-0.236872 33:2.764312 34:1.330392 35:0.773784 36:-0.409364 37:0.588107 38:0.338774 39:0.903060 40:1.055983 41:0.205771 42:-0.325270 43:-0.371309 44:-1.341270 45:-0.338992 46:1.151113 47:0.567493 48:-0.914916 49:1.203165 50:-0.376510 51:2.232833 52:-0.351519 53:0.812590 54:-1.007640 55:0.821159 56:-0.469079 57:-0.932126 58:-1.583480 59:1.469222 60:0.426289 61:0.757933 62:0.484572 63:-0.557051 64:0.233686 65:-0.137877 66:-1.206752 67:-1.362099 68:0.073436 69:0.785722 70:-1.137621
-1 1:-0.298630 2:-0.831966 3:-0.356823 4:0.212889 5:0.230571 6:0.800187 7:-0.314321 8:0.097931 9:-0.700652 10:-2.030270 11:-2.280736 12:0.164322 13:0.082618 14:0.676157 15:-0.853223 16:-1.128355 17:-0.275256 18:-0.990082 19:1.352500 20:-0.624775 21:-0.124875 22:-1.847599 23:1.280357 24:0.015883 25:0.535044 26:1.441771 27:2.508549 28:-0.084161 29:0.126133 30:-0.723839 31:0.763676 32:0.007234 33:0.290886 34:-1.283035 35:-0.305289 36:1.671233 37:0.352707 38:-0.062758 39:-1.281176 40:-1.040069 41:0.010806 42:0.444274 43:0.691924 44:0.510327 45:0.134134 46:-1.310966 47:0.525903 48:-1.184250 49:0.673710 50:0.511582 51:-0.661619 52:-0.858610 53:-1.798827 54:0.741033 55:-0.615784 56:-2.151506 57:-0.914648 58:-1.393390 59:-0.204861 60:-0.109756 61:0.292106 62:-0.147773 63:0.933483 64:1.115886 65:-0.735449 66:0.149556 67:-0.288340 68:1.285937 69:0.364283 70:1.357676
-1 1:-0.837452 2:0.067380 3:0.218853 4:-0.060196 5:0.777229 6:0.197009 7:0.269111 8:-1.128169 9:0.903162 10:1.743370 11:-0.332644 12:0.369732 13:-0.962467 14:-0.026801 15:-1.806669 16:-0.122031 17:0.778826 18:0.212826 19:0.351406 20:0.169346 21:0.680267 22:0.377972 23:1.385304 24:-0.259820 25:-0.081641 26:-1.348196 27:1.098632 28:0.380534 29:0.025406 30:-0.827366 31:-0.051736 32:-1.515208 33:-0.279789 34:0.371263 35:0.831803 36:1.000443 37:-0.087327 38:-1.309950 39:1.196708 40:-0.668715 41:1.349960 42:1.437236 43:-2.314770 44:0.222293 45:1.915060 46:0.444966 47:-1.618215 48:-0.069268 49:0.335640 50:0.499949 51:0.074086 52:0.041991 53:-1.974909 54:0.248028 55:0.076906 56:0.900588 57:1.144572 58:0.270677 59:0.018826 60:-1.027307 61:1.363016 62:-0.533098 63:-0.070207 64:0.313299 65:-0.953777 66:1.943812 67:0.286666 68:0.863994 69:-0.087441 70:-0.526070
-1 1:0.656687 2:1.145956 3:0.447600 4:0.254974 5:1.532659 6:-0.369393 7:0.224256 8:1.065234 9:0.049675 10:1.527312 11:-0.897248 12:-0.925297 13:1.899083 14:-0.476441 15:2.403378 16:-0.927436 17:0.057295 18:-0.028983 19:1.029038 20:0.870360 21:0.698811 22:-0.791736 23:1.418522 24:-0.376834 25:-0.937264 26:-0.721230 27:0.792102 28:-0.225124 29:0.625361 30:-0.704944 31:-1.894828 32:-1.469146 33:1.286952 34:2.254546 35:1.076462 36:-0.615900 37:-0.363518 38:-1.025314 39:-0.160328 40:0.970120 41:-1.227728 42:-0.184984 43:-1.381209 44:-0.037633 45:-0.242884 46:-0.876467 47:-1.776160 48:-0.348946 49:-1.408506 50:0.345061 51:0.858861 52:0.449577 53:0.228571 54:-0.240337 55:-0.414091 56:-0.817889 57:0.310700 58:-1.273315 59:-0.786652 60:1.421847 61:1.536273 62:-0.434589 63:-1.153652 64:-0.308173 65:0.390912 66:-0.295965 67:0.727490 68:2.369303 69:0.345611 70:2.087200
-1 1:0.090835 2:0.479313 3:0.695791 4:-0.471530 5:-1.878511 6:0.514534 7:-1.274133 8:-0.014727 9:-1.067602 10:1.058503 11:-0.462599 12:0.019661 13:-0.201839 14:-0.153056 15:-0.372448 16:-0.466010 17:0.610638 18:-0.722616 19:-1.537795 20:-0.331939 21:0.232774 22:2.038257 23:-0.030140 24:-1.773964 25:0.557751 26:0.322049 27:0.668006 28:1.056878 29:-1.502700 30:0.057118 31:1.351421 32:-1.044512 33:-0.478920 34:1.340211 35:-0.524146 36:-0.631481 37:1.159952 38:-1.990355 39:-0.845992 40:0.898670 41:-0.392254 42:-0.436710 43:0.250387 44:-0.445884 45:0.204048 46:0.456933 47:-2.448862 48:-1.621975 49:-1.825630 50:0.484884 51:0.328240 52:-0.318050 53:-0.771094 54:-0.329940 55:0.188708 56:-0.587960 57:0.306546 58:-0.429548 59:0.852381 60:-0.449678 61:-1.506829 62:-0.385876 63:-0.558455 64:1.004263 65:-0.753423 66:-0.170664 67:-0.895328 68:-0.266304 69:0.184963 70:-1.090494
-1 1:-0.388449 2:-0.576743 3:0.245644 4:1.153481 5:-1.670776 6:0.975028 7:0.976577 8:-1.720175 9:1.731551 10:1.329541 11:-0.558757 12:1.755802 13:-1.136520 14:0.078473 15:1.109314 16:-0.568549 17:-0.127414 18:-1.734121 19:-0.042947 20:-2.012231 21:2.471700 22:0.835018 23:-0.172049 24:-0.009476 25:0.337635 26:-0.338203 27:1.878223 28:0.276029 29:0.092791 30:1.391156 31:-0.813656 32:1.326542 33:2.008369 34:0.121282 35:-0.832604 36:-0.290103 37:1.401360 38:-0.631246 39:-0.814571 40:1.203580 41:-0.537666 42:-0.711408 43:0.146447 44:-0.225122 45:-1.004866 46:0.994139 47:0.697521 48:-0.254571 49:0.276296 50:1.312862 51:0.979485 52:0.713009 53:0.246730 54:1.211062 55:-0.555039 56:1.627071 57:0.727159 58:1.592117 59:0.427093 60:0.041765 61:-0.792669 62:0.520758 63:1.045831 64:-1.024152 65:0.615208 66:0.490785 67:0.835260 68:0.963110 69:0.184521 70:2.057453
-1 1:0.223602 2:1.826517 3:-0.654908 4:-1.173746 5:0.778121 6:-0.807514 7:-1.191544 8:-0.340492 9:-0.523528 10:-0.818288 11:-0.412424 12:0.027980 13:1.255953 14:-0.771995 15:0.112776 16:0.565913 17:0.378205 18:0.783523 19:-1.629088 20:-0.946539 21:-0.685115 22:-0.342670 23:0.818226 24:0.897410 25:2.862076 26:-0.369841 27:0.125549 28:0.854891 29:1.230000 30:-0.449935 31:0.190071 32:-0.649640 33:-1.594531 34:0.380627 35:-2.059003 36:0.538974 37:-0.259389 38:-1.017567 39:-0.616652 40:0.373290 41:0.954448 42:-0.009812 43:-0.809983 44:0.627512 45:-0.476583 46:-0.719194 47:0.893542 48:-0.211334 49:-0.818815 50:-0.091108 51:0.405514 52:0.344965 53:-1.068615 54:-0.430268 55:0.710199 56:-1.584149 57:1.462589 58:-0.385560 59:-0.660909 60:-1.386202 61:0.467658 62:0.625463 63:0.310230 64:-0.080314 65:1.604643 66:-0.660186 67:0.841014 68:-0.589763 69:-1.446701 70:0.269429
-1 1:1.726322 2:0.252953 3:-0.005893 4:-0.140570 5:-1.614379 6:-1.432229 7:-2.045626 8:-1.008447 9:0.130754 10:0.638105 11:-1.121420 12:1.026077 13:-1.846210 14:-0.841135 15:-1.525210 16:-0.136117 17:1.237364 18:0.515404 19:-0.389687 20:-1.832512 21:0.647791 22:-0.767724 23:0.944512 24:-2.425645 25:-2.203412 26:-1.215021 27:1.440045 28:2.351791 29:1.862587 30:0.096199 31:0.138983 32:1.079637 33:0.417080 34:0.489364 35:1.071575 36:-0.299715 37:-1.332426 38:0.032827 39:0.379853 40:-1.573539 41:1.812512 42:1.224063 43:0.031920 44:2.004418 45:-1.143786 46:-0.599315 47:1.087724 48:0.497000 49:-0.411379 50:0.569722 51:-0.845821 52:-0.799862 53:-0.527145 54:0.162043 55:0.363526 56:-0.540596 57:1.519204 58:-1.580879 59:0.380414 60:-0.035436 61:-1.608152 62:0.499205 63:-0.099051 64:-0.832798 65:-0.992100 66:-0.029977 67:0.629476 68:-2.887464 69:-0.852303 70:-2.286551
-1 1:0.843089 2:-1.872649 3:1.107818 4:-1.364618 5:0.090822 6:1.228280 7:1.165680 8:-2.024110 9:0.141083 10:0.157991 11:0.363715 12:0.136541 13:-1.461724 14:0.260603 15:-1.218375 16:0.584786 17:2.062841 18:0.013892 19:0.654690 20:0.737295 21:0.130426 22:0.968745 23:1.603148 24:-2.112425 25:-0.404836 26:-0.328825 27:-0.476984 28:-1.539924 29:-0.602888 30:0.105221 31:-0.203331 32:-0.223452 33:-1.226837 34:0.275824 35:1.090701 36:-1.473300 37:-1.160189 38:1.355813 39:0.252743 40:-1.045165 41:-1.060362 42:0.384713 43:0.592946 44:0.819578 45:1.019770 46:0.208014 47:-0.899318 48:-1.800209 49:-0.275440 50:-1.604627 51:1.395519 52:0.616814 53:-0.975598 54:0.747468 55:0.098790 56:0.592908 57:-0.144092 58:0.341270 59:0.234309 60:0.089271 61:0.704478 62:-0.434013 63:0.466503 64:-0.903260 65:0.953559 66:-0.425746 67:0.435062 68:0.746845 69:-1.156577 70:0.010583
-1 1:0.562387 2:-2.338443 3:-0.650063 4:-0.730589 5:-0.501469 6:-0.307364 7:-0.186782 8:0.425424 9:-0.836998 10:-0.394128 11:-1.469371 12:0.052102 13:-0.726479 14:1.300009 15:-0.624610 16:0.275360 17:-1.960187 18:-0.079232 19:0.270289 20:0.912620 21:0.257996 22:-0.225921 23:0.993802 24:0.160465 25:-1.276030 26:0.487380 27:1.159262 28:-0.483100 29:0.714204 30:-0.261329 31:2.336615 32:0.067002 33:-0.521643 34:-0.811124 35:-0.392000 36:0.446035 37:-1.539042 38:0.632135 39:0.477583 40:2.230235 41:-0.385926 42:-0.028377 43:0.298693 44:1.249567 45:0.793926 46:-0.651945 47:0.871585 48:0.276774 49:-0.171070 50:0.381192 51:-1.323557 52:-0.610519 53:-0.659881 54:-0.584754 55:1.444379 56:0.040024 57:0.850473 58:1.767790 59:0.087318 60:-0.453295 61:-0.769238 62:-1.483209 63:2.603620 64:-1.115309 65:-0.671058 66:0.099788 67:0.261937 68:2.247827 69:-0.086916 70:-1.684653
-1 1:0.919983 2:-0.018946 3:-1.944512 4:0.111810 5:-0.543680 6:0.187514 7:0.042920 8:-0.990719 9:-0.948117 10:0.658176 11:1.880548 12:-0.612387 13:1.099724 14:0.410204 15:1.586482 16:0.569781 17:-0.395695 18:-0.199308 19:0.521677 20:0.053851 21:0.425576 22:1.101428 23:-0.171020 24:-0.220941 25:1.096416 26:-0.733775 27:1.457501 28:-0.197228 29:-0.152315 30:-0.182575 31:1.207373 32:0.577373 33:-0.529014 34:0.714807 35:-0.399636 36:-0.178099 37:-0.216188 38:0.566832 39:1.200810 40:-1.312311 41:1.151560 42:-0.251383 43:-0.320770 44:0.149814 45:-0.002056 46:-0.632285 47:0.058991 48:0.576774 49:-1.503867 50:-1.748446 51:-1.322950 52:0.790479 53:-0.084116 54:-0.612692 55:-0.888215 56:-1.651515 57:3.196748 58:-1.073853 59:-0.427015 60:0.133869 61:0.484825 62:1.614105 63:-0.443363 64:-0.987797 65:0.719257 66:0.216811 67:-0.550282 68:0.620325 69:-0.569922 70:0.624664
-1 1:1.482399 2:0.703866 3:1.818659 4:-0.505886 5:-0.275333 6:-0.937160 7:-1.587301 8:-1.610213 9:0.830575 10:-2.252851 11:0.204767 12:-1.631541 13:0.051895 14:0.211146 15:1.078176 16:0.243535 17:0.479181 18:-0.236968 19:-0.651547 20:2.312893 21:0.510430 22:-0.624452 23:-0.253805 24:0.360208 25:-1.145720 26:-0.603880 27:2.191754 28:-2.738975 29:2.324475 30:-0.125815 31:0.410539 32:1.073354 33:-0.663991 34:1.434390 35:0.462613 36:0.529494 37:-0.010628 38:0.517051 39:0.669093 40:-0.657153 41:-0.825271 42:0.756339 43:-0.580339 44:-0.627529 45:-0.455225 46:-1.757901 47:0.484740 48:2.026543 49:-0.884009 50:-2.680171 51:-0.412038 52:-0.502208 53:0.586653 54:-0.142174 55:0.009996 56:-0.696955 57:-0.691820 58:0.176940 59:-0.968187 60:-0.986694 61:-0.101438 62:-0.598828 63:-0.267118 64:1.267480 65:-0.389853 66:-0.735253 67:1.004174 68:1.336611 69:-0.607959 70:-1.161499
-1 1:0.474626 2:-0.535058 3:0.620793 4:0.191519 5:0.548809 6:0.170136 7:0.049961 8:-0.659258 9:0.129412 10:1.635642 11:-0.752175 12:1.116679 13:-0.395420 14:0.792426 15:-1.343285 16:1.135851 17:0.420588 18:0.599887 19:2.374131 20:-0.597001 21:1.440647 22:1.275643 23:1.224753 24:-0.282055 25:0.885791 26:-0.450864 27:-0.093613 28:-0.253795 29:-0.212614 30:0.155470 31:-1.604814 32:-0.778223 33:-1.416961 34:-0.877699 35:0.295310 36:-0.450086 37:-0.561998 38:-1.827920 39:1.342312 40:-1.067336 41:2.330386 42:-0.477850 43:0.579481 44:0.583595 45:1.285606 46:0.491231 47:-0.373130 48:0.333042 49:0.217516 50:0.823712 51:-0.993082 52:-0.024195 53:1.382229 54:0.009039 55:1.169499 56:0.690161 57:-1.134309 58:-2.178702 59:-0.093261 60:0.231715 61:1.263666 62:0.520418 63:-0.179334 64:-0.511666 65:-0.858162 66:0.875940 67:-1.501718 68:-1.148413 69:0.759092 70:0.394838
-1 1:-0.091731 2:-0.700652 3:-1.524820 4:-1.821374 5:0.936253 6:-1.774700 7:-0.672397 8:-0.353996 9:2.156380 10:-0.869365 11:0.001859 12:-0.793896 13:0.520590 14:-1.265093 15:-0.394574 16:-1.663601 17:1.704216 18:0.668619 19:1.272291 20:0.319329 21:1.274999 22:-0.497733 23:-0.653581 24:1.364542 25:0.768465 26:-0.535378 27:-0.349707 28:-1.306119 29:-0.642641 30:-0.370263 31:0.107784 32:-0.542745 33:0.140706 34:-0.023575 35:-0.947201 36:0.136358 37:0.997125 38:1.087767 39:0.984322 40:-0.604962 41:-0.649199 42:0.985718 43:0.377192 44:1.092704 45:-0.525175 46:-1.110212 47:0.044394 48:0.099116 49:-0.746102 50:-0.488445 51:0.597403 52:0.913619 53:1.814915 54:-2.077446 55:2.233322 56:-0.845648 57:-0.422331 58:-1.584270 59:0.501580 60:-0.749715 61:-0.633207 62:0.996956 63:-0.575936 64:0.755302 65:-0.704250 66:-0.025243 67:0.995129 68:0.432406 69:-0.797759 70:0.609448
-1 1:0.470432 2:0.647021 3:-0.000526 4:-1.379867 5:-1.209898 6:-0.297316 7:0.930479 8:0.496693 9:0.759221 10:1.346272 11:0.724066 12:-2.094302 13:-0.149246 14:-1.044101 15:-0.210506 16:-0.736572 17:-1.670210 18:0.314444 19:0.595426 20:-0.256733 21:0.439208 22:0.807804 23:0.642858 24:1.183095 25:0.533042 26:-1.284789 27:-0.330176 28:1.605149 29:0.989984 30:-0.884204 31:-1.394566 32:-1.685086 33:-0.442523 34:-0.171409 35:-0.284422 36:0.436370 37:-1.500772 38:-0.221130 39:-0.253855 40:-1.471661 41:-0.309581 42:0.482338 43:0.080310 44:-1.480706 45:-1.044435 46:-1.620060 47:-0.391505 48:-0.476281 49:0.063904 50:-1.829121 51:0.822765 52:-0.190646 53:2.272797 54:-0.432818 55:-0.077568 56:1.685745 57:0.432434 58:1.434666 59:-0.515675 60:-0.728436 61:0.465308 62:1.606163 63:-0.331349 64:1.212075 65:0.231617 66:-0.395781 67:0.242013 68:-1.075411 69:0.534949 70:2.378274
-1 1:-1.429116 2:-0.204030 3:-1.043889 4:1.601791 5:1.488390 6:0.973197 7:0.132669 8:0.435678 9:-1.519322 10:-0.296920 11:0.091208 12:1.227311 13:-0.223054 14:0.122238 15:0.505779 16:-0.595481 17:1.262776 18:-0.557597 19:-0.525338 20:-0.100431 21:-1.442371 22:-1.178124 23:0.351928 24:0.754229 25:0.593571 26:-2.557368 27:0.534211 28:0.439028 29:-0.232233 30:0.363300 31:-0.705016 32:1.422719 33:1.357470 34:-0.094184 35:-1.269759 36:-0.666085 37:-0.297289 38:0.270108 39:-0.619063 40:0.881914 41:-1.388130 42:0.811419 43:-0.327711 44:0.939848 45:-0.375687 46:-1.878315 47:-1.713851 48:1.563575 49:2.032093 50:-0.424517 51:1.899839 52:0.040259 53:-1.576739 54:-0.073080 55:-1.751066 56:1.594191 57:2.034096 58:-0.289746 59:-1.060834 60:-0.047658 61:-0.044125 62:0.436267 63:0.067932 64:-0.967726 65:-1.073966 66:2.857237 67:0.895752 68:-0.368907 69:-1.841024 70:0.502043
-1 1:-0.211153 2:-1.827758 3:0.701220 4:-0.885618 5:0.300257 6:-1.355441 7:0.234017 8:-0.525119 9:1.818064 10:2.090967 11:1.474059 12:-1.995060 13:-0.035207 14:-1.835408 15:0.369768 16:0.201661 17:2.552837 18:0.803296 19:-0.433907 20:-0.811870 21:-1.033038 22:0.496138 23:-0.158873 24:-0.766277 25:-1.009463 26:2.035132 27:-0.218588 28:1.655464 29:-1.392699 30:-0.582818 31:-1.101585 32:0.774252 33:-0.387012 34:-0.018704 35:1.505464 36:-0.161329 37:1.393223 38:-1.854578 39:1.322661 40:-1.335004 41:0.942695 42:-0.682373 43:-0.152031 44:-0.220673 45:-0.014676 46:0.414798 47:-0.597114 48:0.506673 49:0.274327 50:-0.613398 51:0.520094 52:-1.408013 53:1.647393 54:1.226251 55:-0.300082 56:0.330874 57:0.294285 58:-0.016595 59:-0.322873 60:-0.822453 61:-0.327784 62:-0.893357 63:0.327217 64:0.117416 65:-0.259149 66:0.711279 67:0.532682 68:0.058884 69:-0.863727 70:0.782210
-1 1:1.888647 2:2.628381 3:0.838437 4:0.029198 5:-0.032233 6:-1.329649 7:0.139937 8:-0.899916 9:-0.435456 10:-2.068695 11:2.113685 12:0.279797 13:-0.542839 14:-1.173343 15:-0.163840 16:0.056457 17:0.209122 18:1.245880 19:0.736502 20:0.431612 21:0.929931 22:1.545100 23:-1.256222 24:-0.677185 25:0.131445 26:0.182336 27:0.778344 28:-0.054449 29:0.258344 30:-1.359947 31:1.066290 32:-0.151178 33:0.376084 34:-0.171952 35:0.109100 36:-1.187428 37:0.032223 38:0.658215 39:-2.558165 40:0.356090 41:1.032851 42:0.882039 43:1.115332 44:0.195226 45:0.402063 46:0.212806 47:0.832724 48:-0.402210 49:0.030478 50:-1.200377 51:0.669676 52:-1.195857 53:2.184065 54:1.702221 55:-0.226931 56:0.919264 57:-0.136545 58:-0.223728 59:0.157450 60:0.063986 61:-0.529069 62:-0.776229 63:0.215924 64:-1.450957 65:0.853318 66:1.405022 67:-0.324087 68:-0.613077 69:0.333885 70:0.582657
-1 1:-0.010921 2:-0.147426 3:1.387684 4:0.607755 5:-0.406955 6:-0.156981 7:-1.358468 8:1.121029 9:0.372903 10:-1.199900 11:1.083519 12:0.628611 13:-0.399633 14:-1.566210 15:0.395740 16:0.370909 17:2.931274 18:-1.240504 19:-0.653814 20:0.416962 21:0.241765 22:0.411458 23:2.760991 24:0.097171 25:0.424274 26:1.816238 27:-0.302920 28:0.456925 29:1.155698 30:-0.653277 31:-1.194413 32:0.428811 33:1.118855 34:-0.906142 35:0.550706 36:0.602076 37:1.325222 38:0.564500 39:0.554900 40:-1.187035 41:1.850647 42:0.567591 43:0.132950 44:-1.381186 45:-2.177600 46:-1.279918 47:-1.819449 48:2.183414 49:-0.072175 50:-0.442400 51:1.976273 52:-1.008729 53:-1.395883 54:-0.486211 55:1.031868 56:-0.824805 57:-0.275197 58:1.127756 59:0.357220 60:1.098257 61:0.163498 62:-0.017155 63:-0.400794 64:0.057090 65:0.841272 66:-0.660026 67:-2.329146 68:-0.495605 69:0.926919 70:0.181731
-1 1:-1.465979 2:0.349334 3:-0.910600 4:0.397630 5:-0.383049 6:1.379016 7:0.680026 8:1.582449 9:-0.177206 10:-0.365744 11:0.307614 12:0.119673 13:-0.654922 14:-0.883684 15:0.277843 16:-0.334776 17:-1.063406 18:-0.381019 19:0.312134 20:2.182020 21:0.422663 22:-1.623700 23:0.238409 24:-1.178326 25:0.380205 26:-0.109260 27:-0.098024 28:0.642344 29:0.575401 30:-1.103847 31:-0.860281 32:-0.063797 33:-0.590494 34:-0.346148 35:0.299295 36:-0.114995 37:-1.062745 38:-0.393268 39:-1.263454 40:1.202206 41:1.514278 42:-0.028313 43:0.158941 44:0.545613 45:0.322844 46:0.536482 47:0.937970 48:-0.430004 49:0.452445 50:-0.183206 51:-0.234193 52:1.714619 53:-0.470292 54:1.103522 55:-0.903365 56:1.407189 57:-0.067946 58:-0.518855 59:0.149852 60:-0.629419 61:0.328275 62:0.302239 63:0.755497 64:-0.786956 65:0.418498 66:0.663469 67:0.366627 68:0.692152 69:0.887197 70:1.868938
-1 1:0.389339 2:1.429920 3:-0.643286 4:-0.676662 5:0.520736 6:2.629161 7:-1.473919 8:1.706940 9:1.453648 10:-0.353671 11:-0.133537 12:-1.165511 13:-1.437782 14:0.016635 15:-1.356930 16:-0.073030 17:-1.587867 18:-0.181236 19:0.775504 20:-0.246727 21:0.696351 22:-1.956955 23:1.012159 24:-0.808049 25:-2.377399 26:-0.002567 27:-0.858817 28:2.139992 29:-0.793651 30:0.147347 31:0.696061 32:1.391693 33:-0.330803 34:0.352589 35:1.625340 36:-0.816904 37:0.416654 38:-1.491868 39:0.202583 40:-0.256180 41:0.542175 42:-0.059814 43:-1.107044 44:0.730844 45:1.271181 46:0.242457 47:-0.649028 48:-0.284639 49:0.386118 50:-0.356180 51:0.702094 52:1.525297 53:-0.711333 54:0.324056 55:-0.022452 56:-0.357528 57:0.217418 58:1.460547 59:0.356187 60:-1.139931 61:-1.106862 62:-0.628533 63:0.370363 64:-0.774011 65:0.024967 66:1.679677 67:0.291805 68:0.158478 69:-0.051756 70:-1.352460
-1 1:0.277914 2:-0.441634 3:0.245927 4:-0.384967 5:-1.941847 6:-0.225296 7:2.074679 8:-1.154492 9:2.125537 10:1.017325 11:0.756190 12:-1.413658 13:0.062819 14:-2.080280 15:1.099739 16:0.005470 17:-0.022031 18:-0.234730 19:-0.250534 20:-0.400076 21:-1.363051 22:-1.551618 23:2.480489 24:-0.319474 25:-1.837807 26:0.662097 27:0.195827 28:0.785168 29:1.068975 30:0.288435 31:1.082162 32:-1.525036 33:1.268599 34:0.212702 35:0.418329 36:0.367591 37:0.470715 38:-0.816985 39:0.067948 40:0.929860 41:0.783508 42:-0.842133 43:0.650891 44:1.424571 45:2.694855 46:0.919590 47:1.056039 48:1.157961 49:-0.501192 50:-0.244713 51:0.838495 52:-0.331428 53:-0.016333 54:-1.140140 55:-0.846667 56:0.040433 57:-0.427925 58:1.008095 59:0.917902 60:0.127187 61:0.526192 62:-1.706830 63:-1.188580 64:1.111935 65:1.206514 66:0.204970 67:1.717233 68:-0.266377 69:0.657633 70:-0.251292
-1 1:1.052444 2:0.718686 3:0.562088 4:0.009344 5:-1.445130 6:-1.674971 7:0.744745 8:-0.754130 9:-0.442541 10:0.675595 11:-0.488710 12:-0.539863 13:0.268770 14:0.468947 15:0.558251 16:0.689878 17:0.826182 18:1.205193 19:0.284714 20:0.040855 21:-0.416106 22:1.402539 23:1.487880 24:-0.250337 25:-1.748189 26:0.119881 27:-1.554249 28:-0.419323 29:1.271881 30:0.156211 31:0.973393 32:0.753333 33:-0.911044 34:-0.398047 35:-1.137028 36:0.604509 37:-0.278299 38:0.059806 39:-0.604547 40:-1.334587 41:1.005207 42:-1.094885 43:1.274592 44:-0.259799 45:0.227027 46:-0.540512 47:-0.150088 48:-1.856797 49:1.859580 50:-0.945876 51:-0.555000 52:-1.094089 53:0.327746 54:0.954675 55:-0.790195 56:-1.237278 57:-0.649617 58:-0.725259 59:0.171381 60:0.041473 61:-1.214551 62:0.849982 63:-1.626468 64:-1.300998 65:1.315487 66:0.333182 67:2.777300 68:0.587642 69:-0.318447 70:-0.792941
-1 1:-0.438234 2:0.091708 3:0.235990 4:0.397870 5:0.713434 6:-1.741199 7:-0.641777 8:-0.138448 9:-1.529213 10:-0.065858 11:-1.530043 12:-0.452784 13:-1.225295 14:-0.593853 15:1.517795 16:-0.716939 17:0.363084 18:0.050845 19:0.294595 20:0.283447 21:1.521667 22:-0.776932 23:-0.089623 24:-0.184245 25:0.592824 26:0.045176 27:-0.111445 28:-0.861349 29:-0.540892 30:0.403182 31:-0.450948 32:-0.498879 33:-2.149615 34:-1.481032 35:0.934259 36:-1.430552 37:1.172574 38:-1.122783 39:1.555331 40:-0.663033 41:0.096864 42:0.313242 43:0.331571 44:-0.304677 45:-0.744195 46:-1.259577 47:-0.493645 48:0.027808 49:-0.229206 50:0.268081 51:-1.023701 52:0.951147 53:0.116135 54:-0.095190 55:0.256984 56:1.955733 57:0.321847 58:0.535715 59:-0.323827 60:-0.429374 61:0.985241 62:-0.122532 63:-0.987216 64:0.577106 65:0.381644 66:0.418839 67:-0.302499 68:-0.478609 69:0.927068 70:-0.115205
-1 1:-0.420799 2:2.361161 3:1.145097 4:-0.019497 5:0.729114 6:0.478000 7:0.265015 8:-0.814900 9:0.869838 10:0.886768 11:-0.412763 12:1.216235 13:0.498981 14:-0.337189 15:-0.858181 16:1.623644 17:0.247388 18:-0.705523 19:1.036525 20:0.191969 21:0.717062 22:-0.176513 23:0.887890 24:-0.373844 25:0.147516 26:-0.173103 27:-0.058050 28:-1.503111 29:0.645176 30:3.041211 31:2.120751 32:-2.603740 33:1.612833 34:-0.813383 35:0.350079 36:-0.076526 37:0.971774 38:0.752660 39:-0.359051 40:-0.114615 41:-1.528607 42:2.274865 43:-0.133189 44:-1.159354 45:-0.965736 46:1.935558 47:-0.637900 48:-2.371487 49:0.844500 50:0.232694 51:-0.860471 52:0.194103 53:-1.143444 54:-0.048404 55:-2.651314 56:-2.139142 57:-0.279244 58:0.194402 59:0.995550 60:-1.351186 61:-0.926630 62:1.515397 63:0.986740 64:-0.001348 65:0.799237 66:1.315902 67:0.886881 68:0.466236 69:0.508709 70:-0.524221
-1 1:-1.144462 2:-0.852566 3:-1.606464 4:0.333553 5:-0.047502 6:0.861640 7:-0.267442 8:-1.606010 9:0.931991 10:-0.792304 11:-0.035738 12:-0.180277 13:-1.471754 14:-0.425798 15:2.048539 16:0.314559 17:-0.082158 18:1.003534 19:-0.737256 20:0.254164 21:-1.673323 22:0.039319 23:-3.522470 24:1.808947 25:-0.092411 26:-0.306985 27:0.460081 28:0.604512 29:-0.612614 30:0.790391 31:0.126231 32:-0.841739 33:2.244165 34:-1.145337 35:-1.671306 36:-0.257211 37:-0.506660 38:0.876890 39:-0.366236 40:-0.074165 41:0.426788 42:0.553949 43:0.982810 44:0.574173 45:-0.073710 46:-2.005278 47:1.000519 48:-1.978318 49:1.932610 50:-1.184779 51:0.233211 52:-0.411941 53:0.954957 54:-0.200031 55:-0.083762 56:0.090419 57:-0.635262 58:0.859178 59:1.149353 60:0.909438 61:0.124012 62:-0.443757 63:0.191900 64:-0.138273 65:-0.517331 66:0.361895 67:0.704001 68:-0.416856 69:0.151124 70:-0.087388
-1 1:0.318454 2:0.871599 3:-0.085695 4:-1.323645 5:0.088891 6:-1.981660 7:-0.306432 8:1.330500 9:0.679107 10:0.852905 11:0.082037 12:-1.166488 13:-0.050315 14:-0.449803 15:-0.731207 16:2.378161 17:1.072958 18:0.017964 19:-0.868865 20:1.153221 21:1.139165 22:0.668779 23:-0.784211 24:-0.874616 25:-0.739963 26:1.070316 27:-0.809856 28:0.033384 29:-0.179233 30:0.985597 31:-0.797324 32:-0.564544 33:1.145987 34:-0.405307 35:-1.370313 36:-0.166200 37:-0.727212 38:0.444014 39:-0.426032 40:1.165457 41:-0.393979 42:-1.304770 43:-0.106653 44:0.400635 45:0.487838 46:1.692540 47:-0.004243 48:1.875780 49:-0.345257 50:-1.063019 51:0.772309 52:0.628468 53:-0.672203 54:1.937871 55:-0.364245 56:-0.346515 57:0.256792 58:0.259982 59:-1.449491 60:-0.292653 61:-1.069379 62:-0.385179 63:-0.459924 64:-1.301003 65:1.433828 66:0.954650 67:-1.112091 68:0.248492 69:1.123714 70:-0.487224
-1 1:1.128719 2:-0.401361 3:-0.033732 4:0.413666 5:-0.394876 6:0.563350 7:0.804571 8:0.117770 9:0.145377 10:-0.416136 11:-1.700355 12:-1.515994 13:0.850618 14:0.996299 15:-1.177977 16:-0.407476 17:-1.504536 18:1.333755 19:0.895021 20:-0.134440 21:-0.254732 22:-0.858811 23:2.402764 24:0.018798 25:-0.357589 26:-0.286784 27:0.279604 28:-0.905305 29:-0.729881 30:-0.462659 31:0.875778 32:-0.655189 33:0.873836 34:-1.110366 35:-0.898558 36:-0.568789 37:-0.235138 38:-1.138439 39:0.550691 40:-0.602762 41:-1.073335 42:0.349994 43:-0.089678 44:0.966441 45:-0.325848 46:0.113094 47:-0.199972 48:-1.518105 49:0.065905 50:0.194518 51:-0.204753 52:0.319066 53:-0.045469 54:0.509130 55:0.130011 56:-0.299621 57:1.166684 58:-2.295574 59:0.213575 60:-1.020235 61:0.278369 62:1.261298 63:1.249525 64:0.800571 65:1.097035 66:0.148313 67:-0.088648 68:-1.498279 69:2.467983 70:-0.687147
-1 1:1.516210 2:0.364241 3:1.938658 4:0.047962 5:-0.100009 6:-0.992994 7:0.728473 8:2.724314 9:2.144529 10:1.305444 11:0.626432 12:1.320738 13:-1.220487 14:0.487909 15:0.306951 16:0.140965 17:0.387614 18:1.448319 19:-0.634611 20:-0.980297 21:-0.412274 22:0.027833 23:0.442351 24:-2.267823 25:0.519052 26:-0.002032 27:-0.364940 28:-0.560702 29:1.816837 30:-0.044267 31:0.858308 32:0.496801 33:-0.644032 34:1.129210 35:1.587093 36:1.315713 37:0.371738 38:0.285273 39:0.120908 40:-0.020067 41:-0.468404 42:0.013310 43:1.050848 44:-0.205191 45:1.661133 46:0.351253 47:-1.171204 48:-0.565866 49:-1.646396 50:0.393682 51:0.977412 52:-0.898211 53:-0.682069 54:1.330609 55:-0.103075 56:0.494889 57:-0.175062 58:1.193716 59:-0.798329 60:1.146041 61:0.736796 62:0.430839 63:-1.452664 64:1.966330 65:0.408371 66:1.345954 67:-0.591068 68:0.927932 69:-1.684262 70:0.531407
-1 1:-0.337293 2:0.824849 3:-1.215308 4:2.452620 5:0.396079 6:-0.298204 7:-0.481447 8:-0.786641 9:0.826517 10:-0.085399 11:-1.467627 12:-0.443771 13:0.892593 14:0.103819 15:0.211096 16:0.375837 17:-0.629084 18:-0.337097 19:-0.119012 20:-1.595740 21:0.913208 22:0.260436 23:0.862264 24:-0.079665 25:-1.166790 26:0.031004 27:-0.491415 28:0.556913 29:0.986146 30:0.620506 31:-1.188250 32:-0.468772 33:-0.488648 34:0.565579 35:0.969025 36:0.280806 37:-1.022856 38:0.506167 39:1.221435 40:-0.404289 41:-0.228290 42:0.548030 43:0.734706 44:-0.908233 45:1.095081 46:-0.985892 47:0.727113 48:0.601154 49:-1.304499 50:-1.682038 51:1.886282 52:0.179677 53:0.218967 54:-0.140383 55:-0.458161 56:-0.371764 57:0.437225 58:-0.775942 59:0.109328 60:-0.605119 61:0.605605 62:-0.699540 63:-0.081942 64:0.862365 65:1.132331 66:1.211357 67:0.079134 68:2.203452 69:-0.321920 70:-1.839909
-1 1:0.447077 2:-0.204201 3:1.593166 4:0.627694 5:0.512852 6:1.254363 7:0.653143 8:-0.173772 9:-0.959343 10:-0.631399 11:0.292820 12:-1.631674 13:1.034806 14:-1.191955 15:-1.440689 16:2.082829 17:-1.159170 18:-1.590329 19:-1.308508 20:1.103611 21:-0.140889 22:-0.841874 23:0.390850 24:-1.178452 25:0.679849 26:-1.908543 27:-0.218244 28:-0.700422 29:-2.659045 30:0.623655 31:0.439087 32:-0.845806 33:0.957490 34:1.914266 35:0.673252 36:-0.506108 37:0.779865 38:-0.671530 39:0.698505 40:0.320644 41:0.802126 42:0.280100 43:0.832452 44:-2.190711 45:1.761041 46:2.305324 47:0.744516 48:-0.844333 49:1.587130 50:-0.334551 51:-0.279032 52:1.508714 53:1.922691 54:-0.493604 55:0.570109 56:0.954958 57:-0.113572 58:-0.005834 59:0.373216 60:-0.719738 61:0.921613 62:-0.388524 63:-1.330603 64:1.164244 65:2.342102 66:0.470519 67:0.396832 68:0.342550 69:0.585010 70:0.126835
-1 1:0.401151 2:0.204352 3:-0.629395 4:-1.836719 5:-1.191559 6:0.836922 7:-0.252511 8:0.032595 9:-0.287881 10:0.520570 11:0.393372 12:-1.899840 13:0.386009 14:1.284746 15:1.440842 16:-1.567795 17:0.527792 18:-0.610013 19:-0.364455 20:-1.986803 21:0.438510 22:-1.982778 23:1.996049 24:-0.068264 25:0.102787 26:-0.488600 27:0.613123 28:0.001979 29:2.091437 30:1.089614 31:-0.414056 32:-0.876151 33:0.389842 34:0.275529 35:1.468284 36:1.014588 37:0.466294 38:-1.640518 39:-0.759477 40:0.183210 41:0.819422 42:0.378943 43:1.754459 44:0.908807 45:0.328164 46:-1.112864 47:0.063652 48:1.186390 49:-1.648044 50:0.960965 51:-0.884185 52:-0.743016 53:0.244219 54:-0.538618 55:-0.105677 56:0.266942 57:-0.886728 58:0.711382 59:-0.312151 60:0.076614 61:-0.391022 62:1.690232 63:-0.393212 64:0.852595 65:1.017788 66:1.248900 67:-1.091631 68:-0.037986 69:0.168458 70:0.393446
-1 1:1.248752 2:0.095471 3:0.298030 4:-0.732041 5:-0.046420 6:0.568902 7:1.106424 8:0.330412 9:0.107949 10:1.515322 11:-0.914935 12:-0.396299 13:1.785948 14:-0.468739 15:1.361717 16:0.926770 17:-0.766264 18:0.313678 19:-1.331195 20:1.126027 21:2.055328 22:0.401008 23:-0.311486 24:0.043577 25:0.382164 26:0.113761 27:0.096092 28:0.671777 29:-0.770739 30:-1.278156 31:-0.323212 32:0.906385 33:-1.251889 34:-0.961898 35:0.306567 36:0.741242 37:-1.187057 38:-0.583322 39:1.306508 40:0.004023 41:0.395978 42:0.236005 43:-1.311894 44:-0.781185 45:0.338878 46:-0.104339 47:-0.902604 48:-0.014315 49:-0.502395 50:-0.846791 51:0.543895 52:-0.162214 53:0.880774 54:0.205394 55:1.526022 56:-0.267248 57:0.288956 58:0.362102 59:-0.788511 60:0.424896 61:-0.005074 62:0.833432 63:-1.041444 64:-0.807835 65:-1.217037 66:-1.196900 67:0.013716 68:1.344935 69:0.545857 70:-2.570404
-1 1:1.281854 2:0.319564 3:-0.129434 4:0.189812 5:0.078451 6:1.135223 7:0.619668 8:0.717090 9:1.695247 10:0.263671 11:-1.138721 12:-0.062342 13:-0.996780 14:-1.067689 15:0.463578 16:0.493909 17:-1.619586 18:0.775401 19:0.346478 20:-2.606386 21:0.225197 22:-0.111088 23:-0.619300 24:1.277226 25:0.250649 26:-0.900519 27:0.291878 28:-0.358195 29:0.113034 30:0.956186 31:0.660193 32:1.077632 33:0.089161 34:-1.175615 35:-0.156259 36:0.350079 37:-0.050530 38:-0.191195 39:1.209873 40:-0.431510 41:0.149722 42:-0.382136 43:0.135393 44:-0.504770 45:0.918873 46:-1.224983 47:1.286979 48:0.868662 49:1.381313 50:1.386385 51:0.224017 52:1.103662 53:0.427290 54:-2.225360 55:-0.280709 56:1.978957 57:0.822270 58:1.653798 59:0.444932 60:-2.054212 61:-0.296768 62:-0.686213 63:1.016979 64:1.178562 65:0.682600 66:-0.739169 67:0.456234 68:-0.324336 69:-0.193536 70:-1.316665
-1 1:1.029420 2:-0.504498 3:0.117594 4:-0.667936 5:-0.749639 6:0.015794 7:0.517601 8:0.813561 9:0.602861 10:-0.088168 11:-0.679241 12:-0.135800 13:0.918752 14:-1.447144 15:-0.118587 16:0.540168 17:0.273110 18:0.754692 19:1.484495 20:-2.184064 21:-1.295283 22:0.113483 23:0.469802 24:-0.476560 25:-0.355922 26:-0.091290 27:0.920426 28:1.079237 29:2.272125 30:1.564444 31:-1.831523 32:-0.984680 33:-0.239297 34:0.583308 35:-0.372950 36:-0.160140 37:-0.572079 38:-0.410558 39:0.646506 40:1.467972 41:-0.381509 42:-0.103922 43:0.509532 44:-0.683248 45:-0.729561 46:-1.050173 47:1.208397 48:-0.224193 49:-0.576557 50:-1.006403 51:-1.357154 52:-0.936947 53:-0.362234 54:-0.487403 55:-1.404969 56:-0.024604 57:0.472126 58:0.589412 59:0.415159 60:-1.091415 61:1.706723 62:-0.195807 63:0.108494 64:-1.465372 65:-0.081364 66:0.436813 67:0.274286 68:-0.783675 69:0.071442 70:0.674915
-1 1:0.968459 2:0.272000 3:-0.500311 4:0.364628 5:-1.816600 6:0.231816 7:0.244400 8:-1.496391 9:-1.316616 10:-0.783472 11:0.236348 12:1.018683 13:-1.557292 14:-0.423261 15:-0.698275 16:0.196266 17:-0.004166 18:-1.430993 19:-0.883063 20:-0.894316 21:0.691727 22:0.869766 23:-1.512064 24:-0.462475 25:0.170519 26:-0.847708 27:0.269600 28:-1.945632 29:0.048376 30:-0.800651 31:-1.597721 32:0.744221 33:0.352562 34:0.881643 35:-1.979269 36:1.190748 37:0.073460 38:-1.305962 39:-0.424595 40:-0.234977 41:1.706924 42:-0.041518 43:-1.077482 44:0.754754 45:-0.616002 46:1.514403 47:0.397077 48:0.068019 49:0.109241 50:-0.845867 51:0.434363 52:-0.611088 53:0.450058 54:-0.473853 55:0.605639 56:0.240935 57:0.656813 58:0.329240 59:-0.683249 60:2.446791 61:-1.086398 62:-1.359288 63:1.086232 64:0.159628 65:-0.914141 66:0.374045 67:-0.506931 68:2.873824 69:0.138173 70:0.504267
-1 1:0.149295 2:-0.085727 3:1.783601 4:-0.535680 5:0.545982 6:2.740737 7:0.098582 8:0.747284 9:0.330171 10:-1.020515 11:1.259077 12:-1.832468 13:0.484646 14:-0.094285 15:-0.588507 16:0.207879 17:-0.380213 18:-1.365314 19:2.511378 20:0.270146 21:-0.292023 22:-1.648186 23:0.150706 24:0.789275 25:0.557795 26:-0.317079 27:1.080996 28:-0.349764 29:-0.046574 30:-0.580101 31:-1.160968 32:-0.641113 33:-1.043345 34:-0.239595 35:-0.821346 36:-0.749157 37:0.822477 38:1.507383 39:-0.690617 40:0.558307 41:1.635244 42:-0.387035 43:-0.182925 44:0.671552 45:-0.539889 46:-1.073870 47:0.486763 48:-0.164950 49:-1.233328 50:-1.747114 51:-0.090406 52:0.135273 53:1.292228 54:-2.197765 55:-0.393799 56:0.352469 57:0.221159 58:0.359672 59:1.158558 60:-1.057304 61:0.241676 62:-0.238115 63:-0.347591 64:0.674754 65:-0.407571 66:0.065277 67:0.351924 68:0.163048 69:1.020274 70:-1.903131
-1 1:-0.733550 2:-0.189777 3:-0.491821 4:-0.398998 5:-0.098192 6:1.195783 7:0.168723 8:0.193241 9:-0.642485 10:-1.434373 11:-1.122717 12:-0.597749 13:-1.557289 14:-0.473909 15:2.406260 16:0.093805 17:-0.672632 18:1.065506 19:-0.986704 20:-1.033832 21:1.287796 22:-0.069826 23:1.402579 24:1.775328 25:-1.350707 26:-1.624731 27:-0.952429 28:0.113921 29:-0.597027 30:-1.527592 31:1.624321 32:0.847111 33:0.974486 34:1.826075 35:-0.308190 36:0.143493 37:-0.272823 38:1.014524 39:0.643619 40:-0.329193 41:-1.046000 42:-0.096463 43:-0.223538 44:0.828109 45:-0.513292 46:0.838513 47:0.736572 48:-0.535573 49:-0.127248 50:-0.954829 51:-0.053327 52:-0.727965 53:0.501999 54:-1.586026 55:-0.419583 56:2.327457 57:0.325507 58:0.559694 59:0.402342 60:1.032585 61:0.695218 62:0.420071 63:0.134316 64:1.101841 65:0.082128 66:-0.726144 67:0.057142 68:-0.534098 69:1.615326 70:-1.373503
-1 1:-0.731040 2:-0.157758 3:1.399305 4:0.052060 5:-0.591021 6:0.639671 7:0.304572 8:0.104633 9:0.854978 10:-1.313553 11:-1.640903 12:1.121693 13:-0.969012 14:-0.324163 15:0.572147 16:-0.763018 17:0.367163 18:0.047143 19:0.601184 20:-0.838745 21:-1.673703 22:0.315796 23:-0.432107 24:-0.358819 25:0.769455 26:1.389759 27:-0.549690 28:-0.910509 29:0.227870 30:-0.880763 31:-1.107259 32:0.785990 33:-0.406319 34:-0.572504 35:1.132843 36:-1.260562 37:2.316068 38:-1.535543 39:1.736162 40:-0.094755 41:-0.977620 42:-0.626632 43:0.608651 44:0.307297 45:-1.083885 46:-0.785922 47:-0.376864 48:-0.277579 49:-0.217796 50:0.348667 51:1.059147 52:-1.422514 53:-1.556563 54:0.157222 55:-0.418426 56:1.098034 57:1.254423 58:0.098855 59:-0.455335 60:-0.890201 61:1.352335 62:1.884982 63:-0.435123 64:1.520695 65:-0.178664 66:0.541177 67:-1.384614 68:0.362394 69:-1.123836 70:0.468624
-1 1:0.345636 2:-1.249219 3:-0.841913 4:-1.351081 5:-1.068675 6:-1.131887 7:-2.104559 8:0.400784 9:1.420004 10:0.193096 11:-0.297787 12:-1.451187 13:0.588168 14:-0.885051 15:-0.800466 16:1.279907 17:0.344561 18:0.619405 19:0.361341 20:-0.483211 21:1.724279 22:-0.414209 23:1.563883 24:0.661047 25:1.223863 26:-1.609496 27:-1.405384 28:-0.406216 29:1.467875 30:-0.364496 31:-0.558383 32:-2.197056 33:1.334560 34:0.893478 35:-0.024174 36:-0.905732 37:0.113613 38:0.134500 39:0.875955 40:0.282361 41:-0.477466 42:1.174438 43:-0.684881 44:-0.102161 45:0.290931 46:0.281212 47:0.226484 48:-1.510879 49:1.899135 50:0.868082 51:1.768842 52:0.242623 53:1.209331 54:0.291881 55:0.151464 56:0.639768 57:-0.108541 58:0.516650 59:0.291849 60:0.298186 61:-0.039185 62:-0.783499 63:-1.613236 64:-0.561554 65:-0.300505 66:0.039247 67:-1.755511 68:-0.342560 69:0.634408 70:-0.911930
-1 1:-1.008029 2:0.585480 3:0.324232 4:0.583382 5:-0.332829 6:-1.125737 7:0.025725 8:0.394495 9:0.211269 10:0.294902 11:2.320111 12:-0.731681 13:0.410595 14:-1.428038 15:-0.340017 16:1.042466 17:-0.112686 18:0.053221 19:0.408700 20:-0.890427 21:-0.214349 22:0.626003 23:-1.359878 24:-1.160650 25:-0.512429 26:0.672447 27:0.378247 28:-1.158947 29:-0.319682 30:-0.994182 31:0.473803 32:0.290689 33:0.448507 34:-0.035473 35:0.585722 36:-0.472732 37:0.157899 38:-0.458475 39:1.127974 40:0.813210 41:-0.248933 42:-0.361330 43:-0.709557 44:0.386579 45:0.671386 46:0.428133 47:0.669963 48:-1.438420 49:-0.381371 50:-1.076462 51:-0.354483 52:-0.155051 53:1.555710 54:1.410237 55:-0.761625 56:0.124761 57:0.272804 58:-1.153390 59:0.857728 60:-0.725832 61:0.283577 62:-0.713580 63:0.825180 64:0.834011 65:-0.856959 66:-1.825611 67:1.740523 68:-1.672621 69:1.422317 70:0.243547
-1 1:-0.691459 2:0.389143 3:0.382148 4:0.470491 5:2.170244 6:0.087094 7:-0.270893 8:0.244374 9:-1.205897 10:-0.258704 11:0.880348 12:0.965853 13:-0.368654 14:-0.370011 15:0.957072 16:0.209194 17:0.564096 18:-0.653690 19:0.634279 20:0.113999 21:0.256136 22:1.089211 23:0.094287 24:-1.044138 25:-0.103191 26:-0.366580 27:-0.430502 28:-0.099695 29:-0.092267 30:-1.116703 31:0.546618 32:0.363530 33:-0.093878 34:-2.580762 35:-0.164883 36:0.667731 37:1.203152 38:-0.337924 39:1.329925 40:-1.448295 41:-1.188304 42:0.999208 43:0.892062 44:-0.662636 45:0.303336 46:-0.290333 47:-0.919663 48:-0.204481 49:0.656773 50:0.211626 51:-0.020138 52:0.972866 53:-1.876806 54:-0.448950 55:0.750959 56:1.621776 57:-1.110702 58:0.705658 59:-0.229340 60:-1.335111 61:-1.531979 62:0.028307 63:0.378781 64:1.651323 65:-0.050289 66:-0.538105 67:0.014936 68:2.583152 69:1.020816 70:-1.092148
-1 1:-0.551199 2:1.006761 3:-2.726415 4:1.265901 5:-0.170996 6:-1.142323 7:1.277882 8:0.028764 9:0.770329 10:-0.750246 11:0.496948 12:0.143321 13:-0.389009 14:0.139241 15:-1.006063 16:1.184090 17:-0.214236 18:1.136530 19:-2.219915 20:-1.170761 21:0.831542 22:-1.215702 23:-0.261635 24:-0.577464 25:-0.663741 26:-1.158794 27:-0.821671 28:-0.617189 29:-0.133431 30:-2.635625 31:-0.121833 32:-0.790407 33:-0.589498 34:0.325117 35:0.761463 36:0.680060 37:-0.357357 38:-0.813409 39:0.231489 40:0.625042 41:-0.831522 42:-0.542928 43:-0.516529 44:0.046238 45:1.323492 46:1.001128 47:-0.888846 48:-1.370596 49:0.211648 50:0.449148 51:-0.830227 52:-1.133897 53:-1.280458 54:-0.527556 55:-0.503541 56:1.195431 57:0.220524 58:-0.354052 59:-1.528917 60:0.482158 61:-1.143965 62:-0.514815 63:0.849563 64:-0.784803 65:-0.049738 66:-1.520069 67:-0.024331 68:-0.774586 69:-1.145667 70:0.548564
-1 1:-0.489869 2:-0.606570 3:-0.244843 4:-0.821156 5:1.307994 6:0.270551 7:-0.131721 8:0.405223 9:-0.659192 10:0.176557 11:-1.574573 12:0.150337 13:-1.408502 14:-1.332922 15:0.091455 16:-1.479598 17:-1.185240 18:-1.228751 19:-0.311518 20:0.630920 21:-0.970794 22:-0.938173 23:-0.920093 24:-0.388201 25:0.055413 26:0.160578 27:-0.700678 28:0.595772 29:-1.231224 30:-0.813728 31:0.913508 32:0.829882 33:-0.373777 34:-0.393203 35:0.933934 36:-0.454946 37:-0.881496 38:-1.342867 39:0.412699 40:-0.151991 41:2.638188 42:0.100692 43:-1.639748 44:0.190059 45:-1.531951 46:0.640616 47:1.438986 48:0.720770 49:-0.003052 50:-1.664382 51:0.397818 52:-2.288524 53:0.824835 54:0.197329 55:-0.230617 56:1.390030 57:-2.225613 58:-1.184287 59:0.715135 60:0.323679 61:0.809194 62:1.586739 63:0.855944 64:-1.295079 65:1.270820 66:-1.559800 67:-1.074885 68:0.486465 69:0.192757 70:-1.438659
-1 1:-0.263378 2:0.985006 3:-1.963473 4:0.642156 5:-0.341008 6:-1.311061 7:-0.821537 8:0.177492 9:0.012248 10:-1.437390 11:-1.520094 12:-0.133902 13:-0.429554 14:-0.894309 15:1.404085 16:1.174428 17:-2.208794 18:0.860638 19:-2.230795 20:0.597246 21:1.269081 22:-2.019357 23:1.030667 24:0.560684 25:-1.535762 26:-0.664248 27:0.240583 28:-0.575080 29:-0.382699 30:0.000640 31:0.140335 32:0.068003 33:0.169419 34:1.406982 35:0.631089 36:1.266936 37:-2.147913 38:2.005802 39:-1.102816 40:0.478536 41:-0.413852 42:0.399997 43:-0.331632 44:1.003145 45:-1.971419 46:0.184994 47:2.016884 48:-0.320766 49:-1.067665 50:-0.769411 51:-0.490559 52:0.588258 53:-0.993136 54:1.023718 55:-0.784237 56:1.544323 57:0.137045 58:1.124139 59:2.139220 60:1.138409 61:1.064450 62:-1.094350 63:-0.595055 64:1.074499 65:0.347714 66:0.871019 67:-0.132342 68:-0.304209 69:0.426240 70:2.242628
-1 1:-0.653197 2:1.088480 3:2.239036 4:0.729221 5:0.453919 6:2.029259 7:-0.687944 8:-1.921063 9:0.007849 10:0.227589 11:0.060287 12:-0.449690 13:0.273158 14:-1.186662 15:-0.745034 16:1.246764 17:-1.491936 18:0.618787 19:1.343042 20:-0.171022 21:-0.197571 22:1.108895 23:0.401191 24:1.114794 25:1.769428 26:0.877800 27:-0.454878 28:-1.607828 29:-2.103598 30:-0.965126 31:-0.279780 32:0.149781 33:0.627664 34:-1.481088 35:-0.257311 36:-1.267443 37:1.193777 38:-1.564451 39:0.103926 40:-0.287508 41:-0.759526 42:0.218935 43:-0.923241 44:0.416523 45:1.374756 46:-0.991414 47:1.932010 48:-1.648504 49:1.606691 50:1.482890 51:0.578122 52:-2.331304 53:-0.798934 54:0.561255 55:-1.339620 56:2.295984 57:0.752140 58:-0.847222 59:0.262897 60:1.798412 61:-0.442419 62:0.259035 63:1.685636 64:-0.267619 65:-0.930474 66:0.055730 67:-0.350148 68:2.071487 69:-0.504627 70:1.968786
-1 1:-2.293665 2:0.497071 3:-0.155482 4:-1.345304 5:-0.508440 6:1.362041 7:0.446247 8:0.590104 9:1.498380 10:0.623186 11:-3.079866 12:-0.565248 13:-2.177393 14:-0.275069 15:-0.287603 16:0.534077 17:0.705351 18:-0.270377 19:0.773397 20:-0.367519 21:1.032341 22:-0.822545 23:0.250138 24:2.425358 25:-0.215352 26:0.175955 27:0.732258 28:0.127503 29:0.183734 30:0.684291 31:1.136649 32:-1.157764 33:-1.880477 34:-1.169261 35:0.087320 36:0.737612 37:1.484481 38:0.572160 39:-0.615223 40:-0.039126 41:-1.020549 42:-0.025168 43:-0.838548 44:1.027955 45:0.583380 46:-0.390841 47:0.588701 48:-0.596664 49:0.153902 50:0.212382 51:0.135823 52:0.449806 53:-0.922035 54:0.258456 55:0.905992 56:-1.386877 57:0.367887 58:0.433194 59:0.134424 60:-0.104862 61:-0.458087 62:-0.294954 63:-0.712217 64:-1.365880 65:-0.476203 66:-0.490472 67:-0.173945 68:0.100483 69:0.946832 70:1.116250
-1 1:0.340481 2:0.326913 3:0.863538 4:1.799264 5:0.200895 6:0.997162 7:0.063054 8:0.601986 9:0.633350 10:0.771978 11:1.232684 12:1.079186 13:-0.636195 14:0.982945 15:-0.014362 16:0.126755 17:-0.146822 18:-0.603037 19:-1.101145 20:0.473186 21:0.971327 22:-0.984958 23:0.087360 24:0.407193 25:0.795750 26:-0.715519 27:1.049469 28:-0.674897 29:-0.056642 30:0.238038 31:0.962351 32:-0.636823 33:0.576305 34:0.671512 35:-0.315285 36:-0.749035 37:-0.344492 38:0.455929 39:-0.465318 40:-0.311307 41:0.899935 42:1.263856 43:-1.084884 44:-0.887851 45:-0.392835 46:-1.251598 47:-0.119640 48:-0.032619 49:0.512614 50:1.193097 51:0.020681 52:-0.590634 53:0.502548 54:-0.854152 55:-1.189190 56:1.134925 57:-0.362739 58:0.224190 59:0.684949 60:0.569214 61:0.436282 62:-1.879253 63:1.124083 64:0.297911 65:-1.154340 66:2.357748 67:0.732056 68:-0.281275 69:0.603273 70:-2.809537
-1 1:0.178106 2:-0.325740 3:1.311107 4:0.557895 5:-1.668648 6:1.714933 7:-0.190205 8:0.245611 9:-0.036718 10:-0.244811 11:1.746610 12:-0.499090 13:0.673272 14:0.322664 15:0.005790 16:0.760616 17:-0.553695 18:-1.489880 19:1.229915 20:0.883808 21:-0.842262 22:0.011966 23:-1.402956 24:-0.777851 25:0.702378 26:-1.182106 27:0.916374 28:0.068597 29:-0.619934 30:-1.259701 31:1.982052 32:-0.628900 33:-0.589226 34:0.720529 35:0.866013 36:-2.549695 37:-0.605940 38:1.672403 39:-1.778468 40:0.649920 41:-0.028134 42:-0.468122 43:-1.457138 44:1.049231 45:2.165006 46:0.635294 47:1.237270 48:1.109537 49:-0.191401 50:-0.101430 51:-1.621979 52:0.699474 53:-0.024319 54:0.090477 55:-1.113261 56:-1.686002 57:-1.253191 58:1.098992 59:1.297299 60:0.964760 61:-2.103612 62:-0.129442 63:-0.129581 64:0.172238 65:2.085153 66:0.473283 67:0.803318 68:-0.580943 69:0.416601 70:-1.097169
-1 1:0.351600 2:-0.107308 3:-0.122511 4:-0.971147 5:-0.983385 6:-0.838948 7:2.008376 8:-0.445833 9:1.076770 10:0.712526 11:-0.002208 12:-1.530116 13:0.129153 14:0.141482 15:0.229671 16:-0.059578 17:-2.619490 18:0.485174 19:1.093205 20:-0.599531 21:0.131454 22:-0.155093 23:0.694654 24:-1.201826 25:0.945919 26:0.504180 27:0.545900 28:0.035672 29:-0.458024 30:-0.910751 31:-0.699809 32:0.850735 33:-0.225874 34:0.999927 35:0.429057 36:0.929241 37:-0.675569 38:0.394506 39:0.560287 40:-1.717495 41:0.864650 42:-0.892273 43:-0.574908 44:-0.743459 45:-0.790109 46:-1.202338 47:-0.326363 48:0.719464 49:0.446918 50:-0.396205 51:-1.199003 52:0.923069 53:-0.499953 54:-1.012559 55:0.483732 56:-0.367600 57:0.312588 58:-0.625708 59:0.024432 60:0.609360 61:-0.779636 62:0.155342 63:-0.320979 64:-1.673837 65:-1.230123 66:-1.171948 67:0.903094 68:-1.275802 69:0.451148 70:0.295264
-1 1:0.155564 2:-0.635894 3:0.297653 4:0.225474 5:1.159959 6:-0.478758 7:1.726713 8:0.842452 9:-0.829248 10:0.302588 11:0.157464 12:-0.654326 13:-0.985082 14:1.194178 15:1.972455 16:0.745831 17:0.854884 18:0.432702 19:1.929121 20:-1.057479 21:-1.055402 22:-0.904969 23:-1.635656 24:-1.579786 25:-0.195960 26:-0.415375 27:-0.541023 28:0.159981 29:-0.030557 30:0.836297 31:0.328963 32:0.481587 33:-0.596437 34:-0.651985 35:2.484660 36:-0.035594 37:0.033815 38:0.352339 39:1.528011 40:0.013232 41:0.920803 42:-0.124704 43:1.415246 44:-0.528659 45:-0.195450 46:1.864037 47:-0.907794 48:1.209628 49:0.517946 50:-0.617341 51:0.977249 52:0.158408 53:-0.373441 54:0.715074 55:0.982098 56:1.160554 57:-1.285746 58:0.131425 59:0.453322 60:0.292053 61:1.609589 62:-0.361535 63:-1.909295 64:0.111199 65:-0.213461 66:-1.745775 67:0.705427 68:0.570341 69:0.394793 70:0.834665
-1 1:0.480298 2:1.764159 3:-0.072190 4:-1.024015 5:0.109124 6:0.351874 7:0.405000 8:-0.023786 9:0.357565 10:0.587200 11:-0.809995 12:-1.167493 13:-0.088013 14:1.004464 15:0.254855 16:0.721075 17:1.258071 18:0.117076 19:-0.886270 20:0.534829 21:0.942885 22:1.069966 23:0.225779 24:-0.068913 25:1.280443 26:-0.736441 27:1.369186 28:-1.430465 29:-1.106037 30:-0.082669 31:-1.562321 32:0.556166 33:-1.063369 34:0.309687 35:-0.415524 36:1.047998 37:0.704268 38:1.309274 39:0.099550 40:2.309743 41:0.166229 42:0.489843 43:-0.266170 44:2.256042 45:0.610394 46:-1.316032 47:0.798705 48:-0.871490 49:1.019558 50:-0.600722 51:-0.216068 52:0.208679 53:1.037138 54:-0.065974 55:0.023886 56:1.031665 57:1.332459 58:1.300669 59:1.510741 60:0.991484 61:-1.125722 62:-1.280575 63:-0.008427 64:0.242054 65:2.017378 66:0.524911 67:-0.551787 68:0.228122 69:-1.259451 70:-0.550301
-1 1:-0.970517 2:-0.006800 3:-0.128114 4:-2.635213 5:1.191111 6:0.636262 7:0.562535 8:0.584285 9:-0.863310 10:-0.285558 11:1.037941 12:-1.170098 13:0.108098 14:0.051940 15:-0.689522 16:1.734430 17:0.532849 18:-0.129286 19:-0.946432 20:1.650468 21:-1.443455 22:-1.807515 23:0.713516 24:-0.253818 25:0.568723 26:-1.801325 27:-0.283524 28:-1.109517 29:0.600781 30:-0.073112 31:1.470232 32:-0.109396 33:0.298105 34:-1.349418 35:0.324645 36:0.129786 37:-0.524541 38:-0.013135 39:0.522307 40:0.633464 41:-0.222683 42:0.616083 43:1.041723 44:-1.050031 45:-1.090574 46:-0.184261 47:-0.443547 48:0.424222 49:1.463189 50:-0.403117 51:-1.418159 52:1.299563 53:0.950013 54:-0.022455 55:0.561820 56:-0.471761 57:0.488105 58:-0.638832 59:0.083099 60:0.565125 61:-0.969972 62:-0.627082 63:0.267012 64:1.332814 65:0.227950 66:0.051436 67:0.707602 68:1.040782 69:-1.491638 70:1.468177
-1 1:0.777092 2:-0.000288 3:-0.210190 4:0.958787 5:-1.205800 6:0.199744 7:-0.046812 8:-0.418749 9:-0.055677 10:-0.564635 11:-2.245272 12:-1.753299 13:0.120288 14:0.817898 15:1.309177 16:-0.415837 17:-0.535170 18:-1.152096 19:-0.814769 20:-0.513641 21:-0.809527 22:0.836383 23:0.667529 24:1.723116 25:0.084813 26:0.092117 27:-0.069772 28:0.830878 29:0.604143 30:0.494673 31:0.043548 32:0.169420 33:0.278859 34:-0.207264 35:-1.875750 36:-1.257009 37:0.318555 38:-1.221082 39:1.394367 40:0.539038 41:0.974502 42:-0.112943 43:-0.851283 44:-1.687768 45:3.445882 46:-0.106522 47:-0.423842 48:-1.081092 49:-2.041138 50:0.349417 51:-1.010399 52:1.640090 53:-1.176548 54:0.561230 55:-0.365478 56:0.123031 57:-0.622406 58:-1.228760 59:-1.114935 60:0.025380 61:-0.832361 62:0.641563 63:-0.954743 64:0.534530 65:-0.148140 66:1.154655 67:-0.724553 68:-0.519682 69:0.642993 70:-1.984094
-1 1:-1.286016 2:0.121275 3:1.551284 4:0.658056 5:-0.727445 6:-0.475042 7:-0.031519 8:1.507755 9:1.250594 10:0.797699 11:0.003718 12:-1.081908 13:0.194345 14:-0.639320 15:-0.631862 16:-0.607077 17:0.198350 18:-0.174473 19:0.177644 20:-0.369517 21:0.015217 22:0.214864 23:-0.187178 24:1.083873 25:-1.945664 26:-0.207436 27:-0.895301 28:-0.015368 29:-1.316345 30:-0.012759 31:-0.036364 32:-0.196563 33:0.038420 34:0.242008 35:-0.898147 36:1.060994 37:-0.790873 38:0.773312 39:-0.001575 40:-1.606853 41:0.403031 42:-0.374898 43:-0.262956 44:0.812200 45:0.622517 46:0.349274 47:0.529445 48:-0.261782 49:-0.640756 50:0.565888 51:0.771917 52:-0.118439 53:1.630640 54:-0.544171 55:-1.263687 56:-0.072555 57:0.600473 58:-0.178822 59:0.585227 60:-0.785652 61:-0.695883 62:0.382844 63:-0.136874 64:-0.480943 65:0.448019 66:2.122046 67:0.904031 68:-0.148869 69:1.493935 70:0.295628
-1 1:0.740986 2:1.295780 3:0.041301 4:-0.259961 5:0.406045 6:0.120142 7:-0.219763 8:0.422612 9:-0.567120 10:1.044454 11:0.031428 12:-1.851256 13:-1.764862 14:-0.056302 15:0.299106 16:0.166179 17:0.921295 18:-1.015485 19:-0.414533 20:-2.263489 21:1.354441 22:1.356239 23:-0.174123 24:-0.812535 25:-1.504310 26:0.052292 27:1.421479 28:0.741676 29:0.021803 30:0.271427 31:0.687532 32:0.308910 33:0.375277 34:0.261145 35:1.651053 36:-0.154576 37:1.089885 38:0.172411 39:1.247380 40:0.010220 41:-1.027763 42:-0.561752 43:1.446651 44:-0.791611 45:1.844847 46:0.305167 47:0.396912 48:-1.289350 49:0.292628 50:0.917557 51:-0.269760 52:0.984442 53:0.800918 54:-0.294878 55:-0.950861 56:0.498762 57:-0.550263 58:1.798595 59:-0.450574 60:-1.506773 61:0.433511 62:1.433120 63:0.371868 64:-0.234998 65:-0.088784 66:-1.771188 67:-0.547912 68:1.865303 69:1.220675 70:0.869044
-1 1:-0.359308 2:-0.538251 3:0.439206 4:0.901331 5:1.393538 6:-0.533193 7:0.142767 8:0.939386 9:-0.482188 10:-0.511631 11:0.628189 12:-0.398638 13:0.741847 14:2.406492 15:1.088232 16:0.120749 17:-0.211207 18:-0.593289 19:0.152095 20:1.194967 21:-0.867273 22:0.099130 23:-0.274352 24:-0.318974 25:-1.131269 26:-0.370945 27:-0.064855 28:-0.941087 29:0.125328 30:-0.696972 31:-0.642535 32:1.022169 33:-1.918558 34:1.593231 35:0.883053 36:0.086191 37:0.087522 38:0.248254 39:-0.808759 40:-1.034402 41:0.560545 42:-1.980590 43:0.214015 44:-0.207164 45:-0.014562 46:0.964108 47:-0.491859 48:0.228464 49:1.159030 50:0.628416 51:-0.796444 52:-2.056055 53:-0.038083 54:-1.076540 55:-0.335107 56:1.163551 57:-0.129983 58:1.304058 59:0.056791 60:-0.451055 61:-0.116644 62:-0.061127 63:0.788159 64:0.863862 65:-0.134454 66:-0.419348 67:-0.125744 68:-0.949704 69:0.324209 70:-0.820850
-1 1:0.062471 2:2.081090 3:0.246884 4:0.916763 5:-0.862946 6:3.764670 7:1.870340 8:0.481433 9:-0.711808 10:-0.399950 11:1.181762 12:0.812189 13:-1.341898 14:1.157552 15:-0.265812 16:-1.426901 17:-0.840301 18:-0.897199 19:1.638526 20:-0.548191 21:0.187090 22:0.281608 23:1.499064 24:0.798792 25:-0.064844 26:1.093924 27:-0.674588 28:0.449428 29:-0.179652 30:0.241919 31:-0.056830 32:-0.791729 33:2.313518 34:1.075985 35:-0.867868 36:0.116681 37:0.138571 38:0.513399 39:1.321237 40:-1.271677 41:1.164837 42:-1.130418 43:0.768679 44:1.241236 45:-1.392398 46:-0.469793 47:0.030797 48:2.220524 49:-1.228560 50:-0.413249 51:0.683047 52:2.413596 53:-0.561741 54:0.086608 55:0.299817 56:0.030524 57:0.279404 58:1.278662 59:-0.904342 60:0.253780 61:-0.667646 62:1.244238 63:2.371114 64:-0.832787 65:0.187808 66:-0.978022 67:0.306571 68:-0.960576 69:-1.275252 70:1.437396
-1 1:1.044497 2:1.058873 3:-0.548234 4:-0.279510 5:0.087371 6:1.578143 7:-0.685643 8:-0.088544 9:-1.969275 10:-1.317020 11:0.779875 12:-0.508055 13:1.415313 14:1.007544 15:-1.199013 16:-1.875432 17:-0.959694 18:-0.638027 19:1.534597 20:-0.497438 21:0.345891 22:0.586082 23:1.017293 24:0.421738 25:1.177373 26:-0.982081 27:0.285348 28:0.639014 29:1.939987 30:1.529577 31:-1.140626 32:0.118955 33:2.405260 34:-1.129778 35:-2.238236 36:-1.753492 37:-0.701249 38:0.240284 39:0.472170 40:0.668468 41:2.561233 42:-2.602825 43:1.414839 44:0.198476 45:-0.853770 46:1.093885 47:-0.475970 48:0.178505 49:1.543804 50:-0.012963 51:1.941852 52:0.098505 53:-0.073376 54:1.393633 55:0.325131 56:0.358405 57:0.437663 58:-1.035534 59:0.364576 60:-0.551626 61:0.179247 62:1.216382 63:0.713863 64:0.833901 65:0.075029 66:0.217604 67:-0.943186 68:0.613047 69:-2.255063 70:1.673769
-1 1:0.245645 2:0.386178 3:0.958264 4:-0.198575 5:-0.158838 6:0.061176 7:1.767563 8:0.996264 9:-0.095655 10:-0.050595 11:0.863374 12:-1.256570 13:-0.669362 14:-1.327171 15:0.170851 16:0.190047 17:0.404497 18:0.431231 19:-0.930916 20:1.023871 21:1.824055 22:0.250891 23:0.850704 24:-0.828718 25:-0.508924 26:-0.868424 27:1.488309 28:-0.210977 29:-0.537692 30:2.471845 31:-0.681217 32:1.670526 33:1.980609 34:-0.371671 35:-0.611631 36:-1.522054 37:-0.470150 38:-1.058600 39:-1.112324 40:0.098908 41:0.112806 42:-0.701895 43:1.526499 44:0.330877 45:-0.146693 46:0.962178 47:-0.102664 48:-0.572577 49:0.083593 50:-0.224918 51:0.254592 52:0.698806 53:-0.688504 54:-0.595391 55:-1.250144 56:-0.672816 57:-1.409778 58:-0.197767 59:0.314172 60:1.458555 61:-1.039853 62:0.459900 63:-1.134922 64:-1.042558 65:1.158933 66:0.627424 67:0.037518 68:-0.171815 69:-0.422239 70:0.285596
-1 1:-1.176027 2:0.070274 3:-0.576781 4:-1.144051 5:-0.274449 6:0.752917 7:-0.795472 8:0.439812 9:-1.686562 10:-1.931417 11:-0.424293 12:-0.731639 13:-0.737960 14:1.489865 15:1.191765 16:-0.015581 17:0.895709 18:0.047332 19:-0.774571 20:-1.036972 21:-0.680007 22:-1.759539 23:1.031713 24:-0.030510 25:-2.665166 26:0.208689 27:-1.771728 28:0.156733 29:0.785480 30:-0.235505 31:0.899114 32:0.693360 33:-2.105785 34:0.759406 35:1.349650 36:0.334954 37:0.574003 38:0.211498 39:-0.543058 40:-0.037938 41:0.265576 42:1.520099 43:-1.924556 44:-0.397489 45:-0.643697 46:-0.511083 47:-3.076428 48:-0.299900 49:0.268294 50:0.699009 51:0.252347 52:-1.637603 53:0.831309 54:0.112393 55:-0.095177 56:0.046791 57:0.289587 58:-0.810803 59:-0.373517 60:0.084616 61:1.837927 62:-0.158411 63:0.114337 64:-0.896178 65:1.688313 66:-0.933292 67:-0.814793 68:-0.416619 69:1.538832 70:-0.674643
-1 1:0.992889 2:0.905249 3:-0.397309 4:-0.351106 5:-1.165511 6:-0.021252 7:-0.449992 8:1.089264 9:2.999479 10:0.692070 11:-0.355020 12:2.484379 13:0.498879 14:0.155300 15:-0.378483 16:-0.144732 17:-0.065718 18:-0.465807 19:-0.540868 20:0.351259 21:0.098606 22:0.589443 23:-1.023557 24:0.291620 25:0.309538 26:0.432347 27:0.575713 28:-1.597678 29:0.326339 30:1.246576 31:3.079519 32:-0.771983 33:-0.144138 34:0.733939 35:-0.387889 36:-1.682913 37:0.361843 38:-1.096881 39:0.892042 40:0.166093 41:0.358224 42:-0.997402 43:-0.680003 44:2.446435 45:-0.079110 46:-1.536369 47:-1.599263 48:0.175753 49:0.525179 50:0.320730 51:-0.915349 52:-0.102154 53:-0.996612 54:-0.078001 55:-0.494508 56:-0.452840 57:1.146017 58:0.451250 59:-0.421328 60:1.075164 61:-0.037310 62:0.390434 63:-1.255464 64:-1.745133 65:-0.979808 66:2.374408 67:-0.472807 68:-1.534649 69:-0.754386 70:-0.506842
-1 1:0.111333 2:0.337972 3:-1.357347 4:0.194504 5:0.886409 6:0.804804 7:-0.468414 8:0.049042 9:0.263798 10:1.301119 11:0.632293 12:0.259284 13:-0.601999 14:0.166002 15:1.297104 16:-0.140988 17:-1.193943 18:0.299641 19:0.464875 20:0.208053 21:-0.241917 22:-0.852321 23:-1.767744 24:1.313098 25:1.057323 26:0.546634 27:0.886382 28:0.862671 29:-0.165530 30:1.367238 31:-1.058261 32:-0.281088 33:0.291811 34:-1.146448 35:-0.655347 36:-1.131445 37:-0.075985 38:1.172426 39:-1.586302 40:0.477488 41:-0.398718 42:-1.920790 43:0.268957 44:-1.007709 45:-1.118082 46:-0.514769 47:-1.807547 48:0.976090 49:-0.361735 50:0.060411 51:0.716503 52:-0.309744 53:1.009567 54:0.427579 55:-1.600095 56:-0.523943 57:-1.280977 58:-2.794948 59:-2.415421 60:-1.011194 61:-1.037008 62:0.382735 63:-0.825419 64:-1.141298 65:-0.035809 66:0.970047 67:1.112515 68:-0.932061 69:0.099433 70:-0.286080
-1 1:0.882671 2:-0.846313 3:0.259239 4:0.422622 5:0.757844 6:-0.962727 7:0.963773 8:0.964990 9:0.081380 10:1.598553 11:0.185629 12:1.766549 13:-0.353134 14:-0.177587 15:-1.855221 16:-0.271708 17:0.833538 18:-0.293999 19:-0.216829 20:-0.174059 21:-0.348546 22:-0.635822 23:-1.218982 24:-1.174793 25:-0.858249 26:0.830877 27:0.385007 28:-0.076801 29:-0.322838 30:-0.615111 31:2.195080 32:0.140567 33:-1.149827 34:-0.335634 35:-1.491973 36:0.735482 37:0.058567 38:-1.757154 39:1.941582 40:-0.077984 41:0.232129 42:1.355560 43:0.779741 44:-0.004828 45:-0.294681 46:0.826936 47:0.549170 48:-0.844825 49:-1.792044 50:1.259862 51:0.799566 52:0.521341 53:0.290831 54:1.420714 55:-0.428272 56:-0.115697 57:-2.043039 58:-0.917443 59:-0.124424 60:0.388378 61:-0.690586 62:-0.794260 63:0.667907 64:0.551506 65:0.361714 66:0.191500 67:-0.183172 68:2.531110 69:0.588683 70:0.843510
-1 1:-0.811789 2:-0.878953 3:1.838287 4:0.487933 5:-1.063720 6:-1.194567 7:0.059007 8:-0.414767 9:1.501067 10:-0.037625 11:-1.121871 12:0.708666 13:-0.911365 14:-0.435642 15:-0.362594 16:1.366071 17:1.281140 18:1.023370 19:0.414535 20:-0.333536 21:-0.316392 22:1.128894 23:0.445231 24:1.705882 25:0.281233 26:0.011775 27:-0.439457 28:-0.480281 29:0.636699 30:-0.763419 31:1.093292 32:0.930699 33:-0.239407 34:0.574793 35:-1.898211 36:-1.710591 37:-0.316475 38:-0.523468 39:-0.628537 40:0.289296 41:1.044167 42:-0.698383 43:-0.429200 44:1.238444 45:-0.435671 46:0.171781 47:0.939173 48:-0.130812 49:-0.465343 50:-1.861654 51:-0.418604 52:-0.446225 53:0.232482 54:-0.374321 55:0.006061 56:-0.031030 57:0.799973 58:0.908853 59:0.078912 60:1.302421 61:0.758064 62:1.281381 63:0.257964 64:0.241714 65:0.035784 66:-0.084559 67:0.086597 68:-0.567192 69:-0.435764 70:-0.353563
-1 1:-0.163960 2:0.818847 3:-0.996589 4:-1.469295 5:0.621110 6:-0.973768 7:-0.723043 8:0.045464 9:-0.147001 10:0.401647 11:0.508444 12:1.227508 13:-0.201839 14:0.313639 15:0.953455 16:-1.168137 17:0.986806 18:0.051464 19:2.178353 20:0.590424 21:-0.968311 22:0.367664 23:1.021197 24:-0.454209 25:-0.631166 26:0.560437 27:1.271779 28:-1.235521 29:0.142223 30:-0.193225 31:0.264694 32:0.404226 33:0.777348 34:-0.417324 35:0.271428 36:-0.167756 37:0.345360 38:-0.689772 39:-1.930195 40:0.326970 41:0.223060 42:-0.045750 43:-0.348284 44:0.216010 45:-0.298952 46:-1.385741 47:-1.357272 48:1.853115 49:0.950329 50:-0.231935 51:0.242262 52:-1.331547 53:0.542524 54:-0.473357 55:-1.002604 56:0.711680 57:-1.260285 58:0.732447 59:0.257625 60:-0.995550 61:-0.516818 62:0.931967 63:0.353068 64:-0.822541 65:-0.174685 66:-0.349138 67:0.064845 68:0.608038 69:1.231221 70:-1.159038
-1 1:0.142063 2:2.041399 3:-0.976360 4:-1.134517 5:-0.299538 6:-0.247398 7:0.233730 8:0.272485 9:-1.334539 10:-0.845008 11:1.420523 12:-0.594336 13:0.925504 14:-1.226595 15:0.555545 16:-1.263542 17:-1.099017 18:0.110296 19:2.119553 20:-0.720030 21:-0.091846 22:1.358374 23:1.642001 24:1.450208 25:1.028082 26:-0.156551 27:0.657051 28:1.836671 29:0.331998 30:-0.756797 31:0.606665 32:-1.136741 33:0.009618 34:1.259846 35:-0.907467 36:-0.401630 37:1.690454 38:0.021749 39:-0.238438 40:-0.540731 41:0.387765 42:-0.176502 43:1.368280 44:-0.576898 45:-0.556416 46:0.127104 47:0.478295 48:-1.109605 49:1.852627 50:-0.659315 51:-0.943948 52:0.872770 53:-0.548154 54:-1.501436 55:0.361083 56:0.098639 57:-0.441417 58:-0.207179 59:1.490615 60:-0.327915 61:0.861248 62:0.326659 63:1.249510 64:0.364612 65:0.951286 66:-1.849405 67:-0.357358 68:-0.115117 69:-0.632175 70:0.420299
-1 1:-0.868849 2:-0.367383 3:-0.748081 4:0.205465 5:2.102260 6:0.317817 7:-0.440442 8:-1.059019 9:-0.496828 10:-0.144153 11:-0.796458 12:3.073503 13:0.866309 14:-0.022097 15:-1.201743 16:-0.510518 17:-2.201040 18:0.181640 19:-0.295969 20:0.400116 21:1.561276 22:-0.992197 23:-1.260781 24:0.371341 25:-0.462461 26:1.025836 27:2.400617 28:-1.631170 29:0.371498 30:0.664704 31:0.633785 32:1.221610 33:-0.868076 34:-0.857272 35:0.619710 36:0.725965 37:-0.206588 38:-0.154398 39:0.082918 40:-0.282413 41:0.749684 42:0.220537 43:-0.749707 44:-0.145148 45:1.131289 46:-0.458212 47:1.744369 48:0.685651 49:-0.789865 50:-0.799172 51:-2.222133 52:1.321033 53:-0.448042 54:1.365932 55:-0.109852 56:-1.019180 57:-1.033104 58:-0.515756 59:2.126018 60:0.790284 61:-1.769941 62:-0.033070 63:1.543238 64:0.319043 65:0.297890 66:-0.163541 67:0.999854 68:-0.935401 69:-0.716075 70:0.418956
-1 1:-0.967012 2:-1.430413 3:1.131835 4:0.263098 5:0.922111 6:-0.145302 7:0.241170 8:1.371189 9:-0.749662 10:-1.179052 11:0.513603 12:-1.434176 13:1.650774 14:0.436641 15:-0.346273 16:-0.230779 17:0.571921 18:-0.084699 19:-0.319008 20:-0.326960 21:1.205219 22:0.050054 23:-0.298389 24:1.225551 25:1.766042 26:0.089480 27:0.475983 28:-1.080089 29:-0.911069 30:0.352676 31:-2.861122 32:-1.757352 33:-1.691503 34:0.249372 35:0.563158 36:0.360035 37:-1.465312 38:-0.971528 39:-0.265270 40:1.709125 41:-2.019769 42:0.323102 43:2.205870 44:1.544624 45:-0.258989 46:0.206122 47:0.770669 48:-0.669680 49:-0.529718 50:1.458190 51:0.993018 52:0.230517 53:0.781497 54:-1.514101 55:0.936041 56:0.009702 57:-0.676133 58:-1.316133 59:0.865335 60:0.372771 61:-0.963108 62:-0.750171 63:-0.470901 64:-0.123551 65:-0.823494 66:-0.585736 67:-1.243045 68:-0.343522 69:-1.613778 70:0.030019
-1 1:0.818737 2:0.604845 3:-0.212818 4:-1.043486 5:-1.137853 6:-1.558638 7:-0.845202 8:-0.720557 9:-0.714876 10:1.366202 11:-1.008672 12:-1.213179 13:1.102722 14:-0.354752 15:-0.867409 16:-0.710512 17:-1.545342 18:-1.432645 19:-0.965180 20:-0.513125 21:1.087631 22:-0.733984 23:-1.439731 24:-0.986235 25:-0.963070 26:0.912297 27:1.195628 28:-0.553809 29:1.027593 30:-0.654248 31:-0.039156 32:-1.044892 33:-0.364051 34:-1.358356 35:0.263378 36:-0.863302 37:0.461117 38:0.196243 39:0.122255 40:-0.840144 41:1.049389 42:0.723781 43:1.870315 44:-0.294544 45:-0.156824 46:0.405628 47:-1.304520 48:-0.411685 49:-0.751024 50:1.626411 51:0.544829 52:-0.651973 53:-0.357784 54:-0.127567 55:-0.305828 56:-0.805975 57:-0.443033 58:-0.710117 59:-0.409149 60:-0.738631 61:1.908421 62:1.124201 63:2.870767 64:-0.209111 65:-1.404359 66:-1.050560 67:-1.006949 68:-0.501734 69:-1.247939 70:0.709095
-1 1:-0.010330 2:0.501848 3:-1.516436 4:-0.571669 5:-1.375801 6:-0.930775 7:1.624785 8:0.877174 9:-1.023816 10:-1.092633 11:0.066644 12:0.037882 13:-1.212518 14:-0.488395 15:-0.079959 16:-2.199175 17:-0.672154 18:-0.390344 19:-0.418834 20:0.795649 21:0.804673 22:0.938359 23:1.210429 24:0.540489 25:-0.511411 26:0.288511 27:-0.835584 28:-0.147226 29:-1.400894 30:-0.584791 31:1.664746 32:-0.020584 33:0.091058 34:0.710787 35:-0.056987 36:0.082407 37:0.419650 38:-0.459938 39:1.276920 40:0.228961 41:2.205682 42:0.539520 43:-0.861664 44:0.193487 45:-1.002077 46:-1.501589 47:-0.931461 48:1.098287 49:0.869792 50:2.018223 51:-2.001404 52:0.639588 53:0.118798 54:0.685029 55:0.158515 56:-1.829802 57:0.377690 58:-0.285138 59:-0.979235 60:-0.120526 61:-1.759061 62:-0.073218 63:0.662660 64:0.734526 65:-0.449474 66:0.401395 67:0.180865 68:0.933206 69:-0.373354 70:-0.394503
-1 1:0.080191 2:-0.481848 3:0.239920 4:1.495178 5:-0.949642 6:0.478734 7:0.558631 8:-0.807287 9:0.184934 10:0.589520 11:-1.176161 12:-0.816211 13:0.901698 14:0.890230 15:1.029718 16:-0.788690 17:-1.315964 18:-0.782024 19:-0.366737 20:-0.082721 21:-1.231915 22:1.633183 23:1.410304 24:1.037018 25:0.293278 26:1.407977 27:1.056337 28:-0.330805 29:-1.156612 30:-0.488614 31:1.081488 32:0.592593 33:-0.947896 34:-0.662566 35:-0.074178 36:-1.038502 37:1.047540 38:2.190892 39:0.314678 40:0.828666 41:1.382815 42:1.395762 43:-0.653271 44:0.150245 45:0.815192 46:0.097013 47:-0.127828 48:-2.137047 49:0.044624 50:1.753062 51:-0.262020 52:-1.139333 53:1.454421 54:0.276543 55:-0.010233 56:-2.409749 57:-0.073891 58:-1.326920 59:-1.596279 60:0.861831 61:-0.858474 62:0.003070 63:-2.273211 64:-0.916323 65:1.534031 66:0.898424 67:-3.632002 68:0.507656 69:-0.922618 70:0.063978
-1 1:1.005048 2:-0.352618 3:-0.023282 4:0.597213 5:-1.148492 6:1.693291 7:-0.845737 8:-0.985233 9:-0.666339 10:-1.165631 11:0.945602 12:1.037829 13:1.929286 14:0.674653 15:-2.573359 16:-0.979291 17:1.635594 18:-0.197776 19:0.231895 20:0.128172 21:-0.500118 22:-0.365710 23:1.230047 24:1.547398 25:0.716606 26:0.119557 27:1.105122 28:0.231320 29:0.280724 30:1.219206 31:0.384094 32:-0.709902 33:-0.699105 34:-0.726442 35:-1.674830 36:-2.476139 37:-0.227119 38:-0.407354 39:1.646800 40:-1.014967 41:-0.138478 42:0.763089 43:0.335489 44:0.541674 45:-0.870011 46:-0.414038 47:-0.103595 48:0.096884 49:-0.143090 50:-0.391290 51:-1.124659 52:-0.454188 53:1.452357 54:-0.709537 55:1.417209 56:-1.952436 57:0.067221 58:-1.231260 59:-1.800683 60:-1.694489 61:1.293929 62:-0.374314 63:0.308169 64:0.879905 65:-0.120866 66:0.021630 67:1.923346 68:1.447977 69:-0.861509 70:0.038795
-1 1:0.568909 2:-0.063358 3:0.615677 4:0.438584 5:1.986265 6:-0.495364 7:-0.197522 8:0.624629 9:0.455610 10:-0.870106 11:1.437743 12:0.162580 13:0.332574 14:-0.627374 15:-1.017507 16:0.832639 17:0.532771 18:-0.196009 19:1.028757 20:-0.242170 21:0.999789 22:1.297320 23:-1.450673 24:0.276043 25:0.727102 26:-0.865703 27:0.956853 28:-0.564309 29:0.716179 30:0.359455 31:0.603376 32:0.013598 33:0.648666 34:-0.729291 35:2.052150 36:-1.374913 37:0.535497 38:0.416290 39:-0.730178 40:-0.190070 41:-0.361182 42:0.505030 43:-0.908102 44:0.602709 45:0.627585 46:1.221673 47:0.547947 48:-0.502626 49:-0.617650 50:-1.258000 51:-0.107084 52:-0.005015 53:-0.430682 54:-0.851518 55:0.240150 56:-0.062774 57:0.638654 58:-0.333559 59:-0.639533 60:0.439160 61:1.446591 62:-0.669559 63:-0.739591 64:1.451921 65:0.579402 66:-0.267724 67:0.203717 68:-0.209354 69:-0.377579 70:-0.405278
-1 1:0.770730 2:-0.659857 3:-0.665466 4:-2.258505 5:-1.310761 6:2.571453 7:0.842051 8:-1.809715 9:0.244271 10:0.025240 11:-0.327688 12:0.803880 13:-0.642327 14:1.961311 15:1.995888 16:-0.661981 17:1.211947 18:0.759400 19:-1.061318 20:1.857510 21:0.089755 22:-1.519929 23:-0.109591 24:-2.792443 25:1.370917 26:-0.177379 27:-0.274422 28:-1.319802 29:-1.214375 30:0.053893 31:-1.434417 32:-0.038443 33:0.690635 34:-0.107604 35:-0.001697 36:-0.165825 37:-1.327300 38:-1.811834 39:0.790316 40:1.015406 41:-0.406352 42:-1.442733 43:0.879785 44:1.101267 45:0.665953 46:-0.450280 47:0.030305 48:1.278113 49:-1.447758 50:0.902793 51:-0.062994 52:-0.745017 53:-0.138802 54:-0.261461 55:0.740078 56:0.280779 57:-1.154733 58:-0.188822 59:-0.433152 60:1.434439 61:-1.190818 62:0.475250 63:-0.570591 64:0.521760 65:0.897741 66:-0.834761 67:0.630841 68:0.540243 69:-1.922250 70:1.440649
-1 1:1.838994 2:2.321062 3:0.873267 4:0.892176 5:-1.300571 6:-0.780062 7:0.240714 8:1.486716 9:-0.822631 10:-0.201500 11:0.085966 12:0.018516 13:1.688731 14:-0.457706 15:1.035588 16:0.883447 17:-0.837891 18:1.313918 19:-0.000638 20:0.486565 21:0.346534 22:0.112206 23:-0.171425 24:0.141913 25:1.025271 26:0.347593 27:-0.201690 28:-0.672578 29:0.085838 30:-1.089954 31:-0.619260 32:-0.479147 33:-0.927058 34:0.117807 35:-0.737211 36:0.342678 37:0.815436 38:-0.070163 39:0.449231 40:0.243123 41:-0.993421 42:-0.034457 43:0.321942 44:0.270143 45:0.582459 46:-0.776555 47:-0.730916 48:-1.784326 49:-0.650512 50:1.426673 51:-1.965381 52:-0.841789 53:-0.704669 54:1.514152 55:0.692173 56:0.419029 57:-0.065128 58:-0.447835 59:-0.335850 60:0.600424 61:1.118572 62:0.854113 63:0.304177 64:0.491615 65:0.460654 66:-0.842154 67:-0.349588 68:-1.520529 69:0.520301 70:-0.388907
-1 1:1.329710 2:-0.801098 3:-1.346032 4:0.757434 5:0.507174 6:0.003130 7:0.092927 8:2.333034 9:0.709605 10:-0.500378 11:1.111966 12:-0.473400 13:2.077193 14:-0.573795 15:0.930259 16:-1.965681 17:-0.013325 18:-1.093875 19:0.476432 20:0.103154 21:0.369882 22:0.412859 23:-0.483505 24:-0.259262 25:-0.967773 26:0.708833 27:1.360210 28:-0.608428 29:0.065906 30:0.192353 31:-0.566057 32:-0.811208 33:1.674493 34:0.501814 35:-2.179110 36:-1.272022 37:-0.598579 38:0.863730 39:-1.059892 40:-1.756821 41:-0.360074 42:-0.250389 43:0.523976 44:-1.005369 45:-1.976351 46:-1.309086 47:0.195810 48:0.057273 49:2.316425 50:-1.844564 51:0.090328 52:-0.054533 53:0.858816 54:1.153002 55:1.023423 56:0.456451 57:-1.910008 58:-1.262639 59:-0.362617 60:-0.289903 61:0.242147 62:-0.282652 63:0.726403 64:0.815389 65:1.412877 66:0.748750 67:-2.030052 68:0.147473 69:-0.812069 70:-1.133171
-1 1:-0.785149 2:0.099187 3:2.120212 4:-0.640250 5:-1.037260 6:0.226585 7:-1.696316 8:0.823914 9:0.201918 10:-2.418175 11:-0.688881 12:0.594771 13:-0.955225 14:0.604377 15:1.233351 16:-0.556004 17:0.769443 18:0.126908 19:0.852190 20:-0.318440 21:0.447272 22:-0.537062 23:-0.560058 24:-0.587001 25:-0.266630 26:-1.740924 27:0.788931 28:0.519547 29:-0.687852 30:0.325936 31:-0.403495 32:0.668493 33:-0.449801 34:-2.176482 35:0.277610 36:0.246553 37:1.093035 38:-0.635802 39:-0.126095 40:1.530796 41:-1.154250 42:0.906753 43:-0.383583 44:-0.557978 45:-1.774524 46:-0.900233 47:1.092294 48:-0.404685 49:-1.042137 50:1.041761 51:-0.804544 52:-1.701391 53:0.422216 54:0.418014 55:1.037819 56:-0.405146 57:0.512991 58:-0.090511 59:0.108658 60:-0.018823 61:2.189331 62:-1.095610 63:-0.901787 64:-0.571751 65:0.370554 66:-0.789173 67:-0.742468 68:0.481868 69:0.646646 70:-1.406267
-1 1:-0.341904 2:1.868106 3:-1.008817 4:0.685600 5:-0.006308 6:-0.162093 7:1.029948 8:-1.040096 9:-0.092208 10:0.649883 11:-0.400266 12:0.377519 13:1.566330 14:0.537630 15:-0.349858 16:-0.120547 17:-0.463733 18:-0.115968 19:-2.180631 20:0.049030 21:1.083450 22:-0.886785 23:-1.195864 24:0.169966 25:-0.639886 26:-0.266982 27:0.263483 28:0.465188 29:-1.047741 30:0.022471 31:1.110689 32:0.479928 33:-0.947793 34:-0.107678 35:-1.001746 36:1.128979 37:-0.277984 38:-0.552150 39:0.410026 40:-0.505174 41:-0.611504 42:-1.429647 43:0.474048 44:0.980117 45:-0.339494 46:1.566877 47:-0.149233 48:-0.337161 49:0.517973 50:-0.430898 51:1.976236 52:0.379141 53:1.541176 54:0.180739 55:0.393276 56:-0.882071 57:-0.884506 58:0.601687 59:-0.107454 60:-0.878677 61:1.363455 62:-0.981109 63:0.397901 64:1.696126 65:1.149963 66:-0.229195 67:0.256496 68:0.606152 69:-0.977550 70:0.711244
-1 1:-0.013451 2:-1.588777 3:1.002280 4:-0.938263 5:0.356302 6:0.532077 7:-0.921622 8:-0.631825 9:-0.013424 10:-0.327430 11:-1.569802 12:-0.260182 13:0.265392 14:1.187042 15:0.245717 16:1.246464 17:-0.989131 18:-0.764645 19:0.012365 20:0.477281 21:-1.148868 22:0.185344 23:2.142784 24:0.149183 25:1.453308 26:0.975380 27:-0.189033 28:0.562824 29:1.044307 30:-1.261352 31:-0.119640 32:-1.117182 33:-0.503030 34:-0.427044 35:-0.455458 36:-0.596744 37:0.953320 38:2.147865 39:1.682786 40:-2.320380 41:-0.628621 42:-0.778624 43:-1.745366 44:-1.280519 45:0.558841 46:0.315074 47:2.402726 48:-0.436195 49:-0.231012 50:1.312236 51:0.576109 52:0.169587 53:-0.045836 54:0.739580 55:0.541541 56:-0.733221 57:-2.154423 58:-1.057998 59:1.842302 60:1.952464 61:-1.584895 62:0.618123 63:-0.160764 64:-1.765380 65:1.536367 66:0.614401 67:0.336173 68:-0.834196 69:1.296137 70:-1.323773
-1 1:0.123381 2:0.125232 3:-0.047243 4:0.720990 5:-1.386041 6:-1.394206 7:-0.073894 8:-0.966982 9:0.143225 10:1.811260 11:0.363390 12:0.534743 13:2.148258 14:-0.527408 15:0.550032 16:0.483140 17:1.355985 18:-1.693326 19:-0.322199 20:0.504093 21:-0.810074 22:-0.063494 23:-1.500415 24:-1.115501 25:0.061543 26:1.480459 27:-0.714967 28:1.605577 29:0.307528 30:-1.168169 31:-0.228125 32:0.442050 33:-1.030844 34:0.710858 35:1.396702 36:-1.064658 37:-0.370489 38:-1.649020 39:-0.048825 40:-0.454949 41:0.323911 42:1.741329 43:-0.504217 44:-0.878434 45:2.259627 46:-0.199462 47:0.518538 48:1.063140 49:0.756253 50:-0.549900 51:0.142787 52:-0.311093 53:1.405550 54:2.637358 55:-0.597815 56:-0.079163 57:0.558687 58:-1.355398 59:-0.279863 60:-0.343688 61:-0.117655 62:-1.373380 63:-1.809481 64:-1.141378 65:-0.408663 66:1.258213 67:-0.926556 68:0.941024 69:0.389084 70:-0.195508
-1 1:-0.701084 2:-0.054413 3:0.524730 4:0.103957 5:0.491504 6:0.403055 7:-1.254329 8:-1.019732 9:-0.998469 10:0.852853 11:0.629357 12:-0.045584 13:0.504712 14:1.624461 15:0.791950 16:0.270150 17:-0.988945 18:0.444298 19:0.022487 20:-1.692157 21:0.942016 22:-0.798190 23:1.272187 24:-0.182804 25:-1.504765 26:1.696425 27:-0.221459 28:0.905408 29:-0.464862 30:0.535002 31:-0.209800 32:0.903143 33:0.294565 34:0.753273 35:1.410964 36:-0.511187 37:0.227216 38:-0.202918 39:-0.719536 40:-1.340029 41:-2.485363 42:-1.370712 43:0.169984 44:0.619724 45:-1.204605 46:1.033846 47:0.962787 48:0.621170 49:-0.406840 50:0.086927 51:0.998986 52:-0.843775 53:-0.934510 54:1.925220 55:0.597825 56:-1.186383 57:1.175359 58:-1.306616 59:-0.852755 60:0.241369 61:1.299940 62:-1.768528 63:0.916203 64:-1.060724 65:1.193204 66:-1.090353 67:0.414718 68:0.681721 69:-0.596696 70:-0.332365
-1 1:0.265555 2:0.041408 3:0.297160 4:-0.545507 5:2.091556 6:0.004122 7:-0.249784 8:-0.709362 9:-1.102376 10:-1.351260 11:0.411732 12:-0.735441 13:-0.972567 14:0.445558 15:-0.733217 16:0.304825 17:0.106028 18:-0.160713 19:-0.316407 20:-0.373421 21:0.926844 22:-0.241418 23:-0.889706 24:1.189187 25:0.837615 26:0.051569 27:-1.473642 28:1.078233 29:1.528142 30:0.405112 31:0.380698 32:-2.401674 33:0.290137 34:-1.261453 35:-1.249321 36:0.916069 37:-0.510257 38:0.157648 39:2.196192 40:0.817100 41:-0.292652 42:-0.451064 43:0.963712 44:-0.727014 45:2.824998 46:0.537419 47:0.558474 48:-0.962045 49:-0.493838 50:-0.438636 51:0.449580 52:0.073125 53:0.325241 54:0.903342 55:1.469886 56:0.895825 57:0.149875 58:-0.228439 59:-1.512687 60:-0.052098 61:0.519673 62:-0.068369 63:1.318655 64:-0.513878 65:0.847809 66:-0.341396 67:1.742100 68:-0.347125 69:-0.242592 70:0.471402
-1 1:-0.398107 2:-0.508603 3:-0.453433 4:1.576807 5:1.151297 6:-0.126111 7:-0.469212 8:1.142285 9:0.220472 10:0.455263 11:-0.212325 12:-0.593678 13:-0.102706 14:0.579100 15:-0.489272 16:-0.541961 17:1.132297 18:-0.893578 19:-0.509506 20:0.133945 21:-0.242263 22:-0.759791 23:0.651818 24:0.154767 25:1.585799 26:0.512052 27:-0.435445 28:-0.603090 29:1.047288 30:0.506875 31:-0.224098 32:-0.891647 33:1.277959 34:-1.008042 35:-1.138751 36:0.632707 37:-0.923090 38:-0.350927 39:0.813525 40:-0.831098 41:0.554644 42:1.520460 43:-1.481440 44:1.102454 45:-2.287944 46:0.556991 47:2.030766 48:0.269540 49:0.883520 50:-0.143953 51:0.726283 52:-0.984756 53:-1.002427 54:-0.925492 55:-0.287641 56:-0.306178 57:0.966567 58:1.442465 59:-0.872159 60:0.492166 61:0.962498 62:-1.337944 63:-0.809096 64:0.490054 65:1.344608 66:-1.790170 67:-0.812379 68:0.453635 69:0.937017 70:-0.783634
-1 1:-0.143750 2:-0.174741 3:1.262467 4:-0.481105 5:-0.929947 6:1.381356 7:-0.890403 8:-1.770898 9:2.316637 10:-0.129007 11:0.641317 12:-0.489818 13:1.119611 14:1.738836 15:-1.523845 16:0.146859 17:-2.218920 18:1.267386 19:-0.757410 20:0.669210 21:0.550523 22:-0.328381 23:1.380303 24:-1.692431 25:1.568680 26:-0.641324 27:0.450457 28:0.843414 29:0.440644 30:0.481116 31:-0.689071 32:0.700069 33:0.478076 34:1.053448 35:-0.322566 36:1.343585 37:0.352247 38:-1.004019 39:-0.248396 40:0.307207 41:2.643063 42:-0.619649 43:0.180529 44:0.235324 45:0.567643 46:1.371719 47:-0.416456 48:-0.617803 49:-0.796264 50:0.708912 51:1.711954 52:0.807426 53:1.491526 54:0.102606 55:0.786708 56:-0.696595 57:0.544632 58:0.298035 59:0.921093 60:-0.906339 61:0.323668 62:0.800656 63:0.565455 64:0.282635 65:0.647020 66:1.662688 67:1.103763 68:0.326467 69:0.704515 70:-1.912570
-1 1:-0.101725 2:-0.220719 3:1.820235 4:0.645338 5:-1.498135 6:-0.795677 7:-0.424348 8:-1.129193 9:-0.611762 10:-0.007085 11:-0.079565 12:0.232272 13:-0.852572 14:0.718174 15:-1.823044 16:-0.010300 17:-1.466388 18:-1.108580 19:-1.025119 20:-0.099863 21:-1.267166 22:-0.271767 23:-0.364736 24:-0.101797 25:-0.369504 26:0.407667 27:0.104488 28:1.035391 29:-0.124302 30:-0.236055 31:0.932957 32:-1.606459 33:2.554416 34:-0.294822 35:-2.574793 36:0.646320 37:2.382263 38:0.378024 39:-0.772803 40:0.970205 41:-0.396374 42:1.475449 43:0.629899 44:0.137242 45:-1.205207 46:1.582314 47:-0.193010 48:-2.403870 49:0.370343 50:-0.278243 51:-1.642501 52:-0.027299 53:-0.872701 54:-0.003334 55:0.570971 56:0.360636 57:-1.019408 58:1.092630 59:0.709767 60:-0.071242 61:-0.763492 62:0.709047 63:-0.846854 64:-0.800787 65:-0.554896 66:-1.092329 67:1.346490 68:1.565480 69:0.875547 70:-1.771949
-1 1:0.519240 2:-0.021587 3:-1.211578 4:-0.468781 5:0.348782 6:-1.178241 7:-0.862421 8:3.770709 9:-0.415731 10:-1.106224 11:0.920464 12:0.353528 13:-0.912989 14:0.235064 15:-0.062181 16:0.092198 17:-0.667743 18:0.317743 19:0.477481 20:0.573093 21:-0.689978 22:-1.710104 23:0.362657 24:-0.578897 25:-0.771042 26:0.066167 27:-2.248825 28:-0.345663 29:-0.118968 30:-1.407805 31:1.275527 32:1.271796 33:-1.365639 34:0.547330 35:0.010316 36:0.081686 37:0.799046 38:-0.814309 39:-0.518731 40:-2.018662 41:-0.043836 42:-0.061249 43:0.120013 44:0.171425 45:-0.289244 46:0.037428 47:-1.326272 48:1.043634 49:0.288542 50:0.912706 51:-1.278474 52:0.252816 53:-0.103800 54:-0.260312 55:0.882704 56:0.406386 57:-0.175561 58:-0.468013 59:-1.504508 60:-0.271407 61:0.583915 62:1.404472 63:-0.654418 64:0.175557 65:-1.307458 66:0.149900 67:0.320621 68:0.659996 69:-0.349782 70:-0.348794
-1 1:0.239989 2:1.816255 3:0.637250 4:2.363194 5:1.529788 6:-0.217150 7:0.270758 8:-0.526185 9:-0.582544 10:0.271764 11:2.632883 12:-1.461676 13:-0.793457 14:-0.054337 15:0.588165 16:2.012216 17:-0.930392 18:0.937110 19:-1.033834 20:-0.000584 21:1.288689 22:-0.330412 23:0.474566 24:-0.307379 25:0.242444 26:0.528839 27:0.034693 28:-0.572099 29:-0.477038 30:-0.120272 31:0.480670 32:-0.951803 33:1.529202 34:1.233947 35:0.787931 36:0.231821 37:-0.030612 38:-1.626381 39:0.320971 40:0.118519 41:-1.601747 42:1.827701 43:-0.431831 44:-0.009283 45:0.771315 46:0.914431 47:-3.065521 48:-2.258716 49:-1.069267 50:-0.449916 51:1.301413 52:-0.036967 53:2.481272 54:0.137114 55:0.033719 56:-2.398402 57:0.170346 58:0.830661 59:0.150980 60:-1.377403 61:0.941988 62:-1.865726 63:-0.805115 64:0.719237 65:-0.616436 66:1.337796 67:-0.856095 68:-0.664693 69:-1.063711 70:-0.613390
-1 1:1.032041 2:-0.577027 3:-0.031928 4:1.509774 5:2.192617 6:0.372069 7:0.060313 8:3.093838 9:1.036965 10:-1.408689 11:0.955742 12:2.190406 13:-0.892232 14:0.714684 15:-2.080862 16:0.573510 17:0.335395 18:-0.843159 19:-0.397903 20:0.692978 21:0.573841 22:0.058563 23:-0.803969 24:-0.767918 25:0.022782 26:-2.478405 27:0.041248 28:2.439323 29:-1.377477 30:-0.179082 31:-0.922282 32:-0.908053 33:-0.279896 34:-0.311309 35:-0.988026 36:-0.091524 37:1.255036 38:-0.597685 39:-0.343181 40:-1.073160 41:0.159723 42:1.625876 43:-0.664837 44:-1.784541 45:0.327216 46:-1.348184 47:-0.489779 48:-0.397153 49:0.047726 50:-0.569879 51:1.280528 52:-0.211775 53:-0.209580 54:1.168504 55:-0.195427 56:0.803923 57:-0.654269 58:-1.152561 59:0.280517 60:-0.436894 61:1.088568 62:-0.185020 63:-0.704898 64:-0.004636 65:0.088853 66:0.087347 67:-0.390627 68:-0.141733 69:0.333648 70:0.507570
-1 1:1.559971 2:0.631129 3:0.383689 4:0.005734 5:0.922644 6:-1.512960 7:-1.130913 8:1.101228 9:0.142527 10:0.286507 11:0.175449 12:1.056950 13:0.381190 14:2.617953 15:-0.075924 16:-0.313703 17:-0.613919 18:0.370385 19:-0.377070 20:-0.494626 21:-0.338255 22:-0.387741 23:0.818338 24:-0.318090 25:0.801276 26:-0.198625 27:-0.647238 28:0.542434 29:-0.487082 30:0.174230 31:-0.273205 32:1.736497 33:-1.931140 34:1.622788 35:-0.858257 36:0.177719 37:-0.338654 38:1.004976 39:-0.145110 40:-1.449204 41:1.807440 42:0.344556 43:-0.308573 44:-0.894317 45:-0.167484 46:-0.048512 47:0.528780 48:-0.054789 49:-0.023592 50:1.002156 51:0.682176 52:1.593787 53:0.128164 54:0.163994 55:0.759139 56:-0.154388 57:-0.080311 58:-1.005954 59:-1.584373 60:0.181973 61:-1.137294 62:-0.640764 63:0.090091 64:-0.120743 65:0.840702 66:-0.384070 67:0.064807 68:0.669844 69:-1.255760 70:-0.141839
-1 1:0.497800 2:-1.136498 3:-1.584504 4:-2.741088 5:0.172816 6:-1.477700 7:1.754766 8:0.008437 9:-0.364002 10:1.431531 11:0.811445 12:1.582429 13:1.544277 14:-0.308003 15:0.475847 16:-0.475053 17:-0.618388 18:-0.451190 19:0.081518 20:-0.291690 21:-0.344305 22:0.566396 23:-0.767951 24:-0.201674 25:1.054012 26:-0.462232 27:0.156672 28:-0.813487 29:-1.089757 30:-0.407359 31:-1.284662 32:-0.741742 33:0.116376 34:-1.954089 35:0.728826 36:1.225919 37:0.592403 38:0.089052 39:-0.880309 40:0.906909 41:2.480043 42:1.045515 43:-1.115566 44:-0.992887 45:-0.221957 46:0.377775 47:0.573652 48:-0.352039 49:-0.315780 50:0.931662 51:-1.186749 52:-1.159853 53:0.065136 54:-0.209279 55:1.084653 56:-1.043858 57:2.720138 58:-1.814580 59:0.071651 60:-1.467931 61:-1.551429 62:-0.614146 63:-0.189312 64:-1.516756 65:-1.525968 66:-0.907156 67:-1.126476 68:-1.212945 69:0.808029 70:-0.420242
-1 1:1.209691 2:-0.585793 3:0.642018 4:0.167161 5:0.286639 6:1.056582 7:0.121874 8:-1.269973 9:1.038949 10:-0.523771 11:1.952805 12:0.371360 13:-0.216594 14:-1.148346 15:0.236258 16:1.476358 17:2.609200 18:0.474836 19:-0.640657 20:1.680293 21:0.236323 22:-1.652706 23:-1.106310 24:-0.126370 25:0.547620 26:-0.752434 27:-0.180130 28:-0.065327 29:1.118879 30:0.205699 31:-1.294956 32:1.254964 33:2.320184 34:-0.971407 35:0.194445 36:0.654028 37:0.410795 38:-0.232712 39:0.087926 40:1.137685 41:0.457492 42:-0.621177 43:-0.479555 44:0.499353 45:0.401069 46:-0.861881 47:-1.046690 48:1.641957 49:-0.045175 50:0.866903 51:0.299584 52:-0.028791 53:0.624305 54:-1.873290 55:-0.782662 56:-0.573759 57:0.576300 58:0.152785 59:1.216032 60:-0.568133 61:-0.838249 62:-1.501696 63:-0.420381 64:-0.412469 65:1.789181 66:-1.050968 67:-1.228408 68:0.817727 69:0.489924 70:-0.485234
-1 1:-0.229045 2:-0.711996 3:0.227608 4:-0.738049 5:-0.930504 6:0.583902 7:0.169648 8:-0.072889 9:0.827327 10:-1.414136 11:-0.293073 12:0.924962 13:-0.486096 14:-1.964359 15:-2.360784 16:-0.213472 17:-0.654203 18:-0.640316 19:-0.838152 20:-0.919669 21:0.568224 22:-0.934947 23:-0.143426 24:1.041391 25:-0.393429 26:-2.462934 27:1.039516 28:0.290854 29:1.041018 30:-1.647304 31:0.364805 32:-0.904019 33:-0.157265 34:0.651077 35:0.557121 36:0.789335 37:-1.321497 38:0.925161 39:0.114545 40:-0.207208 41:0.840591 42:1.860965 43:1.354616 44:0.595782 45:0.388485 46:1.057867 47:0.850805 48:0.678700 49:0.648840 50:-1.954341 51:0.219529 52:2.445049 53:-0.226737 54:-0.962058 55:1.152349 56:1.046162 57:0.020897 58:1.046246 59:-0.650737 60:1.195264 61:0.327465 62:1.000568 63:-2.025079 64:-0.861297 65:1.221891 66:-0.055456 67:-0.179022 68:1.780363 69:-0.613215 70:-2.736370
-1 1:0.359140 2:0.165177 3:-1.437176 4:0.128266 5:0.093778 6:-0.646148 7:-1.030384 8:-0.041283 9:0.448926 10:0.119957 11:-0.576182 12:-1.239290 13:0.891364 14:0.030735 15:0.609247 16:-0.546038 17:-0.995940 18:-1.614150 19:1.166599 20:0.518513 21:1.308258 22:-1.175334 23:-1.342457 24:-1.309989 25:-1.945103 26:-1.770727 27:-0.323047 28:-0.141649 29:0.181644 30:-0.369963 31:-0.347214 32:1.742905 33:-0.710335 34:-0.241763 35:-0.635295 36:-0.184240 37:-1.026624 38:-0.613606 39:1.470622 40:0.263925 41:1.613652 42:0.334230 43:-0.237336 44:-0.044203 45:-0.690791 46:-0.606268 47:1.413119 48:-0.125170 49:0.277455 50:-0.929157 51:-0.030235 52:-0.430433 53:-0.639791 54:-0.302719 55:-0.772998 56:-1.246303 57:-0.782413 58:-1.395085 59:1.060253 60:-0.831057 61:-0.206955 62:0.073890 63:-0.275703 64:0.545739 65:-0.052137 66:-0.835345 67:-0.203386 68:-0.142870 69:1.699606 70:-0.802337
-1 1:2.036112 2:-1.265558 3:-1.981356 4:1.611228 5:1.755559 6:0.282887 7:-0.210105 8:0.530650 9:-1.430609 10:-0.276519 11:-0.230852 12:-0.424441 13:-1.586137 14:-0.257865 15:0.267875 16:-0.522055 17:0.620306 18:1.065681 19:-0.944300 20:-1.162929 21:-0.044561 22:-0.618700 23:0.822287 24:-1.240741 25:0.505033 26:1.432334 27:1.349460 28:-0.770995 29:-1.329969 30:-1.881215 31:-0.544114 32:0.283135 33:1.346901 34:-0.251784 35:-0.565504 36:-0.675659 37:0.057333 38:-0.365880 39:0.167834 40:-1.867001 41:1.311732 42:0.547529 43:1.377781 44:0.187250 45:-0.505980 46:1.128314 47:-0.201018 48:1.854341 49:-0.309676 50:0.441683 51:-0.331340 52:-1.387785 53:0.932942 54:-0.768285 55:0.254510 56:-0.116854 57:0.687103 58:0.834119 59:0.303432 60:0.514945 61:-0.409811 62:-0.222895 63:0.420325 64:1.103068 65:-1.628878 66:-1.138403 67:0.266165 68:-1.089785 69:-0.650377 70:-1.454710
-1 1:-0.633016 2:2.023471 3:-1.466172 4:1.842038 5:-0.213841 6:-0.338395 7:-1.797224 8:0.125651 9:0.449362 10:0.402397 11:-0.071481 12:-0.235937 13:-0.408051 14:0.205566 15:0.854759 16:-0.714033 17:-0.002579 18:0.510139 19:-1.818450 20:0.893856 21:-0.079361 22:-0.166501 23:-0.678007 24:-0.355850 25:-1.864718 26:-0.886005 27:0.137048 28:-1.128007 29:0.181077 30:-0.943878 31:0.234352 32:-0.322264 33:-1.707625 34:0.373618 35:0.023349 36:-0.450681 37:0.590951 38:0.395925 39:-0.462646 40:1.098894 41:-1.178906 42:1.941710 43:-1.407662 44:0.245754 45:1.083932 46:-0.088700 47:-0.630930 48:-0.825226 49:1.288056 50:0.291297 51:-2.269053 52:-0.697629 53:0.544629 54:-0.092924 55:0.293394 56:-0.166376 57:-0.552915 58:-0.985964 59:0.215974 60:0.031997 61:0.107488 62:-1.301056 63:2.969128 64:0.045552 65:-1.595197 66:-4.010341 67:0.893765 68:-0.465496 69:-0.654594 70:0.320591
-1 1:-0.150347 2:-1.738267 3:0.476872 4:-0.300909 5:0.729264 6:-1.154417 7:-0.079324 8:-0.648389 9:0.615464 10:-2.378031 11:2.434157 12:2.292340 13:-1.507863 14:0.917101 15:0.479537 16:-0.419775 17:1.269416 18:1.126325 19:-0.131616 20:-0.117202 21:-0.005538 22:0.729824 23:-0.729009 24:-0.530745 25:-1.594238 26:-1.015772 27:1.516487 28:0.234395 29:0.122441 30:1.164342 31:0.332591 32:-0.186894 33:1.431587 34:1.178868 35:-1.181699 36:0.029914 37:0.401913 38:0.328761 39:1.516279 40:1.079631 41:-0.187675 42:-1.994150 43:-0.101226 44:-1.743035 45:0.501270 46:0.755538 47:1.024194 48:0.335123 49:-0.005880 50:0.320768 51:1.262726 52:-0.734727 53:-0.513518 54:-1.059127 55:-1.196288 56:1.816637 57:1.312288 58:-1.231706 59:-0.323526 60:-0.836721 61:-0.491247 62:-0.315938 63:-0.377949 64:-1.019610 65:-0.083161 66:0.079945 67:0.162329 68:0.861903 69:-1.110752 70:-0.436996
-1 1:0.766889 2:-0.730209 3:0.279087 4:-1.129600 5:-1.275280 6:1.669417 7:0.168989 8:0.018424 9:-0.087276 10:2.139979 11:0.726320 12:-0.928701 13:-0.815327 14:2.094588 15:-2.498997 16:0.972273 17:2.589425 18:1.355134 19:-0.197015 20:0.080476 21:0.268820 22:0.535202 23:-0.453865 24:-0.651077 25:2.665184 26:0.475740 27:0.034997 28:-0.334282 29:-0.683924 30:0.185324 31:0.247158 32:-1.300093 33:-0.267135 34:0.067502 35:0.383167 36:-0.757879 37:0.836183 38:1.404107 39:-0.709534 40:-0.810872 41:0.268260 42:-0.931454 43:-1.856197 44:0.260384 45:-0.189705 46:1.189832 47:-0.276143 48:-0.854512 49:-0.263510 50:-0.267117 51:0.899895 52:-0.170961 53:1.114007 54:0.095853 55:-0.931637 56:1.168529 57:1.281965 58:1.299571 59:0.860396 60:-1.421675 61:0.224376 62:1.330813 63:-1.080936 64:-0.653015 65:-0.839113 66:-1.223752 67:-0.916034 68:-0.589059 69:1.154033 70:0.699882
-1 1:0.808635 2:-0.509536 3:-1.942615 4:-0.058298 5:-1.122179 6:0.246148 7:0.483702 8:-1.276310 9:-2.047963 10:0.971257 11:0.511181 12:-0.313513 13:0.534565 14:-0.173953 15:-0.995129 16:0.224788 17:-0.671578 18:0.825959 19:1.431972 20:0.502401 21:-0.260770 22:1.526669 23:1.760265 24:1.521141 25:0.165878 26:-1.454835 27:-1.184899 28:1.353402 29:-1.119395 30:-0.840233 31:-1.833516 32:-1.594533 33:0.647838 34:-0.063211 35:0.033985 36:0.095558 37:0.002082 38:-1.521757 39:-0.140019 40:0.688894 41:0.707727 42:0.123144 43:0.092854 44:-1.131613 45:-1.218244 46:-0.341951 47:-0.633687 48:-0.591695 49:-0.462913 50:-0.129803 51:0.989245 52:-1.252148 53:-0.672190 54:-1.410491 55:-0.820703 56:-1.018551 57:0.316314 58:-0.148756 59:-0.300521 60:0.022752 61:-1.661936 62:0.129362 63:0.987650 64:-0.288042 65:-0.472680 66:0.755193 67:-0.561810 68:1.161170 69:1.491909 70:0.063098
-1 1:-1.563601 2:0.584774 3:0.163533 4:-0.487586 5:1.479711 6:-1.209150 7:-0.587529 8:1.593110 9:-0.127963 10:-2.703601 11:0.854234 12:0.879373 13:1.093751 14:-1.054733 15:0.920849 16:-1.392941 17:-0.268898 18:0.312049 19:-0.581860 20:-0.409829 21:0.283360 22:-0.420224 23:-2.143614 24:-0.034214 25:-1.565830 26:1.182513 27:0.762386 28:0.382889 29:1.601950 30:0.563541 31:1.926543 32:-0.369049 33:0.888919 34:-0.680413 35:-0.320450 36:0.984176 37:-0.380447 38:-0.766685 39:-0.328131 40:-1.219794 41:-1.208609 42:0.249939 43:-1.386908 44:-0.590842 45:0.523943 46:-1.431911 47:0.898621 48:1.259212 49:0.285311 50:-0.210786 51:-0.407213 52:-0.061595 53:1.065874 54:0.067753 55:0.636605 56:0.280998 57:-1.468740 58:-2.145700 59:1.055373 60:0.306573 61:-2.149826 62:-1.004716 63:1.920420 64:0.834732 65:-0.119747 66:-0.837881 67:-0.048642 68:-0.254876 69:0.005538 70:0.112866
-1 1:0.168601 2:0.457861 3:-0.523882 4:-0.491038 5:2.528402 6:-0.598388 7:1.685072 8:-2.766929 9:0.807185 10:-2.037769 11:0.323394 12:1.104042 13:0.121773 14:0.619714 15:-2.009366 16:0.222776 17:1.170744 18:-0.464025 19:-1.026208 20:-1.307350 21:-2.607205 22:1.711869 23:0.656756 24:0.893267 25:0.247522 26:-0.024452 27:-1.725396 28:0.535348 29:-1.623984 30:1.893073 31:-0.514096 32:-0.081926 33:-0.386470 34:-1.551972 35:1.034367 36:0.242191 37:-2.116763 38:-2.886331 39:-0.969640 40:-0.310612 41:1.191608 42:1.831476 43:0.647036 44:0.644967 45:-1.276088 46:0.249805 47:-0.373924 48:1.466187 49:-0.070532 50:-0.205457 51:-0.190326 52:0.665832 53:-0.818624 54:-1.307106 55:-0.441288 56:-1.001320 57:-0.089275 58:2.649400 59:0.289276 60:0.768396 61:-0.029520 62:-0.841251 63:0.066218 64:0.075019 65:-0.447245 66:0.095547 67:-2.059697 68:-1.084279 69:-0.360740 70:1.431193
-1 1:-0.897168 2:0.394956 3:-1.344004 4:-1.220010 5:1.680755 6:0.443721 7:3.345514 8:0.445312 9:1.255177 10:1.557463 11:0.384731 12:-1.057776 13:0.525657 14:0.809149 15:0.202162 16:-0.222046 17:0.274354 18:0.960651 19:-0.683425 20:-0.116428 21:0.727765 22:-0.983821 23:-0.209741 24:1.200582 25:1.320238 26:-1.400340 27:-0.273832 28:0.971915 29:1.144605 30:-0.598928 31:-0.010327 32:0.701628 33:-0.375399 34:-0.239184 35:-1.698507 36:-0.289433 37:0.947292 38:-1.161224 39:0.264187 40:1.099339 41:1.798783 42:-0.308468 43:-0.375313 44:1.343640 45:0.529300 46:0.069713 47:0.319258 48:-0.514598 49:0.013841 50:3.390664 51:-0.363339 52:-1.445534 53:-1.757159 54:-0.942063 55:-0.169213 56:1.487594 57:-1.233419 58:-0.794501 59:-0.644557 60:-0.697783 61:0.601958 62:-0.965070 63:-0.309439 64:0.246291 65:2.047488 66:-1.957004 67:1.523409 68:1.195520 69:-1.473125 70:-0.084438
-1 1:0.566203 2:0.869966 3:1.102129 4:-0.498406 5:-0.017532 6:-0.771220 7:2.741644 8:2.255207 9:-0.721654 10:-0.897559 11:-0.058331 12:-1.910394 13:-0.169239 14:0.114249 15:0.181145 16:-0.988849 17:0.145075 18:0.242695 19:-1.190202 20:1.318389 21:0.943670 22:0.123637 23:-0.486332 24:0.148129 25:-1.015057 26:-1.081730 27:0.180037 28:1.156917 29:-0.986287 30:-0.915685 31:-2.097930 32:1.556198 33:0.852062 34:-0.606097 35:-0.306171 36:-2.312227 37:-0.899327 38:-0.528061 39:0.110523 40:-1.655109 41:0.506415 42:-0.212436 43:0.153540 44:0.965723 45:-1.407823 46:0.919195 47:0.811502 48:0.843868 49:0.598355 50:0.227216 51:1.277405 52:0.892148 53:0.863836 54:-0.747302 55:0.609134 56:-0.720561 57:-0.051261 58:1.145464 59:-0.844155 60:-1.886429 61:0.392709 62:-0.408583 63:-0.656177 64:-1.600693 65:-0.053919 66:-1.124986 67:-0.011833 68:0.541031 69:1.442736 70:-0.327225
-1 1:-0.017348 2:-0.331760 3:-0.071145 4:-0.134648 5:-1.168838 6:0.973311 7:0.837122 8:-0.738032 9:0.170427 10:-0.046898 11:-1.270616 12:0.900748 13:-0.902611 14:1.227145 15:-0.943629 16:1.718819 17:0.629365 18:-2.064902 19:-0.447544 20:-0.142267 21:-1.228882 22:-0.973821 23:-0.502404 24:-0.433553 25:0.738080 26:-1.018898 27:-0.043138 28:0.545733 29:-0.307099 30:-0.101872 31:0.928415 32:0.473925 33:1.423282 34:-1.164379 35:1.001914 36:-0.016984 37:1.202790 38:-0.907559 39:-0.708849 40:1.374788 41:-0.326223 42:-1.812440 43:-0.496488 44:0.313149 45:-0.966988 46:1.606638 47:0.392948 48:-0.070787 49:-0.542061 50:-0.831169 51:-0.925736 52:-0.435259 53:1.833723 54:1.222071 55:2.451250 56:-1.579720 57:-0.848576 58:-0.074922 59:1.149790 60:-0.845955 61:2.004115 62:0.645871 63:-0.617843 64:-1.169576 65:-1.396053 66:-1.342383 67:0.173188 68:0.215117 69:0.028980 70:1.867657
-1 1:0.884737 2:-1.432211 3:1.060762 4:-0.407990 5:1.219756 6:-0.490253 7:-1.560482 8:1.608155 9:0.390760 10:1.995189 11:-0.459172 12:0.464858 13:-0.700190 14:-0.575786 15:-0.218816 16:0.553118 17:1.165790 18:-0.607547 19:-1.279839 20:1.817336 21:-1.407392 22:-1.021639 23:-1.444809 24:-0.131683 25:0.584711 26:1.114681 27:2.255217 28:-0.298485 29:-0.334528 30:-0.374821 31:-1.508704 32:0.780927 33:-1.417072 34:0.822249 35:0.053054 36:-0.753074 37:-1.140148 38:1.212243 39:0.717292 40:-0.277339 41:0.866579 42:-0.575890 43:-0.641090 44:1.100874 45:0.672021 46:-0.919046 47:1.607760 48:-1.268144 49:1.001021 50:0.349339 51:0.489189 52:0.374112 53:1.184102 54:0.664614 55:-0.627715 56:2.027040 57:1.279018 58:0.403703 59:-0.459238 60:0.792679 61:0.056749 62:-0.789442 63:-0.896535 64:1.243884 65:-1.851555 66:1.301389 67:-0.029563 68:-1.011694 69:-1.300572 70:-0.050860
-1 1:1.586240 2:-0.262158 3:-0.124511 4:-0.762374 5:-0.805184 6:-1.717711 7:0.723034 8:1.105223 9:-0.284697 10:-0.087167 11:0.567851 12:-0.116352 13:-0.016538 14:-0.619278 15:-0.351432 16:-0.999312 17:2.173570 18:-0.973364 19:1.058429 20:-0.248510 21:-1.525291 22:1.159090 23:-0.354834 24:1.641338 25:1.342882 26:-0.709885 27:0.566178 28:1.070927 29:1.063075 30:0.515263 31:-0.662312 32:0.345962 33:-0.571439 34:-0.034002 35:-0.529517 36:0.939500 37:0.315252 38:0.764565 39:-1.214182 40:-0.603596 41:0.797792 42:-0.417039 43:-0.196765 44:0.902957 45:0.030081 46:0.058189 47:0.400924 48:0.966306 49:-0.933673 50:1.249758 51:-0.818210 52:0.984070 53:2.146695 54:-0.268873 55:0.309976 56:-0.416848 57:0.750295 58:-0.132259 59:1.907163 60:-1.143190 61:-1.316133 62:-0.047619 63:-0.732088 64:1.541267 65:-0.708656 66:0.433665 67:1.736846 68:-1.043370 69:-0.819325 70:0.781200
-1 1:-0.749133 2:0.279206 3:0.901355 4:1.557542 5:0.033588 6:-0.127915 7:0.449758 8:0.093414 9:0.190365 10:-1.945249 11:0.764533 12:0.902743 13:0.471190 14:-0.120825 15:0.638349 16:0.284056 17:0.144323 18:0.548646 19:-1.098449 20:0.693828 21:-0.227073 22:-0.371727 23:1.024384 24:0.343020 25:1.312236 26:0.195126 27:-0.931835 28:-0.009118 29:-0.238045 30:-1.688306 31:0.032434 32:-0.926622 33:-0.640586 34:0.323470 35:-1.184474 36:0.081504 37:1.437416 38:-0.098499 39:1.357392 40:1.994217 41:1.080196 42:0.283453 43:-0.089576 44:0.566024 45:0.167523 46:-0.088846 47:-1.750426 48:-0.322332 49:-0.495618 50:-1.420054 51:0.980386 52:-0.281115 53:-2.247640 54:-0.710521 55:-0.837152 56:-2.425922 57:-0.032555 58:-0.288063 59:0.662078 60:-1.299384 61:0.675842 62:2.232958 63:1.375907 64:-1.564813 65:1.511869 66:0.616738 67:0.569105 68:1.018831 69:-2.078740 70:0.713394
-1 1:-0.564225 2:-0.588993 3:0.047067 4:0.692978 5:-1.351754 6:-0.530410 7:-1.580675 8:-0.826954 9:-0.279316 10:0.381285 11:0.891603 12:-1.424135 13:0.260719 14:-0.152160 15:-0.477536 16:-0.610847 17:-0.024391 18:0.498584 19:-0.133328 20:0.027502 21:0.273775 22:-0.371946 23:-0.502314 24:0.789647 25:0.354269 26:1.345524 27:-0.184847 28:-0.589640 29:-1.420245 30:-0.930781 31:2.410677 32:-0.077700 33:1.969137 34:0.519923 35:1.020906 36:0.875080 37:0.661344 38:0.863591 39:0.959133 40:-0.227520 41:-1.846755 42:-0.108262 43:-1.324684 44:-0.129822 45:2.603966 46:0.435257 47:-0.887148 48:-0.189724 49:0.142875 50:-1.148725 51:-0.904989 52:-0.407567 53:-0.852820 54:0.509429 55:0.732765 56:-1.770539 57:-1.636466 58:-0.429692 59:-0.089870 60:0.022374 61:-0.977551 62:-0.481009 63:0.867599 64:1.691100 65:-1.356311 66:0.834087 67:-0.284618 68:0.823155 69:-1.670011 70:-0.285700
-1 1:-1.703124 2:-1.591786 3:-0.506854 4:0.482290 5:0.736281 6:0.080768 7:0.531715 8:1.434562 9:1.715194 10:0.463531 11:1.120758 12:-1.398691 13:-0.054713 14:-0.417392 15:0.739138 16:-0.147882 17:0.863594 18:0.052909 19:-0.793173 20:-0.306180 21:0.140306 22:-0.485622 23:-0.033649 24:2.127601 25:1.282744 26:-1.821323 27:-1.976211 28:0.109504 29:0.345694 30:-1.433627 31:-0.697541 32:0.494767 33:-0.011446 34:-0.992784 35:0.968201 36:-1.052372 37:0.543671 38:0.445743 39:-0.569308 40:0.334439 41:1.159136 42:1.337155 43:0.061158 44:1.758935 45:-1.555813 46:-1.071006 47:-0.175103 48:-0.210743 49:-0.316481 50:0.515193 51:-0.027926 52:-0.634436 53:-0.002411 54:-0.448353 55:-0.595788 56:0.155908 57:-0.858314 58:2.230413 59:-0.249844 60:-1.914548 61:-0.297359 62:0.402043 63:0.925623 64:-1.078892 65:0.052156 66:-0.607499 67:-0.883810 68:-0.148409 69:0.089155 70:0.072826
-1 1:1.817982 2:0.322202 3:-0.417348 4:0.764909 5:0.092995 6:-1.199492 7:0.636159 8:-0.608039 9:-0.997990 10:-0.605122 11:-0.030932 12:0.839212 13:0.904983 14:-0.087889 15:-0.329779 16:-0.117052 17:-2.900763 18:1.472307 19:-0.271845 20:0.233727 21:0.013918 22:1.160372 23:0.156381 24:-0.502442 25:-0.137122 26:1.470538 27:0.001703 28:-1.063527 29:1.087173 30:0.680886 31:-0.531007 32:1.015364 33:0.673208 34:0.047502 35:-0.606523 36:-0.026797 37:0.829401 38:-0.246271 39:-0.263509 40:-1.834222 41:0.504829 42:1.236951 43:0.942877 44:-0.101729 45:-1.263707 46:0.614213 47:0.720928 48:1.038827 49:0.595568 50:1.530174 51:-0.014525 52:0.938766 53:-0.705536 54:-0.317354 55:0.609823 56:0.499371 57:0.076795 58:-1.252323 59:-0.087420 60:-0.686697 61:1.558861 62:0.870903 63:-1.005835 64:0.018498 65:-0.104514 66:-0.595733 67:-3.189438 68:1.309670 69:-1.045460 70:-1.718940
-1 1:-0.841196 2:0.233811 3:0.162208 4:1.764838 5:0.758554 6:-0.780734 7:0.110109 8:-0.024663 9:0.074618 10:-0.308044 11:-0.363359 12:0.200717 13:-0.171604 14:0.389032 15:1.864969 16:0.393896 17:0.165971 18:0.865537 19:0.287766 20:-1.627633 21:0.291836 22:-0.312886 23:0.145657 24:0.837062 25:-0.487707 26:-2.290423 27:0.182329 28:0.775989 29:-0.840259 30:0.702440 31:-1.247585 32:0.279505 33:-0.310479 34:0.717800 35:0.379225 36:-0.304043 37:1.046516 38:-1.341794 39:3.671905 40:1.039887 41:0.629627 42:-1.903563 43:1.170266 44:-0.040874 45:0.010636 46:1.273369 47:-0.072598 48:0.362597 49:0.388000 50:-1.398165 51:-0.085258 52:-1.630186 53:-0.802177 54:-1.388664 55:-0.331348 56:-1.167729 57:0.299521 58:1.217338 59:0.469195 60:1.038229 61:-0.545795 62:-0.917598 63:-2.557912 64:-0.521344 65:-1.288585 66:1.588696 67:0.650238 68:0.646490 69:0.798534 70:-0.528501
-1 1:-0.948080 2:-0.223875 3:0.211742 4:-1.273719 5:0.011841 6:0.045479 7:0.917955 8:0.164072 9:-0.124890 10:-1.843949 11:1.512540 12:0.252364 13:0.472356 14:-1.470691 15:1.752446 16:-1.135982 17:-0.572087 18:-0.330550 19:-0.687472 20:0.204076 21:0.591997 22:-0.143765 23:1.389794 24:-1.509019 25:-0.052401 26:-0.157019 27:2.041153 28:0.562716 29:0.807637 30:1.049451 31:-0.880454 32:0.426531 33:0.868979 34:-2.481548 35:-1.246277 36:-0.115464 37:0.525654 38:-0.746439 39:0.051014 40:1.114737 41:0.354537 42:-0.291337 43:0.430885 44:1.050533 45:-2.940752 46:-0.597572 47:0.356945 48:-0.137267 49:0.505238 50:-1.898038 51:0.385503 52:-0.118268 53:1.189201 54:-0.741250 55:0.485983 56:1.240455 57:-0.108839 58:-0.747793 59:1.101880 60:-0.093634 61:0.267367 62:-0.267571 63:0.475508 64:0.479833 65:-2.098652 66:1.248909 67:1.339162 68:-0.023608 69:-1.796626 70:-0.422720
-1 1:-1.839760 2:0.108697 3:-1.316578 4:-0.011356 5:0.598912 6:-1.181514 7:0.676452 8:2.236160 9:-1.056236 10:0.554140 11:2.605550 12:0.142755 13:0.987662 14:0.360050 15:0.702176 16:0.401131 17:-0.790538 18:0.499439 19:-0.423246 20:-0.083791 21:-1.533536 22:0.569880 23:0.254702 24:0.917736 25:1.022144 26:-0.463605 27:-1.823686 28:1.274512 29:0.424161 30:-0.552868 31:0.255598 32:-1.125851 33:0.278983 34:0.173656 35:1.062750 36:0.335991 37:-1.360540 38:-2.173911 39:-0.730506 40:-0.519780 41:-1.048296 42:0.430308 43:-0.379382 44:-0.789005 45:1.525623 46:0.013698 47:-0.118607 48:-0.423317 49:0.563706 50:0.150333 51:-0.280936 52:-0.624930 53:0.650123 54:-1.363195 55:-0.617488 56:-1.560370 57:-0.702455 58:0.990192 59:-0.467976 60:2.177145 61:1.478406 62:-1.416936 63:-0.722225 64:0.718492 65:-1.428018 66:0.619616 67:0.495554 68:-0.143530 69:0.816314 70:0.582733
-1 1:0.022414 2:-1.362965 3:-0.222253 4:0.680044 5:0.801233 6:-0.405420 7:1.662831 8:-0.132245 9:2.117123 10:-0.278587 11:-2.203306 12:-1.180660 13:-0.275609 14:0.740516 15:-0.596877 16:0.108771 17:-0.477297 18:-0.502938 19:-1.044855 20:1.417090 21:-1.257274 22:-2.053026 23:0.017820 24:0.612244 25:1.531928 26:1.593741 27:0.116603 28:-0.565039 29:-2.368148 30:-0.212412 31:0.068655 32:0.115163 33:0.246498 34:-0.264408 35:-1.089220 36:1.796341 37:0.230468 38:-0.331397 39:0.968996 40:-0.054270 41:-0.507037 42:-0.858039 43:-0.562507 44:0.663767 45:0.123657 46:-1.436268 47:-0.328512 48:0.917799 49:1.168923 50:-0.352318 51:0.110550 52:0.095144 53:1.578437 54:-0.047635 55:-0.726756 56:0.315719 57:0.503655 58:-0.278044 59:0.340486 60:-1.709329 61:-0.502049 62:1.571511 63:-0.310266 64:1.254761 65:1.044536 66:1.389440 67:0.021231 68:-0.429059 69:0.396791 70:-0.667965
-1 1:-0.080900 2:1.539279 3:-0.298512 4:-0.310646 5:-0.911090 6:0.424420 7:-0.604927 8:-0.938309 9:-2.464373 10:-0.110049 11:-0.930824 12:-1.971066 13:0.497789 14:1.444564 15:0.222371 16:2.444230 17:0.790913 18:-1.506285 19:0.403895 20:2.129707 21:0.242086 22:0.934022 23:-1.514055 24:1.023991 25:0.125042 26:1.391672 27:0.058368 28:-0.444408 29:0.782361 30:-0.289079 31:1.438706 32:0.534818 33:0.028480 34:1.704668 35:0.091707 36:-0.235784 37:0.774832 38:0.201942 39:-0.264302 40:0.550780 41:-1.252951 42:1.232627 43:0.889460 44:-0.334663 45:1.720663 46:0.542553 47:0.335424 48:1.583618 49:0.094303 50:-2.937338 51:0.834647 52:-0.791031 53:0.001691 54:0.860822 55:-0.083396 56:1.281796 57:-0.467008 58:0.091275 59:-1.055049 60:-1.223285 61:0.770766 62:-1.736120 63:-0.262420 64:1.891056 65:2.699274 66:-0.387616 67:-0.244369 68:-0.046397 69:-0.584560 70:0.403697
-1 1:-0.780018 2:0.906743 3:1.124473 4:0.780160 5:0.683322 6:-0.574539 7:-0.885235 8:-1.041653 9:0.353651 10:0.464550 11:1.359697 12:0.688562 13:-0.484183 14:0.609539 15:-0.644059 16:0.778065 17:-0.020523 18:0.477174 19:-1.359999 20:1.597772 21:0.249060 22:1.072991 23:0.508582 24:-0.795796 25:-0.684312 26:1.725387 27:0.032058 28:-0.198132 29:0.676879 30:1.335875 31:-1.109304 32:-2.198431 33:0.773190 34:1.285217 35:0.272908 36:-0.859086 37:-1.058537 38:0.928327 39:1.013754 40:0.730389 41:-0.444668 42:-0.743453 43:0.355930 44:-0.268702 45:-1.334267 46:0.882374 47:0.349181 48:0.268384 49:0.762331 50:-1.265961 51:0.204125 52:-0.844547 53:0.205886 54:0.375430 55:0.363993 56:0.259924 57:0.905236 58:0.008418 59:1.270718 60:0.130975 61:-1.441658 62:-0.671346 63:-2.585188 64:-0.758309 65:1.427848 66:0.284486 67:0.234768 68:0.153090 69:-0.562374 70:0.388529
-1 1:-0.276236 2:-0.218548 3:-3.946865 4:0.887829 5:0.728484 6:0.106992 7:1.317538 8:-1.333386 9:0.135484 10:1.275743 11:2.553845 12:0.597084 13:0.425020 14:-0.238137 15:-0.626138 16:-0.592435 17:0.812761 18:-0.813604 19:-0.136812 20:1.447770 21:1.262003 22:-0.945356 23:0.808783 24:1.260296 25:-1.628000 26:1.625830 27:0.479380 28:-1.143222 29:-0.453207 30:-0.370818 31:-1.665147 32:1.820953 33:-0.882591 34:-0.175126 35:1.059452 36:0.717402 37:0.092711 38:0.294305 39:0.977117 40:-0.722982 41:0.126499 42:0.989061 43:1.768726 44:2.824751 45:1.720907 46:-0.921924 47:-1.004949 48:0.294049 49:1.043690 50:1.374879 51:0.758133 52:-1.665825 53:2.672614 54:-0.435544 55:-1.100599 56:1.341127 57:0.118888 58:-0.598461 59:-0.340645 60:1.764886 61:0.473238 62:-0.431189 63:-0.963853 64:-1.121649 65:-0.317956 66:0.565557 67:1.818222 68:1.148420 69:1.241785 70:1.797141
-1 1:-0.404065 2:-0.684377 3:-1.051746 4:-1.716352 5:-0.149983 6:0.578264 7:1.436924 8:-1.934867 9:0.756071 10:-0.632140 11:1.628386 12:1.477234 13:0.912780 14:-0.327324 15:0.887843 16:0.237177 17:-0.102335 18:0.774462 19:0.578327 20:-1.077002 21:-0.351529 22:-0.818545 23:0.145495 24:-0.275934 25:0.519223 26:-0.507169 27:-0.931156 28:-0.132442 29:-0.427795 30:-0.632344 31:-1.926619 32:1.976060 33:-0.154190 34:-0.534654 35:2.450495 36:0.320485 37:0.733046 38:0.202428 39:-1.787990 40:0.548079 41:-0.774890 42:0.992894 43:-1.086565 44:-0.077365 45:-0.194400 46:2.157605 47:0.181870 48:-1.956712 49:-0.789551 50:1.071999 51:-0.008710 52:0.204422 53:1.158706 54:0.523320 55:-1.479999 56:-0.196410 57:-0.362868 58:0.454981 59:0.464909 60:-1.992855 61:-3.449292 62:-0.266515 63:-0.664999 64:-0.259685 65:-1.263611 66:-0.242129 67:-1.134582 68:0.946379 69:0.386719 70:1.597956
-1 1:-0.929823 2:-1.433184 3:1.455279 4:-2.219073 5:-0.696019 6:-0.672387 7:0.284016 8:1.141590 9:-0.363969 10:0.201164 11:-1.360487 12:-1.232203 13:-0.977266 14:0.613066 15:1.525984 16:-0.539254 17:-1.548774 18:0.219237 19:0.245398 20:0.354487 21:0.361672 22:-0.719744 23:0.490426 24:-1.422141 25:-0.053319 26:1.153823 27:1.208298 28:1.486201 29:-0.665640 30:1.198725 31:-0.292224 32:-1.433864 33:-0.650054 34:-0.259900 35:0.800521 36:-0.534848 37:1.087350 38:0.018803 39:0.201697 40:-0.077849 41:0.200533 42:0.711928 43:0.242904 44:2.261167 45:-0.241909 46:1.282961 47:-0.224804 48:-0.855128 49:0.339116 50:-1.200422 51:-0.558443 52:-1.189201 53:0.318084 54:-1.046703 55:-2.127919 56:-0.489401 57:0.241225 58:-1.895931 59:0.679505 60:-0.561296 61:-0.137787 62:0.297022 63:-0.048535 64:-0.432499 65:-0.891725 66:-0.118626 67:0.497132 68:-0.100914 69:1.524342 70:-0.349787
-1 1:-0.649601 2:-1.060104 3:0.389128 4:0.707259 5:-0.368322 6:0.385569 7:-0.141006 8:1.641201 9:1.637013 10:0.761950 11:0.961378 12:-0.976782 13:1.258376 14:-0.004796 15:0.384215 16:-0.540568 17:-0.573598 18:-0.316738 19:1.713737 20:-0.178716 21:0.476507 22:-0.651552 23:2.047869 24:0.418993 25:0.222792 26:1.873067 27:0.123354 28:-0.624605 29:-0.106056 30:0.754591 31:-1.261740 32:-0.836372 33:0.076739 34:1.673447 35:0.498433 36:0.842802 37:1.559469 38:-0.902840 39:0.418846 40:-0.735662 41:-0.715102 42:-0.847372 43:1.967505 44:0.262202 45:-0.039734 46:-0.077283 47:-1.654016 48:1.094565 49:-2.521840 50:-2.675187 51:1.354561 52:-0.186288 53:0.818863 54:-0.812973 55:-0.441021 56:0.698989 57:-0.583517 58:0.638155 59:-0.606405 60:1.274642 61:0.381814 62:-0.709171 63:-2.149179 64:0.609977 65:0.495934 66:0.835307 67:-1.279276 68:-1.422537 69:-1.259387 70:0.387941
-1 1:0.039152 2:0.259584 3:-0.276315 4:-2.034860 5:-1.573405 6:0.423671 7:1.334762 8:-1.108730 9:-0.763141 10:1.132619 11:-0.874480 12:1.002846 13:-1.325082 14:0.959988 15:1.335961 16:-1.000724 17:-0.948343 18:0.422267 19:-0.147534 20:-0.332344 21:0.364179 22:-0.142044 23:-1.070202 24:0.026062 25:-0.161127 26:-1.970892 27:1.781168 28:0.183503 29:-0.652221 30:-1.490061 31:1.466989 32:1.303740 33:1.018236 34:-1.051216 35:-1.118210 36:-0.424522 37:-0.136514 38:1.272486 39:1.181715 40:1.422310 41:-0.630139 42:-2.633799 43:-1.194672 44:-0.820364 45:0.033013 46:0.026823 47:-0.637694 48:-0.221781 49:-0.667333 50:-0.172913 51:-0.830909 52:-0.912667 53:-2.000357 54:-0.316586 55:0.719172 56:-0.031727 57:0.111180 58:-0.713589 59:-2.185172 60:1.700926 61:1.127026 62:-0.730437 63:-2.536424 64:0.403048 65:-0.432923 66:-1.607800 67:1.075031 68:-0.571043 69:-0.210634 70:1.438592
-1 1:0.259919 2:2.298130 3:0.108607 4:-1.380826 5:-0.222581 6:0.125004 7:1.336401 8:-1.773399 9:-0.213654 10:-0.331199 11:0.370731 12:1.182736 13:-0.395702 14:0.241277 15:-0.275175 16:0.176247 17:0.245765 18:-1.690992 19:-2.295301 20:0.671630 21:0.274801 22:-0.352948 23:0.259703 24:-1.099347 25:0.556211 26:0.016861 27:-0.066665 28:-0.082852 29:0.318833 30:-1.513075 31:-0.028702 32:-0.250680 33:0.355346 34:1.144504 35:-2.436021 36:0.477198 37:-0.422027 38:0.041840 39:0.008220 40:-0.123829 41:0.650857 42:1.869462 43:0.838828 44:-1.058219 45:1.703242 46:-0.286178 47:1.461332 48:-0.954617 49:-0.736124 50:0.644868 51:-0.540495 52:-0.020558 53:-0.500507 54:1.190022 55:-0.600892 56:-0.764911 57:-0.665448 58:2.368271 59:-0.420238 60:0.230264 61:0.650712 62:-0.239254 63:1.813652 64:-1.094216 65:0.315365 66:1.719764 67:-0.347371 68:0.212756 69:0.787998 70:0.020766
-1 1:0.676335 2:-2.052689 3:-0.884541 4:-0.490592 5:0.596578 6:-0.868181 7:1.072801 8:-0.632200 9:-0.373879 10:-0.726743 11:0.075631 12:-1.514260 13:0.383552 14:-1.717570 15:0.503831 16:0.929559 17:1.275547 18:-0.811781 19:0.441986 20:0.375011 21:-0.582277 22:-1.207493 23:0.478222 24:-1.454847 25:-0.953589 26:-0.335057 27:2.433375 28:1.038666 29:0.360438 30:-0.617330 31:2.001940 32:-2.339403 33:-1.966426 34:0.440217 35:-0.073559 36:-2.542218 37:0.562419 38:-1.623217 39:0.025893 40:0.579171 41:-1.317228 42:0.065539 43:-0.983071 44:0.810113 45:1.709063 46:-0.958094 47:0.121903 48:-0.828235 49:-0.321961 50:0.000987 51:-0.490846 52:0.094037 53:0.876922 54:1.573056 55:1.373627 56:-0.273447 57:1.138909 58:-0.350247 59:0.732329 60:-0.156617 61:-0.451753 62:0.562664 63:-0.438585 64:0.006011 65:0.424325 66:1.399076 67:0.450829 68:2.269307 69:1.507614 70:0.327048
-1 1:0.026163 2:-0.459786 3:1.025602 4:-0.258741 5:1.523317 6:0.616564 7:-0.035756 8:-0.325731 9:0.885968 10:-0.474130 11:1.803831 12:1.431468 13:-2.556630 14:-0.644793 15:0.842327 16:0.452632 17:-0.078736 18:-1.465787 19:1.068634 20:0.016157 21:0.107398 22:1.556405 23:1.491457 24:-0.359777 25:-0.380055 26:0.137906 27:0.552217 28:-0.060833 29:1.636526 30:-0.483747 31:1.117256 32:-0.045104 33:-0.175710 34:-1.219448 35:0.231123 36:-0.329246 37:-0.679786 38:1.127481 39:-0.406962 40:-0.292647 41:0.810702 42:0.654075 43:-1.412973 44:-0.984267 45:-0.741194 46:-0.360362 47:-0.161817 48:-0.890838 49:0.617948 50:0.125843 51:0.819418 52:-0.593292 53:0.344895 54:-0.271792 55:0.027458 56:-0.439240 57:-1.075350 58:0.579533 59:0.331557 60:1.013008 61:-0.884916 62:1.428202 63:-0.223651 64:-0.670851 65:0.296354 66:0.996517 67:0.698407 68:-0.009456 69:-0.565051 70:0.714038
-1 1:1.372419 2:0.553047 3:-0.807875 4:0.774359 5:-0.609649 6:-0.732201 7:-1.098172 8:-1.479579 9:0.496130 10:0.674048 11:0.991846 12:-1.833135 13:-0.171906 14:-1.600366 15:0.196215 16:0.890145 17:-1.219414 18:1.828293 19:-0.320655 20:-0.398182 21:0.862982 22:-0.489028 23:0.888703 24:-1.057793 25:0.030875 26:1.088413 27:0.500529 28:0.852638 29:-2.081193 30:-1.195395 31:0.511636 32:-0.120225 33:1.257001 34:-1.191348 35:-0.804944 36:0.467812 37:-2.518708 38:-0.854635 39:1.631746 40:0.763359 41:-1.276207 42:0.917506 43:-0.922352 44:0.435655 45:-2.270365 46:-0.292866 47:0.091389 48:-0.562084 49:-0.901152 50:-1.362807 51:-0.862098 52:0.426099 53:0.028864 54:-0.009944 55:0.505241 56:0.415292 57:-1.089172 58:0.156256 59:0.573064 60:0.206094 61:-1.026852 62:0.607027 63:0.443228 64:0.324595 65:-0.819493 66:-0.189754 67:-1.066992 68:0.601063 69:-0.189872 70:0.370509
-1 1:1.096210 2:-0.510382 3:-1.653934 4:-0.124639 5:0.591715 6:0.149814 7:-0.949742 8:-0.159952 9:0.032842 10:-0.425010 11:0.445261 12:0.024946 13:0.183413 14:0.487716 15:0.596141 16:-1.342764 17:2.479699 18:1.146371 19:0.201776 20:-1.078991 21:-0.073106 22:-0.760500 23:0.435108 24:0.501428 25:1.184728 26:0.531183 27:1.110204 28:-0.085054 29:1.504795 30:1.050088 31:-1.105444 32:0.332987 33:1.623665 34:0.267869 35:-0.990535 36:-1.160227 37:0.060071 38:-0.256801 39:0.334917 40:1.858114 41:-2.244576 42:0.051965 43:1.143003 44:0.131435 45:0.046965 46:0.253926 47:-0.999436 48:-1.080854 49:-0.488764 50:1.920617 51:-0.449931 52:-0.869510 53:-1.265375 54:-2.042489 55:0.111983 56:-0.859912 57:0.098274 58:-0.205714 59:1.316309 60:-1.243511 61:0.929473 62:0.007877 63:-0.314781 64:0.064500 65:-0.485080 66:1.613875 67:0.051424 68:1.502905 69:1.187507 70:-0.093089
-1 1:-0.505063 2:0.503838 3:0.776263 4:-1.129880 5:1.312354 6:-0.136565 7:0.100206 8:-0.386458 9:0.440650 10:0.481773 11:-0.164584 12:0.140375 13:0.316909 14:1.070477 15:1.269535 16:0.010016 17:0.285151 18:-1.529190 19:0.037878 20:0.455687 21:1.402195 22:0.058715 23:-0.199823 24:0.040607 25:0.378353 26:-0.220262 27:-0.752705 28:0.237687 29:0.560479 30:1.292213 31:0.345236 32:-1.710432 33:0.033875 34:0.929389 35:0.280330 36:1.148138 37:1.815254 38:0.172412 39:0.276012 40:-1.913212 41:-3.112297 42:0.238737 43:0.405713 44:0.157514 45:0.073560 46:0.565312 47:-0.328184 48:0.047970 49:1.415591 50:2.016146 51:-0.168659 52:-0.302061 53:1.345228 54:-2.899542 55:0.141712 56:-0.745760 57:-0.938396 58:-0.970837 59:-1.228670 60:-1.308035 61:-1.080039 62:-0.650416 63:-0.431715 64:0.360301 65:-1.820774 66:-0.151650 67:0.657458 68:0.805259 69:-0.206108 70:-0.025676
-1 1:1.092255 2:-1.749609 3:-2.222233 4:-0.306512 5:0.721443 6:1.818155 7:-0.247796 8:-0.225757 9:0.814687 10:-1.279299 11:-0.658688 12:-0.850477 13:0.262868 14:0.009249 15:-0.605619 16:1.473236 17:-0.201448 18:0.641346 19:-1.285585 20:1.275183 21:-0.292401 22:0.737490 23:0.410241 24:1.332276 25:1.002736 26:-0.829772 27:-2.241206 28:0.046320 29:-0.630482 30:1.544321 31:1.380876 32:-0.635204 33:0.526338 34:-1.704896 35:0.076884 36:0.895581 37:-1.437566 38:-1.299352 39:0.549520 40:1.276521 41:0.715027 42:1.055634 43:0.427011 44:-0.039909 45:-0.309578 46:0.009735 47:2.628550 48:0.795718 49:-0.617496 50:-1.039654 51:-1.138626 52:0.996871 53:0.534977 54:-0.692111 55:0.415655 56:0.791689 57:-0.018424 58:1.387856 59:-0.676215 60:-0.176895 61:0.539698 62:0.286971 63:-0.227076 64:1.997292 65:-0.186734 66:-0.610355 67:0.524781 68:0.113593 69:-0.479013 70:-0.870646
-1 1:1.723321 2:0.694652 3:0.014515 4:0.613001 5:-1.316405 6:-0.057605 7:0.003807 8:-1.342306 9:-0.705895 10:-0.985914 11:0.583528 12:0.301185 13:-1.209124 14:2.389659 15:-1.261232 16:1.298641 17:-0.141806 18:0.733792 19:-0.175753 20:0.352709 21:0.662910 22:0.299502 23:-0.367291 24:-0.070209 25:-0.505191 26:0.916950 27:-0.240491 28:-0.191332 29:-0.575785 30:-1.675282 31:-0.610180 32:0.616163 33:1.410791 34:-0.189513 35:0.885494 36:0.621180 37:-2.418098 38:0.715641 39:-0.207362 40:0.626817 41:-0.255925 42:-0.923765 43:0.458389 44:-0.462023 45:-1.028479 46:-1.486254 47:0.836013 48:-2.122192 49:0.729002 50:-0.852970 51:-0.551645 52:0.693522 53:-0.153532 54:0.590375 55:0.724168 56:0.203081 57:0.550348 58:-0.618027 59:-1.028124 60:0.367033 61:1.007458 62:-0.461182 63:-0.322039 64:-0.021108 65:1.209974 66:0.183829 67:-0.357022 68:-1.619340 69:1.026662 70:0.424427
-1 1:1.439630 2:1.174467 3:0.444986 4:0.619148 5:-0.258192 6:1.454773 7:-2.455217 8:-0.080170 9:-1.667026 10:-0.474690 11:-0.019071 12:0.542661 13:0.435417 14:0.187857 15:1.800845 16:2.153091 17:-0.847936 18:0.167026 19:0.086339 20:1.062579 21:-0.740023 22:-0.596453 23:0.233111 24:-0.347050 25:0.637998 26:0.764331 27:0.968913 28:0.699173 29:-0.676215 30:-1.199056 31:0.042915 32:0.182903 33:0.305677 34:-0.548516 35:1.528096 36:-1.250291 37:1.258890 38:1.852615 39:-1.464127 40:2.223577 41:-1.074908 42:-0.128091 43:0.218607 44:-0.761067 45:0.586171 46:1.017786 47:-0.204307 48:-0.346016 49:-0.009038 50:1.980674 51:-0.672557 52:0.161817 53:1.151218 54:-1.379124 55:1.141295 56:-0.443670 57:-1.376515 58:1.441209 59:-2.687643 60:-0.030540 61:1.466002 62:0.133793 63:1.184827 64:0.945129 65:1.255656 66:-0.875053 67:1.405874 68:-0.688052 69:-1.241473 70:0.806876
-1 1:0.562024 2:0.121431 3:-1.236027 4:0.990176 5:-0.684968 6:0.197591 7:2.210970 8:-1.295414 9:1.716904 10:-0.879154 11:-0.291366 12:-0.683923 13:0.762086 14:1.710192 15:-0.541889 16:-0.523191 17:0.280367 18:1.440512 19:-0.513455 20:0.760792 21:-0.697961 22:-0.064144 23:-1.630466 24:0.928109 25:1.172720 26:-0.120005 27:0.828310 28:0.081069 29:-0.409874 30:0.589112 31:0.324645 32:0.091943 33:-0.626846 34:-0.692055 35:-1.451260 36:-0.851749 37:1.255690 38:0.522369 39:0.587818 40:-1.081384 41:-0.002546 42:0.619715 43:-0.034388 44:-0.190666 45:-2.014168 46:-0.161217 47:-0.084005 48:0.235211 49:0.532884 50:1.692267 51:0.691491 52:1.533979 53:1.110454 54:1.095731 55:-0.174139 56:-0.864437 57:0.853034 58:0.831505 59:-0.249173 60:1.476591 61:1.056749 62:-1.881694 63:0.774451 64:0.702698 65:-1.007882 66:-0.623497 67:-1.505855 68:-1.042417 69:-1.017499 70:-0.211563
-1 1:-1.028775 2:0.674257 3:-0.321277 4:1.843618 5:0.785418 6:-0.424564 7:-0.524305 8:-0.360517 9:0.216699 10:-0.244740 11:-1.050939 12:0.244330 13:0.798907 14:1.357549 15:-0.165193 16:-1.641334 17:-1.757082 18:-0.126155 19:-0.952851 20:-1.042666 21:0.823693 22:0.821171 23:1.238731 24:0.203120 25:2.274728 26:0.393961 27:0.479802 28:-1.531318 29:-0.302288 30:0.232900 31:-0.230510 32:-1.293072 33:0.009970 34:-0.198092 35:2.629986 36:-0.982779 37:-0.767045 38:0.239147 39:0.906417 40:-0.750825 41:0.724034 42:-0.351779 43:0.077316 44:-0.361117 45:-0.738097 46:-0.440156 47:1.291278 48:-0.582324 49:0.558954 50:-2.629772 51:0.127319 52:-2.073935 53:0.515285 54:1.604422 55:-0.833278 56:0.169255 57:0.218155 58:-2.134763 59:0.494184 60:0.984156 61:-0.345313 62:0.559475 63:-1.607131 64:-0.592729 65:-0.834173 66:0.802968 67:1.481211 68:0.541754 69:-0.981165 70:-0.569350
-1 1:1.490850 2:-1.427388 3:-1.205472 4:-0.802123 5:0.400444 6:0.655040 7:-0.874873 8:0.990469 9:-0.736297 10:-0.724122 11:0.063515 12:-0.584146 13:1.156634 14:0.590326 15:-0.573739 16:0.643115 17:1.879676 18:2.078198 19:-0.952406 20:-0.224928 21:-0.067533 22:0.137376 23:-1.084740 24:-0.076473 25:-0.697703 26:-0.498694 27:-1.660105 28:-0.652962 29:0.652866 30:0.521841 31:0.586292 32:1.462141 33:-2.047480 34:-0.585731 35:1.162035 36:1.218336 37:0.899379 38:-0.802150 39:-0.790821 40:-0.622326 41:-0.627632 42:0.124432 43:0.581079 44:1.780810 45:-0.458843 46:-0.628962 47:-0.180028 48:0.330847 49:-0.142632 50:-0.840656 51:0.920931 52:-0.379013 53:0.877052 54:-0.169191 55:-1.186551 56:0.045423 57:-1.207485 58:0.739829 59:0.319969 60:0.462400 61:-1.493661 62:-0.156031 63:-2.028985 64:-0.557512 65:0.360780 66:1.710193 67:-0.840957 68:-0.115136 69:0.125450 70:-1.662242
-1 1:-0.733871 2:-0.816395 3:0.646259 4:0.709678 5:-1.878783 6:-1.101490 7:1.307121 8:-0.751047 9:-2.272171 10:-0.732551 11:-0.478214 12:0.507840 13:-1.222277 14:-0.231645 15:-1.249129 16:0.960990 17:0.022962 18:1.644077 19:1.705974 20:1.224184 21:-0.439902 22:-1.326006 23:0.123092 24:1.589859 25:0.651925 26:0.879974 27:-0.162772 28:-0.764114 29:-0.020861 30:0.863512 31:-0.052400 32:0.790509 33:-1.213051 34:0.343237 35:0.003497 36:-0.229679 37:-0.820372 38:0.610687 39:1.207389 40:0.670636 41:0.988554 42:2.376853 43:-0.823908 44:-1.717891 45:0.243493 46:-0.468047 47:0.800966 48:-0.388318 49:1.468399 50:1.566726 51:0.050603 52:1.844665 53:-0.014880 54:1.493513 55:-0.632849 56:-1.698341 57:0.259245 58:-1.042793 59:-0.252342 60:-0.086841 61:0.255903 62:-0.930648 63:-0.306437 64:-0.183616 65:-1.663691 66:0.257694 67:-1.074826 68:1.971641 69:-1.175997 70:1.052293
-1 1:-1.683669 2:1.681295 3:-0.196922 4:-0.547259 5:-0.213169 6:0.144413 7:-2.605003 8:-0.677536 9:0.205245 10:-0.338747 11:0.537340 12:0.683512 13:1.701697 14:-1.011677 15:-0.033150 16:-1.098120 17:-0.613368 18:-0.896256 19:-0.567009 20:0.789192 21:-0.869771 22:-0.282942 23:0.278912 24:0.174533 25:-0.355622 26:0.547194 27:-0.524786 28:0.826041 29:0.081456 30:-1.162380 31:-0.946350 32:-1.279202 33:2.284949 34:-1.018980 35:0.781179 36:0.030355 37:0.607970 38:0.231763 39:-0.855138 40:-0.742583 41:-2.031342 42:0.312960 43:-0.510187 44:-0.281671 45:-0.545001 46:0.733006 47:-2.142243 48:-1.668633 49:2.619487 50:0.187440 51:-1.062222 52:3.233371 53:-0.464829 54:-1.338824 55:-0.596583 56:0.516927 57:0.103244 58:-0.313073 59:-1.235740 60:0.264819 61:0.436959 62:1.101903 63:1.680182 64:-0.471894 65:-1.094138 66:-1.450093 67:0.251321 68:0.586464 69:-0.024314 70:0.882587
-1 1:-0.262667 2:-0.083768 3:0.733586 4:-1.825201 5:0.430232 6:1.052924 7:-1.443960 8:-1.610511 9:0.052472 10:1.226560 11:0.183068 12:-0.791150 13:0.816903 14:-0.845125 15:-2.192450 16:-0.023402 17:0.352417 18:0.928823 19:-0.729535 20:0.023245 21:1.839332 22:-1.334282 23:-0.139323 24:-1.170075 25:-0.814489 26:0.412649 27:-0.199482 28:0.635621 29:0.419759 30:0.246668 31:0.421401 32:-1.467243 33:0.622930 34:1.282543 35:1.154835 36:0.682009 37:0.909433 38:0.857296 39:-1.089514 40:-0.035230 41:0.218835 42:-0.911411 43:0.066377 44:0.814644 45:0.353066 46:0.194407 47:1.182933 48:0.420568 49:-0.190192 50:0.736220 51:-0.780623 52:-0.322124 53:-0.746517 54:0.370871 55:0.137971 56:-1.135161 57:-1.409129 58:-1.488729 59:-2.185936 60:0.265196 61:0.437420 62:0.948361 63:1.944682 64:-0.563162 65:1.527979 66:-0.852722 67:0.766625 68:-1.014758 69:1.896979 70:0.837878
-1 1:0.399010 2:-0.884793 3:-2.808205 4:-0.657932 5:-0.813191 6:0.240415 7:1.229823 8:-0.442214 9:0.435332 10:0.479808 11:0.439457 12:-1.881246 13:1.977302 14:0.919660 15:2.185365 16:0.576568 17:0.795276 18:0.813776 19:-1.509005 20:0.995287 21:-0.502334 22:-0.728184 23:1.283991 24:-0.292200 25:0.625695 26:0.456236 27:0.196745 28:0.027151 29:-0.976538 30:-2.095172 31:-3.338818 32:0.375984 33:0.911959 34:-0.930682 35:-1.132389 36:0.645197 37:0.303787 38:-1.510414 39:0.997317 40:-1.005319 41:1.077582 42:-0.322923 43:1.889454 44:0.817971 45:1.208990 46:-0.227171 47:0.444139 48:2.457268 49:-0.414841 50:1.022598 51:0.110471 52:1.080683 53:1.202612 54:-0.933596 55:-1.408348 56:1.627465 57:0.435475 58:-0.741360 59:-0.378906 60:1.755618 61:1.280916 62:-1.343204 63:0.276686 64:-0.119878 65:1.144412 66:1.200482 67:0.519231 68:-0.513747 69:-1.873028 70:0.002813
-1 1:0.725811 2:-0.969151 3:-0.164240 4:-0.498288 5:0.638573 6:-0.428127 7:1.410552 8:0.944445 9:-0.714752 10:-0.866090 11:1.119067 12:0.281790 13:0.686154 14:-0.539787 15:0.818200 16:0.393520 17:0.581613 18:0.053676 19:0.663704 20:-0.193150 21:0.035687 22:0.474334 23:0.712536 24:-0.110909 25:0.378187 26:-0.477374 27:-0.365175 28:-0.613159 29:1.738166 30:1.243719 31:0.123530 32:-0.431009 33:-0.322036 34:-1.517674 35:0.005630 36:1.796433 37:0.426933 38:-0.850718 39:1.326431 40:0.083322 41:0.984920 42:-0.930125 43:0.210552 44:-0.497434 45:1.064237 46:0.055485 47:-0.240546 48:0.824757 49:0.232128 50:1.577579 51:-0.761238 52:-0.402956 53:1.668425 54:-0.527744 55:-0.403023 56:-0.462382 57:0.868932 58:0.060190 59:-0.010103 60:-0.083887 61:-1.038660 62:0.740915 63:0.792764 64:-0.496696 65:0.819629 66:-0.559161 67:-1.778571 68:-0.386575 69:0.333474 70:-0.079258
-1 1:0.266492 2:0.720476 3:-0.023106 4:1.763418 5:1.080229 6:-0.028217 7:-0.532988 8:-1.725039 9:-1.115822 10:2.106002 11:1.051831 12:-0.506064 13:1.041197 14:-0.411258 15:0.318406 16:-0.103262 17:-2.234482 18:0.539329 19:1.430329 20:0.116361 21:0.384304 22:0.656697 23:0.715863 24:0.372731 25:0.364943 26:0.100968 27:0.039292 28:-0.336349 29:0.819837 30:-0.996069 31:0.349091 32:0.953144 33:0.539810 34:0.807832 35:-1.147809 36:-0.050720 37:-3.513163 38:0.344363 39:-0.119418 40:-0.462014 41:0.566253 42:-0.545858 43:-0.669210 44:0.960174 45:0.080231 46:-1.273154 47:0.677184 48:-1.575650 49:0.519192 50:-0.008980 51:1.127713 52:2.028342 53:0.941977 54:0.602582 55:0.001949 56:-0.116713 57:-0.528617 58:0.120902 59:-1.319502 60:-1.302660 61:-0.619872 62:-0.253936 63:-0.307049 64:0.021533 65:-0.949096 66:-0.077185 67:-0.889787 68:-0.201457 69:-0.353456 70:1.727868
-1 1:1.954719 2:1.350127 3:-0.123676 4:2.203945 5:-1.107290 6:-0.926393 7:0.461049 8:0.180303 9:-2.286638 10:-0.559636 11:0.530991 12:0.802609 13:1.957660 14:0.479879 15:-0.812565 16:0.507583 17:0.645854 18:-0.404032 19:-0.517940 20:-0.322637 21:0.520393 22:1.094226 23:1.910891 24:-0.668809 25:-0.226985 26:-0.343424 27:0.538748 28:0.059178 29:-0.467690 30:-1.216800 31:-1.165718 32:-0.523707 33:-2.256438 34:-0.049946 35:-1.700139 36:0.899358 37:1.087726 38:0.252716 39:0.730233 40:0.794244 41:2.282669 42:1.360305 43:0.664633 44:0.159292 45:0.389695 46:-0.941588 47:-0.176523 48:-1.196100 49:-0.089498 50:-0.874961 51:-0.603864 52:0.103460 53:0.581196 54:1.065948 55:0.455483 56:2.134528 57:-0.146324 58:-1.718615 59:-0.706860 60:0.080670 61:-0.064726 62:0.466293 63:-1.151461 64:0.175387 65:0.578673 66:0.374988 67:-0.254650 68:-1.293697 69:1.058134 70:-0.099551
-1 1:-0.277797 2:1.558326 3:-0.481447 4:-0.871940 5:-0.090608 6:-0.455802 7:-0.773284 8:2.332040 9:-2.063239 10:0.320201 11:0.499999 12:-1.607598 13:-0.402631 14:-1.710981 15:0.597131 16:0.595760 17:-0.816535 18:0.054314 19:-1.304483 20:2.125096 21:-0.469410 22:-0.856448 23:-0.110495 24:-1.371824 25:-0.511053 26:-1.262619 27:-0.242021 28:0.591341 29:-1.472213 30:0.793329 31:1.131621 32:-1.192794 33:-0.324859 34:-0.363649 35:-0.064624 36:0.905069 37:-0.776200 38:0.276555 39:-0.098212 40:-0.544644 41:-0.833675 42:1.128042 43:0.849595 44:-0.756902 45:0.280940 46:-0.961430 47:-1.250008 48:2.963114 49:0.468306 50:-1.259154 51:1.051204 52:-0.662165 53:-0.887904 54:0.355174 55:-0.819846 56:0.728429 57:0.211102 58:-0.185255 59:-0.620031 60:-0.104623 61:1.262096 62:0.223211 63:1.332888 64:-0.661830 65:-1.631496 66:0.055562 67:-0.203543 68:1.860584 69:0.073533 70:1.550737
-1 1:0.777042 2:-0.209977 3:-0.203419 4:0.570354 5:-0.609680 6:-1.070777 7:-0.439240 8:1.087926 9:1.638472 10:-0.549063 11:-1.094578 12:1.062198 13:-1.311074 14:-0.416397 15:-0.377108 16:0.339967 17:-1.268138 18:1.392015 19:-0.291272 20:0.990668 21:0.504661 22:-0.810920 23:0.450629 24:-0.407202 25:0.201223 26:1.542835 27:-0.717016 28:-1.241189 29:0.576807 30:-2.222742 31:-0.338738 32:1.624561 33:-1.128622 34:0.325509 35:-1.467582 36:-0.260532 37:1.010210 38:-1.191722 39:1.323058 40:0.688315 41:0.492356 42:0.119851 43:0.604401 44:0.811462 45:-0.689556 46:-1.403199 47:-0.667562 48:-1.052459 49:-1.443143 50:-0.619284 51:0.100679 52:-0.881658 53:0.079987 54:-1.268939 55:1.836195 56:-0.563195 57:-0.995286 58:-1.669463 59:-0.024511 60:0.334995 61:-1.332181 62:2.706567 63:-0.774824 64:0.292758 65:-1.192197 66:1.861799 67:1.653250 68:0.026759 69:-0.789437 70:2.423931
-1 1:0.577301 2:-1.450695 3:1.193066 4:-0.898087 5:1.233000 6:-0.073926 7:0.588523 8:1.003008 9:-0.880648 10:-0.320878 11:-0.898406 12:-1.036084 13:0.799819 14:0.018710 15:-1.398676 16:-1.158244 17:0.818019 18:-1.414685 19:1.149527 20:0.922496 21:-0.155547 22:-2.376548 23:0.649840 24:-0.004894 25:1.090541 26:0.385654 27:-3.049320 28:-0.020492 29:1.113755 30:-0.125444 31:0.877891 32:-1.101301 33:1.819984 34:0.749028 35:1.303594 36:-1.024918 37:-1.018961 38:0.130065 39:0.760956 40:-1.466323 41:-0.579144 42:1.933247 43:-0.485751 44:-2.911857 45:0.256223 46:0.057472 47:-0.934425 48:-0.766297 49:0.348565 50:-1.112281 51:1.456114 52:1.018315 53:0.821153 54:-0.997546 55:-0.504165 56:-0.114320 57:-0.293695 58:-1.005209 59:0.988576 60:-2.122810 61:0.666106 62:-0.908814 63:0.454288 64:1.407271 65:-0.153514 66:0.170901 67:0.401860 68:1.444772 69:0.111294 70:-0.601549
-1 1:-2.891986 2:0.879380 3:-0.824921 4:0.850445 5:0.727691 6:1.535157 7:-0.228757 8:0.223742 9:-1.755594 10:-0.052616 11:-0.871279 12:-1.072030 13:0.146113 14:0.065203 15:-0.512924 16:-0.968625 17:-0.898297 18:1.275714 19:-0.132313 20:-1.116836 21:1.341110 22:-0.091222 23:0.737578 24:-0.879955 25:0.881333 26:1.366086 27:0.760932 28:-1.273978 29:-0.467954 30:-1.393545 31:-0.663094 32:-0.211518 33:-0.536157 34:0.447613 35:-1.322462 36:0.971125 37:-0.111705 38:-1.232418 39:0.469957 40:1.489622 41:-0.449980 42:1.155398 43:1.306687 44:0.916619 45:0.855488 46:0.071057 47:-0.075241 48:0.847789 49:0.262177 50:2.041287 51:-0.531701 52:0.690307 53:0.593906 54:0.287236 55:-0.389930 56:2.384129 57:-0.379183 58:0.422123 59:2.211636 60:-2.794272 61:-0.945291 62:-0.483137 63:0.017457 64:0.370484 65:0.544692 66:-2.194460 67:0.052281 68:1.576651 69:1.125863 70:0.363715
-1 1:-0.087229 2:-1.864376 3:0.931120 4:1.511627 5:0.202181 6:-1.852768 7:-0.823510 8:-1.610805 9:-1.566527 10:-0.271389 11:0.084761 12:0.907742 13:0.648455 14:-1.399642 15:0.452106 16:0.637569 17:1.219555 18:-0.547588 19:-0.865922 20:-0.885191 21:1.684919 22:-0.301161 23:0.348679 24:-0.076000 25:0.349189 26:0.077517 27:0.357756 28:1.564334 29:0.192589 30:1.066294 31:1.188934 32:0.999647 33:1.349536 34:0.933451 35:-0.699216 36:0.678413 37:0.078610 38:0.054803 39:-0.041516 40:-0.707978 41:0.992304 42:0.373242 43:0.236570 44:-0.986820 45:-1.019251 46:-0.892408 47:-0.929782 48:-0.582850 49:1.506350 50:-0.190388 51:0.120990 52:0.887069 53:0.911177 54:-0.206574 55:1.433158 56:1.336936 57:-0.354905 58:0.861235 59:0.429789 60:0.518072 61:-0.804586 62:0.287484 63:-0.528254 64:-1.655767 65:-1.433137 66:-0.254516 67:-0.121084 68:-1.611374 69:-0.342064 70:-0.087434
-1 1:-2.039150 2:-1.071492 3:-0.836339 4:-0.080345 5:-0.156650 6:0.340673 7:1.765100 8:0.361643 9:1.798077 10:-1.193511 11:0.855118 12:-0.245045 13:0.294215 14:0.039388 15:-1.612654 16:-0.715782 17:1.101891 18:1.243032 19:-0.890926 20:0.331641 21:0.316644 22:-0.139771 23:1.057143 24:-0.498727 25:-0.161295 26:-0.077084 27:0.735440 28:-1.062854 29:0.141397 30:-1.569767 31:0.296700 32:-0.285176 33:0.933415 34:-0.064161 35:-1.450881 36:1.013424 37:-1.551019 38:-0.900730 39:-0.744078 40:0.445654 41:-1.222107 42:1.392030 43:1.751182 44:-1.666559 45:1.561331 46:0.459727 47:-0.812692 48:-0.937013 49:2.341996 50:-1.515390 51:1.876427 52:-0.817354 53:0.467682 54:2.083051 55:-0.566193 56:-0.474772 57:-0.463040 58:-0.665572 59:0.595764 60:0.428207 61:-0.986484 62:0.458534 63:0.475947 64:-1.156276 65:0.059067 66:-0.423425 67:0.074905 68:-1.134196 69:0.682042 70:0.352937
-1 1:-1.381903 2:1.114809 3:-0.535058 4:0.743551 5:-0.087389 6:-2.219528 7:-1.425940 8:-0.690111 9:1.427838 10:2.690527 11:0.968552 12:0.026403 13:0.247223 14:1.223197 15:-0.201139 16:-0.260681 17:-0.498672 18:-0.058343 19:-1.507095 20:-1.169476 21:0.939940 22:-0.385323 23:-0.904898 24:2.409756 25:1.243659 26:-0.889734 27:-0.418485 28:0.424499 29:0.589340 30:-0.208099 31:-1.129910 32:-1.960398 33:-0.932576 34:-1.806795 35:0.250928 36:0.946082 37:0.497718 38:0.636090 39:0.095260 40:1.077070 41:-0.617781 42:-1.269419 43:0.985910 44:-0.150792 45:0.086709 46:-0.454377 47:-1.969858 48:-0.521798 49:-1.303819 50:-0.669324 51:0.169607 52:-0.454278 53:-1.402062 54:-1.063541 55:0.737357 56:0.178855 57:0.900230 58:-0.110104 59:-0.495048 60:0.387304 61:0.046110 62:0.189751 63:-0.226544 64:0.004442 65:1.628198 66:-1.657453 67:0.626045 68:-1.981242 69:-2.636541 70:-1.001578
-1 1:0.127702 2:1.461862 3:0.380490 4:-0.308953 5:1.058101 6:0.436033 7:0.491253 8:0.421285 9:0.855208 10:-0.199889 11:0.116153 12:-0.943225 13:0.521489 14:1.137734 15:1.172548 16:-1.060799 17:-2.076164 18:0.216288 19:0.207313 20:-0.963146 21:-1.397045 22:0.322541 23:0.836166 24:-0.507706 25:-0.417212 26:0.339480 27:-1.018187 28:0.177324 29:0.809320 30:-0.614709 31:-0.176549 32:1.362919 33:0.116699 34:-0.480488 35:0.490256 36:-0.152672 37:-0.481962 38:-0.574358 39:-1.346659 40:1.150523 41:0.086347 42:-0.215632 43:-0.439136 44:1.325146 45:-0.135834 46:-0.209452 47:0.915865 48:-0.149763 49:0.385176 50:1.778669 51:-0.102572 52:-0.024284 53:1.255451 54:1.413496 55:-0.521169 56:-0.874403 57:-1.098451 58:-0.516587 59:0.621523 60:1.181497 61:-1.667699 62:-0.287642 63:0.474493 64:-1.183593 65:-1.078150 66:0.218400 67:0.398725 68:1.046094 69:-0.195826 70:-0.500644
-1 1:-0.457153 2:2.505602 3:0.132861 4:1.409489 5:-2.066107 6:-0.887865 7:-0.448254 8:-0.901402 9:0.013125 10:-0.628538 11:0.243596 12:0.937058 13:-0.617213 14:-0.965180 15:-0.397523 16:-2.798156 17:0.208387 18:-0.625093 19:0.129639 20:-0.507321 21:-0.810839 22:0.110908 23:-0.406747 24:-0.633181 25:0.758336 26:1.052234 27:-1.553020 28:0.179842 29:0.535474 30:-1.271278 31:-0.830047 32:-0.957111 33:1.703119 34:1.321155 35:-0.863280 36:0.068500 37:-0.774609 38:0.646584 39:-0.989081 40:0.501988 41:1.445732 42:1.005196 43:1.303633 44:-0.508930 45:1.230200 46:-0.561988 47:-1.210483 48:-0.012993 49:-0.751015 50:0.260220 51:0.473546 52:-1.484391 53:-0.032749 54:1.232643 55:-0.453929 56:1.329855 57:-1.693525 58:0.633694 59:0.468003 60:0.654359 61:-0.157072 62:0.777239 63:-0.379714 64:0.440087 65:-0.076916 66:-0.851941 67:-0.271086 68:-1.000680 69:-0.963374 70:-0.152777
-1 1:1.690977 2:0.102666 3:0.326927 4:0.657790 5:-2.022976 6:-0.119552 7:-2.669728 8:-0.881585 9:-1.277797 10:-0.195876 11:-0.085660 12:1.746468 13:-0.009101 14:-0.010661 15:0.408961 16:1.545707 17:0.199735 18:-0.309284 19:-1.014877 20:-0.230573 21:0.537160 22:-0.139671 23:0.049709 24:0.015790 25:0.840163 26:-0.409986 27:0.074873 28:-1.579001 29:-0.436463 30:0.225584 31:-1.184752 32:1.111044 33:1.488589 34:-0.149324 35:-1.296443 36:-0.051457 37:0.637324 38:-0.406531 39:-0.791088 40:0.717578 41:1.267264 42:-0.301045 43:-0.800388 44:0.154753 45:0.115955 46:0.703151 47:-1.092030 48:-0.356227 49:-1.427681 50:1.895992 51:-0.967002 52:-1.719992 53:-0.439560 54:-0.043302 55:-0.851076 56:0.613228 57:0.610335 58:-2.579711 59:-0.836220 60:0.286136 61:1.307805 62:1.880561 63:-0.887284 64:-1.429585 65:-0.025509 66:0.253734 67:0.669054 68:-0.945129 69:0.889698 70:-0.244218
-1 1:-0.576933 2:0.579576 3:0.611301 4:0.344824 5:0.163083 6:-0.580849 7:0.075454 8:-1.762775 9:-0.962452 10:-0.857013 11:0.749972 12:2.237026 13:0.203755 14:1.358422 15:-0.375951 16:2.483117 17:0.654565 18:0.653060 19:-0.293409 20:0.127685 21:1.700154 22:0.565419 23:0.885453 24:-0.030406 25:-1.281160 26:1.116701 27:0.113081 28:-0.749320 29:-0.604494 30:1.978848 31:-1.094947 32:-0.038161 33:0.395021 34:0.866493 35:-0.020430 36:-0.199645 37:0.593969 38:0.806193 39:-1.026036 40:-0.242490 41:-1.338227 42:-1.012202 43:-0.109429 44:-0.175775 45:-0.821959 46:0.339166 47:0.884161 48:0.311838 49:0.590114 50:0.195865 51:-1.125955 52:0.236220 53:-0.083679 54:-1.535717 55:1.649837 56:0.695595 57:1.001902 58:0.812635 59:0.419886 60:2.063912 61:0.427007 62:-2.204850 63:-0.586201 64:-0.025242 65:-1.486697 66:0.126107 67:2.176119 68:0.101581 69:1.735223 70:0.517515
-1 1:0.918973 2:-1.132006 3:1.152097 4:-0.560033 5:1.352222 6:-1.068562 7:0.708839 8:-0.269937 9:-0.736144 10:-1.121979 11:1.254235 12:0.724574 13:-0.301862 14:0.263128 15:1.011980 16:1.824708 17:-0.740595 18:1.294086 19:2.919894 20:0.281410 21:-1.379610 22:0.246597 23:0.657103 24:1.258026 25:0.188882 26:0.866693 27:1.813621 28:0.955874 29:1.673101 30:-0.562584 31:-0.757263 32:0.118093 33:-0.559251 34:0.361501 35:2.032591 36:1.033518 37:0.827181 38:1.767245 39:0.775148 40:-1.152928 41:1.351539 42:-1.745854 43:1.258202 44:-0.611323 45:-1.010735 46:-0.038529 47:-0.498999 48:-1.527771 49:-0.412171 50:-1.809172 51:-0.089881 52:0.113294 53:-1.411790 54:-0.964845 55:0.112948 56:0.498399 57:0.810077 58:-1.262861 59:1.662760 60:0.566963 61:0.746596 62:0.471918 63:0.741704 64:-1.425809 65:-1.114216 66:-1.316999 67:1.000433 68:-1.841045 69:-0.212219 70:-0.183606
-1 1:-0.455195 2:0.093979 3:-0.425272 4:-0.129326 5:0.430375 6:-0.316772 7:1.545893 8:-0.924933 9:-1.714078 10:0.725048 11:1.173201 12:0.435626 13:-0.778326 14:-0.947420 15:0.348489 16:0.360069 17:0.410338 18:0.619258 19:0.080661 20:0.344049 21:0.319854 22:0.943187 23:-0.452311 24:-1.012401 25:-1.333101 26:-0.578164 27:0.782904 28:1.741966 29:-1.111828 30:-1.151050 31:-2.127952 32:-0.683686 33:0.266551 34:1.495176 35:2.095523 36:-1.217102 37:1.321976 38:-0.819114 39:1.183148 40:-0.820669 41:0.019387 42:0.681628 43:0.117396 44:-0.311439 45:-2.119930 46:2.552604 47:0.069993 48:-0.375752 49:0.459894 50:1.130973 51:-0.614571 52:-0.266014 53:0.625123 54:0.781441 55:0.788715 56:1.681111 57:0.960521 58:-1.750472 59:-0.429473 60:-0.275651 61:-1.348279 62:-0.975385 63:0.308270 64:-0.205639 65:0.130880 66:0.675081 67:1.035300 68:0.099330 69:0.470598 70:0.924011
-1 1:1.122342 2:-0.552330 3:1.817009 4:1.354533 5:-1.338986 6:-0.938536 7:-0.645580 8:0.449706 9:0.130080 10:0.730370 11:-0.675735 12:-0.959780 13:-0.043121 14:1.167529 15:2.575674 16:0.578544 17:0.569442 18:-1.328486 19:0.205860 20:0.030773 21:-2.183875 22:-0.455970 23:0.759703 24:-0.898774 25:0.735262 26:-0.267470 27:0.957899 28:-0.303845 29:-1.762221 30:-0.638281 31:-2.860459 32:0.101992 33:-0.664116 34:-1.274468 35:-1.125139 36:1.667301 37:-0.336419 38:0.640760 39:-0.064867 40:0.583920 41:-0.291706 42:0.253209 43:-2.347979 44:0.230891 45:1.058607 46:-3.676928 47:-0.380565 48:0.654857 49:0.622548 50:-0.616499 51:-2.868604 52:-1.291083 53:-1.883737 54:0.777724 55:-0.093698 56:-0.302860 57:1.209609 58:1.306552 59:-0.324320 60:-0.786271 61:0.256633 62:-0.629196 63:-1.152874 64:0.392597 65:0.023631 66:0.142881 67:0.612693 68:0.664120 69:-0.278478 70:0.121286
-1 1:1.410665 2:-0.234564 3:-1.645514 4:1.305973 5:0.194428 6:0.974907 7:0.405726 8:0.593590 9:-0.022520 10:1.350340 11:-1.324270 12:-0.095882 13:-1.041981 14:-1.298242 15:-0.877133 16:1.900658 17:-0.027976 18:-0.597346 19:0.821184 20:-1.113668 21:1.003581 22:2.132215 23:-2.416394 24:0.891297 25:0.611219 26:-0.676246 27:0.960037 28:-0.181992 29:-1.603023 30:-0.795873 31:0.579971 32:0.571941 33:-0.919415 34:-0.880598 35:2.297467 36:-0.284446 37:0.369142 38:0.752410 39:3.078944 40:0.474554 41:-0.236989 42:-1.144790 43:1.065936 44:-0.578598 45:-0.280666 46:-0.886227 47:-1.049763 48:0.446761 49:0.382803 50:-1.044342 51:-0.309728 52:0.850011 53:-0.333465 54:-0.374657 55:0.073798 56:0.536288 57:0.466203 58:0.291532 59:-1.082652 60:-1.665893 61:-0.632198 62:0.371958 63:-0.781253 64:1.382309 65:-0.308367 66:0.021724 67:1.019205 68:-0.004452 69:0.865159 70:-1.183657
-1 1:-1.655877 2:-0.564112 3:-1.400275 4:0.285916 5:0.417999 6:-1.561230 7:0.034123 8:-0.491359 9:0.018217 10:-0.073403 11:-0.618598 12:0.926914 13:-1.183235 14:-2.632986 15:1.332188 16:-1.172409 17:-0.423944 18:-0.716950 19:-0.226161 20:-0.836303 21:0.209830 22:-0.058446 23:-2.191005 24:0.630033 25:-0.499404 26:0.483691 27:-2.488032 28:1.601936 29:-1.617830 30:1.617326 31:0.482612 32:-0.949445 33:1.039617 34:-1.109325 35:-0.573604 36:0.433144 37:-0.255908 38:-0.427252 39:0.024818 40:-0.857814 41:-1.597111 42:0.238590 43:-1.077104 44:-0.882256 45:0.220790 46:1.457554 47:1.309517 48:-0.068687 49:-1.888785 50:0.033133 51:0.944484 52:2.242917 53:0.159683 54:0.643208 55:0.871255 56:0.247184 57:-1.287087 58:-0.687909 59:-1.782490 60:-0.140929 61:1.690281 62:0.449644 63:0.309882 64:1.715302 65:-0.163353 66:-0.664820 67:-1.571138 68:-0.476404 69:2.425289 70:-0.230842
-1 1:-1.260282 2:-0.186040 3:0.206962 4:-0.830812 5:0.027164 6:0.321172 7:-0.501939 8:-1.826709 9:-1.077167 10:-0.719957 11:-0.283751 12:-1.040078 13:-0.633293 14:1.108944 15:0.856331 16:-1.441837 17:1.632596 18:0.463269 19:-1.892600 20:0.682138 21:-0.561395 22:1.177580 23:0.720295 24:-1.060888 25:0.282470 26:0.619123 27:-1.625769 28:-1.504486 29:-0.085941 30:-0.803681 31:0.895328 32:-0.209677 33:-0.404978 34:0.837829 35:-0.002297 36:0.097482 37:1.230271 38:-0.878972 39:0.825515 40:-0.317433 41:0.017205 42:1.481707 43:-0.358906 44:0.386231 45:0.535641 46:-0.005954 47:0.836312 48:1.216866 49:-0.179774 50:0.290949 51:-0.109671 52:1.107632 53:0.345592 54:-0.197751 55:-0.779944 56:-1.092405 57:0.219475 58:-0.071732 59:-0.708893 60:0.755704 61:1.298579 62:-0.181818 63:-0.373305 64:1.069984 65:0.023703 66:0.012120 67:0.042929 68:0.588595 69:-0.177596 70:1.265435
-1 1:-0.127446 2:-0.509662 3:0.279993 4:-1.366810 5:-0.386067 6:-1.768721 7:1.448613 8:0.795379 9:-0.847537 10:0.903729 11:-0.601132 12:-0.125853 13:2.325463 14:-0.527554 15:1.512552 16:0.281447 17:-1.792985 18:1.444726 19:-2.955775 20:0.718042 21:-0.563146 22:-0.190313 23:-0.407353 24:0.178726 25:0.300347 26:0.934538 27:-0.442440 28:-0.752344 29:1.470324 30:0.830705 31:-0.521773 32:0.758391 33:-1.159862 34:-0.040294 35:0.103260 36:-0.426693 37:-0.116428 38:1.290319 39:1.119923 40:-0.790602 41:0.417217 42:-0.414263 43:0.047250 44:-2.771332 45:-2.014419 46:-1.011713 47:0.215875 48:0.240785 49:-0.532169 50:1.933434 51:0.005563 52:1.196213 53:1.356629 54:0.295634 55:0.127880 56:0.291170 57:0.698343 58:0.335471 59:-1.363174 60:1.879102 61:1.625740 62:0.934266 63:-0.379005 64:0.524140 65:-0.921324 66:0.154834 67:-0.182439 68:-0.089366 69:-0.078371 70:0.456023
-1 1:0.348610 2:-0.446995 3:0.738692 4:1.373203 5:2.216197 6:-0.903635 7:-0.535248 8:0.566929 9:-1.738110 10:-0.420964 11:-2.267740 12:0.025384 13:1.347770 14:1.150204 15:-0.733506 16:-0.445973 17:-2.060173 18:-0.915681 19:-1.853290 20:0.674940 21:0.347793 22:-0.215678 23:0.618850 24:-0.376966 25:-0.323403 26:1.037421 27:1.011659 28:-0.884073 29:0.554424 30:-0.065982 31:0.552172 32:0.068884 33:-0.309346 34:-1.138472 35:-0.163588 36:-0.353105 37:0.970935 38:-0.048732 39:-0.891826 40:-1.814007 41:-1.626925 42:-0.616387 43:-1.580551 44:0.262648 45:-1.546257 46:-1.043426 47:1.123463 48:0.719043 49:0.424357 50:0.391895 51:0.165126 52:-0.998043 53:-0.267853 54:-1.858275 55:-0.821206 56:0.365294 57:0.975856 58:0.330805 59:0.812659 60:-0.992521 61:0.217364 62:0.766042 63:-1.994815 64:-0.848608 65:1.190069 66:-1.384794 67:0.869490 68:-0.000442 69:-1.835327 70:1.633258
-1 1:-1.114308 2:0.447079 3:0.666771 4:-0.244029 5:0.519855 6:0.612605 7:-1.546869 8:0.566640 9:-1.371121 10:1.310353 11:0.828385 12:-1.343514 13:-0.245503 14:1.256067 15:-1.123749 16:-0.540382 17:-0.851258 18:-0.192885 19:0.089847 20:-1.898748 21:1.108491 22:0.328801 23:0.048672 24:-1.783840 25:0.700470 26:-0.773347 27:-0.092806 28:0.408091 29:-0.265245 30:0.316573 31:-0.750533 32:0.011251 33:0.786835 34:0.168537 35:0.434997 36:0.713247 37:-0.443277 38:-0.075227 39:0.513948 40:0.591113 41:-2.011023 42:-0.363035 43:-0.425263 44:-0.195003 45:-0.111450 46:-0.132406 47:-1.019425 48:1.177235 49:-0.092113 50:-0.797811 51:0.305974 52:-0.012635 53:0.239640 54:0.369528 55:1.222118 56:0.614086 57:0.232492 58:-0.626369 59:-0.425837 60:-0.106903 61:-2.174806 62:1.103875 63:-0.489225 64:0.408789 65:-0.154086 66:-0.492805 67:2.204086 68:-1.520408 69:-0.382297 70:1.756167
-1 1:0.220762 2:-0.347306 3:-1.082655 4:0.140188 5:0.293264 6:0.051205 7:0.268451 8:-0.551876 9:0.684617 10:0.386128 11:2.718551 12:-0.621080 13:0.371649 14:0.009249 15:-0.013709 16:-0.654650 17:0.017660 18:-0.393734 19:2.221358 20:-1.380240 21:0.324406 22:1.478062 23:0.394185 24:0.189367 25:0.988203 26:-1.794260 27:-1.524855 28:0.485365 29:2.586041 30:1.397672 31:0.594705 32:-0.264560 33:-0.477898 34:-0.704902 35:-0.625063 36:-0.070266 37:-0.811230 38:0.806786 39:0.030723 40:0.043645 41:-1.148420 42:0.069082 43:0.017224 44:-0.542280 45:-0.083468 46:-0.976689 47:-1.676231 48:-0.799878 49:-1.270055 50:1.265491 51:-0.076471 52:-0.028938 53:0.888663 54:-1.219493 55:-1.192911 56:0.462850 57:0.358482 58:-0.615505 59:-1.041021 60:0.303141 61:1.104720 62:-1.004609 63:-0.599721 64:0.559133 65:0.758089 66:-1.061730 67:0.719967 68:-1.149560 69:-0.569508 70:0.479924
-1 1:1.413804 2:-1.178782 3:0.409975 4:-0.720506 5:-1.093107 6:0.104349 7:-0.174906 8:0.345116 9:0.565123 10:0.447953 11:-0.347016 12:1.765530 13:0.241606 14:-0.371126 15:0.772593 16:-0.977799 17:-1.078693 18:0.798619 19:0.647642 20:-0.340254 21:1.100626 22:2.238873 23:-0.984568 24:-1.898441 25:0.953706 26:-0.314596 27:1.369186 28:-0.164274 29:0.712906 30:1.615253 31:0.301199 32:0.614158 33:-0.356166 34:-0.293950 35:0.209443 36:0.235232 37:-0.009152 38:0.753623 39:-1.380377 40:-0.270522 41:-0.181154 42:1.731060 43:-1.698180 44:-1.067290 45:-1.112110 46:-0.140467 47:0.597443 48:-0.850169 49:-0.293361 50:0.637174 51:-0.733153 52:0.737844 53:-2.271620 54:1.451559 55:-0.281016 56:1.500535 57:0.188594 58:-3.488209 59:-2.374871 60:-0.515824 61:1.545048 62:-1.636126 63:0.178125 64:0.527055 65:1.338039 66:-1.289324 67:-0.730324 68:-0.881921 69:0.381649 70:0.468606
-1 1:0.431229 2:-0.132639 3:-2.349882 4:-1.211805 5:-1.668251 6:-0.440382 7:-0.932513 8:-0.575835 9:-0.499596 10:0.478844 11:0.167976 12:1.163614 13:-0.759538 14:-0.926011 15:0.402959 16:1.761399 17:-0.926838 18:1.788966 19:-0.221423 20:-0.935181 21:0.544498 22:-0.015118 23:-0.902172 24:-0.119470 25:-0.537781 26:1.599384 27:-0.125220 28:-0.398521 29:-0.416868 30:0.221194 31:1.808708 32:-0.783324 33:0.257424 34:0.847310 35:0.023496 36:0.141462 37:0.867548 38:-1.888059 39:-1.765720 40:-2.390631 41:0.423378 42:-0.542629 43:-1.197904 44:-0.188758 45:0.901259 46:-0.224217 47:1.049881 48:-0.048840 49:0.123066 50:-0.898710 51:-0.097741 52:-0.220832 53:-0.970707 54:0.238702 55:-0.614228 56:1.240314 57:-0.311128 58:-0.425784 59:-1.096869 60:-2.049399 61:-1.487074 62:-0.178738 63:0.664681 64:0.974323 65:-0.399591 66:-0.873770 67:1.071289 68:0.987052 69:-1.651467 70:-1.753509
-1 1:-1.674357 2:0.313239 3:-0.442201 4:-2.290998 5:-0.065891 6:-2.014787 7:1.312416 8:0.880646 9:-1.434637 10:0.629636 11:-0.321471 12:0.125865 13:-0.078628 14:-1.846770 15:0.236029 16:0.992362 17:0.095477 18:0.681374 19:-0.099234 20:1.060789 21:-0.911249 22:0.739785 23:1.019043 24:1.602447 25:0.226259 26:-0.379666 27:1.472726 28:-0.999959 29:0.000746 30:-0.447123 31:-0.141647 32:0.427087 33:0.294943 34:-0.476408 35:0.178152 36:-1.479280 37:0.866918 38:1.820726 39:0.437867 40:-1.192436 41:-1.129420 42:0.325136 43:-0.027004 44:-0.094991 45:-0.518125 46:0.301586 47:-2.610029 48:-1.064264 49:-1.686995 50:-0.803308 51:-1.206757 52:0.569740 53:1.335225 54:1.075097 55:0.586908 56:-0.099120 57:0.732593 58:-0.246381 59:-0.880322 60:-0.554631 61:-0.864665 62:-1.289130 63:-1.271196 64:1.129905 65:-0.975194 66:0.201037 67:-0.895550 68:-0.701064 69:-0.239891 70:-0.693866
-1 1:0.621357 2:-0.658440 3:0.721510 4:1.846507 5:0.333916 6:-0.699674 7:0.422236 8:-0.246808 9:0.821992 10:1.199619 11:-0.322894 12:-0.549664 13:-0.213486 14:-0.386004 15:-1.939399 16:0.586694 17:1.674180 18:0.579506 19:0.270570 20:0.212754 21:0.071839 22:-0.061012 23:1.376698 24:1.106835 25:-0.800393 26:-0.931872 27:1.506626 28:-1.014958 29:0.350720 30:-1.048668 31:-2.215870 32:0.433791 33:0.386570 34:-0.529266 35:-0.412422 36:-0.481498 37:1.711000 38:-0.718327 39:-1.856854 40:-1.302380 41:0.630959 42:-0.997376 43:0.938378 44:-0.609922 45:0.623326 46:-0.564853 47:-0.497605 48:0.534089 49:1.392880 50:0.941297 51:1.223023 52:-2.008388 53:1.725335 54:-1.267833 55:-0.318777 56:0.167117 57:0.606363 58:0.044707 59:2.681458 60:1.943681 61:0.419165 62:1.392374 63:0.789967 64:0.769934 65:-0.822640 66:-0.018693 67:2.326723 68:-0.996103 69:0.536170 70:-0.617203
-1 1:0.405824 2:1.080369 3:-0.453065 4:-0.907807 5:0.923521 6:-0.760964 7:-1.718338 8:0.712424 9:0.044159 10:-0.660742 11:-0.508495 12:0.725422 13:0.381290 14:-0.927035 15:0.550704 16:0.642760 17:-0.445309 18:-0.051940 19:-1.490591 20:-1.112308 21:0.319443 22:-0.009181 23:0.201771 24:1.077195 25:0.344777 26:0.621590 27:-0.055932 28:-0.744072 29:-0.507235 30:0.389166 31:0.619567 32:-0.206643 33:0.600630 34:2.329997 35:-0.625527 36:0.722050 37:0.701372 38:-1.138090 39:-0.101800 40:0.760202 41:-1.090500 42:-1.818576 43:-0.611303 44:0.100449 45:-0.353344 46:-0.594488 47:1.549484 48:-0.961971 49:0.669736 50:-0.755961 51:-1.105332 52:-0.409186 53:1.910877 54:-0.584575 55:1.370553 56:-1.372227 57:-0.302509 58:-0.621380 59:0.463030 60:-0.602621 61:0.117589 62:0.782770 63:1.443352 64:-0.658994 65:-0.255946 66:0.408487 67:-0.063039 68:-0.085837 69:-0.765833 70:1.399917
-1 1:-0.113652 2:-0.649088 3:-0.888122 4:0.528573 5:-2.123317 6:0.539216 7:1.274525 8:0.330176 9:0.018782 10:0.843034 11:-1.952123 12:0.761397 13:0.666476 14:-0.416227 15:-2.608916 16:0.092719 17:-0.059762 18:1.438314 19:-1.316189 20:-0.935643 21:-0.154447 22:-1.326392 23:-0.224329 24:0.112868 25:0.412863 26:0.707289 27:0.582293 28:-0.688022 29:-0.793567 30:0.804250 31:0.116847 32:-0.420764 33:1.263299 34:0.150877 35:0.045973 36:0.113188 37:-1.324870 38:-0.579252 39:1.096860 40:0.943324 41:-0.811151 42:-0.999449 43:-0.586224 44:1.783441 45:0.813958 46:-1.742247 47:-0.431747 48:-0.647699 49:-0.910986 50:-0.579115 51:-0.900334 52:0.955510 53:0.351745 54:1.087541 55:-0.819198 56:1.560929 57:-0.522158 58:-0.560227 59:0.283222 60:-0.474760 61:-0.583746 62:-0.737161 63:1.151787 64:0.148394 65:-2.152993 66:-0.382023 67:0.525983 68:0.722546 69:-0.673975 70:-0.071129
-1 1:0.671472 2:-0.168024 3:-0.458882 4:0.248171 5:0.717678 6:-0.124014 7:-1.020395 8:-0.722750 9:-0.027839 10:0.545079 11:0.234475 12:-0.400143 13:-1.140966 14:-0.509629 15:-0.963039 16:-1.507800 17:2.075715 18:-0.798657 19:0.162465 20:-1.353368 21:-0.008490 22:0.873073 23:-0.506483 24:1.873399 25:1.503494 26:-1.361412 27:0.557608 28:0.564556 29:-0.107473 30:-1.391350 31:0.258180 32:0.500769 33:1.013363 34:1.657817 35:0.924509 36:-0.296930 37:1.432970 38:0.099939 39:-1.346678 40:0.790669 41:-0.305391 42:0.311830 43:0.735862 44:-0.181786 45:0.170827 46:-0.438276 47:0.108165 48:0.388589 49:1.407057 50:-0.622792 51:0.798092 52:0.064411 53:1.367341 54:-1.298753 55:-1.696006 56:-1.232186 57:-0.082296 58:0.272778 59:-1.139353 60:0.179213 61:-0.451176 62:0.737764 63:-1.370007 64:-1.780057 65:-0.336418 66:-1.052162 67:-0.776405 68:-0.698406 69:0.780204 70:-0.928750
-1 1:-0.331151 2:-0.849638 3:1.666151 4:1.084037 5:2.093466 6:-0.398500 7:-0.150624 8:-0.657249 9:0.530816 10:0.520708 11:-0.410421 12:-0.575326 13:-1.764034 14:-0.135310 15:-0.166666 16:-0.655923 17:1.314497 18:0.329523 19:-0.158676 20:0.472806 21:0.442226 22:1.743462 23:-0.050390 24:0.311983 25:-1.098767 26:0.642882 27:-0.551661 28:-0.798844 29:-0.261655 30:-0.012982 31:-1.915247 32:0.284404 33:-1.786918 34:0.740307 35:0.066604 36:-1.345912 37:0.789241 38:-0.350593 39:-1.085996 40:0.679283 41:-1.331589 42:0.497074 43:0.440550 44:2.523050 45:0.441669 46:0.912151 47:0.504607 48:-1.262182 49:-0.746659 50:-1.514439 51:1.625933 52:0.550046 53:1.013154 54:1.180224 55:1.536874 56:-0.824025 57:-0.956224 58:0.044806 59:-1.550681 60:0.108210 61:-0.918029 62:-0.084881 63:0.986090 64:-0.258615 65:0.014417 66:-0.696890 67:0.967682 68:0.132262 69:0.498892 70:0.374446
-1 1:0.434909 2:-0.151131 3:1.579562 4:-0.322533 5:-1.799614 6:-0.624831 7:0.523771 8:0.324837 9:-0.832367 10:-1.359279 11:0.461540 12:0.730217 13:-1.461566 14:0.050900 15:0.265570 16:-0.803095 17:-0.764337 18:0.875845 19:-1.283510 20:-1.296914 21:-0.896072 22:0.744388 23:-2.361143 24:0.438586 25:-0.982766 26:-0.032010 27:-0.565224 28:-0.516397 29:0.620484 30:0.538822 31:0.331894 32:-0.219165 33:-0.312798 34:0.900545 35:0.293274 36:-0.743131 37:0.866769 38:-2.114867 39:1.058432 40:0.485549 41:1.155981 42:0.657382 43:-0.047155 44:0.057905 45:-0.292127 46:-0.528122 47:1.419204 48:-1.555523 49:-0.665628 50:0.063998 51:-0.539284 52:0.570139 53:-0.166749 54:0.682491 55:-0.043509 56:0.105911 57:0.709289 58:1.333192 59:0.183176 60:-0.006571 61:-0.097651 62:-1.436547 63:-1.465060 64:0.866006 65:-0.223129 66:1.228788 67:1.159521 68:0.130182 69:-0.173540 70:-0.751132
-1 1:-0.303646 2:0.098786 3:0.487536 4:-0.735518 5:1.436964 6:0.425461 7:-0.596006 8:0.783952 9:0.430567 10:-1.388294 11:-0.658989 12:2.160184 13:0.244892 14:-1.870934 15:-0.449295 16:1.403296 17:-0.172805 18:0.241139 19:-0.959954 20:0.667153 21:0.503289 22:-0.785996 23:-1.243952 24:-0.414048 25:-0.448584 26:-0.044747 27:2.650993 28:-0.114031 29:-1.070595 30:-0.976944 31:2.414342 32:1.148536 33:0.364373 34:-0.765789 35:-1.083255 36:-1.927462 37:0.320126 38:1.234877 39:0.243530 40:-1.061572 41:0.322248 42:0.565068 43:-0.827085 44:-0.103786 45:-0.683217 46:1.009040 47:1.309012 48:0.220304 49:1.376497 50:1.755983 51:0.826262 52:1.292424 53:-0.170527 54:1.229498 55:0.351188 56:1.128851 57:1.128031 58:2.864040 59:1.720485 60:-0.051841 61:-0.458559 62:-0.164170 63:0.780790 64:0.318392 65:-1.097158 66:0.486791 67:-0.730281 68:1.772600 69:0.559098 70:-1.066547
-1 1:-0.034614 2:-0.440663 3:1.529383 4:0.539904 5:0.301717 6:0.038480 7:1.766881 8:-0.314626 9:0.433358 10:1.381206 11:-0.471066 12:-1.570804 13:1.130799 14:0.183955 15:-0.288739 16:1.231042 17:-1.361099 18:-0.965441 19:0.548424 20:-1.039995 21:-1.776152 22:0.910336 23:1.087358 24:1.340914 25:0.411523 26:1.498400 27:-0.507470 28:-0.266010 29:1.256146 30:0.715652 31:1.378963 32:-2.624783 33:-0.067258 34:-1.154825 35:0.313588 36:-0.226162 37:0.399844 38:-1.117609 39:-1.187819 40:-0.513051 41:0.199125 42:0.283096 43:1.043312 44:1.547908 45:0.289315 46:0.764525 47:0.746545 48:-0.103189 49:-0.322643 50:0.279851 51:-0.491248 52:-2.879574 53:0.120751 54:0.946787 55:0.064876 56:0.114477 57:-0.250506 58:-0.470066 59:0.607950 60:-0.804977 61:1.070413 62:0.685478 63:-1.515153 64:-0.665271 65:1.797633 66:-0.670612 67:-1.314173 68:-0.015197 69:-0.732974 70:-0.428761
-1 1:2.077505 2:1.463188 3:0.598259 4:0.883864 5:-0.582004 6:0.443335 7:-0.504967 8:0.800132 9:-0.205323 10:-0.218991 11:0.465946 12:0.181620 13:0.493849 14:-0.242025 15:1.720576 16:0.238708 17:-1.051100 18:0.136899 19:-0.447704 20:-1.225960 21:-0.448359 22:1.239356 23:0.444403 24:0.056418 25:-0.837816 26:-0.202791 27:-2.445089 28:-0.426993 29:-0.542691 30:-1.384442 31:0.518484 32:0.464523 33:-2.285009 34:-0.004810 35:-0.882049 36:-0.386106 37:-0.064414 38:0.941245 39:-0.480823 40:-0.658049 41:-0.105136 42:0.436494 43:-0.673632 44:-0.493921 45:-0.264210 46:-0.406215 47:0.662354 48:0.801081 49:-0.661829 50:-1.211743 51:-0.498067 52:-1.308622 53:-0.640660 54:-1.032376 55:-0.426948 56:0.435210 57:-0.284721 58:1.433472 59:2.845556 60:0.743331 61:2.149753 62:0.279203 63:0.663395 64:-0.288358 65:-0.322654 66:-0.501861 67:0.060562 68:-1.955836 69:1.555612 70:0.962100
-1 1:0.379221 2:0.840175 3:-0.350419 4:-1.561933 5:0.558627 6:0.354887 7:0.400780 8:-1.194975 9:0.161363 10:-0.119529 11:1.669189 12:0.575231 13:-0.114460 14:-1.334138 15:-1.627014 16:-0.528346 17:-0.397619 18:2.884425 19:-0.812772 20:-1.206318 21:0.073473 22:-0.205937 23:-1.303055 24:0.498970 25:-0.763777 26:-0.493028 27:1.662157 28:0.510514 29:-0.914267 30:0.140183 31:0.146247 32:0.450563 33:0.328906 34:0.852531 35:0.411921 36:0.384579 37:1.989738 38:1.510338 39:-1.267096 40:0.860994 41:0.261609 42:-1.768087 43:2.204284 44:2.114145 45:-0.231617 46:0.009473 47:0.021008 48:0.806850 49:1.068657 50:-1.581857 51:1.008746 52:0.562921 53:-0.202918 54:-0.435037 55:-0.663637 56:1.731091 57:-0.716623 58:0.062623 59:-0.016043 60:1.698218 61:-0.033451 62:1.512895 63:-0.691299 64:-0.897768 65:0.363504 66:-0.938317 67:-0.572346 68:0.755793 69:-0.225906 70:2.254076
-1 1:0.355781 2:-0.059957 3:-0.772582 4:0.364108 5:-1.174151 6:-1.837036 7:-0.087900 8:-0.712473 9:1.449954 10:0.125146 11:1.378854 12:-0.890168 13:0.551956 14:-0.681822 15:0.679943 16:-0.297108 17:0.096608 18:0.137312 19:0.698561 20:-0.533055 21:0.335490 22:0.177420 23:-0.132130 24:-0.163608 25:-0.004147 26:0.015516 27:-0.169319 28:1.265573 29:-1.025583 30:-0.026405 31:-0.089426 32:0.850818 33:0.209609 34:0.460801 35:-0.578573 36:-0.584442 37:-1.358415 38:0.302150 39:1.279548 40:0.544747 41:-1.779502 42:0.520937 43:1.685992 44:-1.454328 45:-2.552820 46:-0.146981 47:0.711603 48:-1.659246 49:-0.445774 50:0.098645 51:0.290660 52:-0.344980 53:-0.803921 54:-0.482417 55:1.762383 56:1.807009 57:0.088847 58:-1.811534 59:-1.134492 60:-1.382232 61:-0.265946 62:0.342493 63:1.727308 64:0.405883 65:1.036302 66:-0.189260 67:0.423847 68:-0.685690 69:1.021406 70:-2.079829
-1 1:0.888216 2:0.242250 3:-0.279279 4:-2.325238 5:0.968799 6:1.387119 7:1.663881 8:1.833797 9:1.395144 10:1.037137 11:0.135766 12:-0.498083 13:-0.520623 14:0.051140 15:1.068084 16:0.274925 17:-1.325741 18:-0.495122 19:0.432944 20:-0.178582 21:-0.598565 22:-0.839447 23:-1.179433 24:0.039806 25:0.730700 26:-0.456519 27:1.129449 28:0.610218 29:-0.882730 30:1.037028 31:1.342461 32:-0.052254 33:-1.191620 34:1.038953 35:-1.163256 36:-0.709117 37:0.441166 38:-1.467365 39:-0.585750 40:-0.084899 41:0.502820 42:1.257524 43:-0.821629 44:0.320072 45:1.157177 46:-0.027073 47:0.297725 48:0.200080 49:0.902361 50:-1.189949 51:-0.233188 52:-0.510423 53:1.242751 54:-0.171880 55:-0.046467 56:-0.497939 57:-0.318980 58:1.995903 59:1.053777 60:0.312146 61:0.008914 62:-0.045919 63:-0.786591 64:0.262594 65:1.816567 66:-0.231689 67:1.209301 68:-0.126103 69:-0.134685 70:-0.035557
-1 1:-0.597085 2:-0.072718 3:0.128168 4:-1.513263 5:0.607649 6:-0.522844 7:-0.700818 8:0.884566 9:0.250898 10:-1.639438 11:1.798018 12:1.449124 13:-1.151231 14:-1.353060 15:-0.351661 16:-1.445924 17:-1.813325 18:-0.146987 19:-0.295708 20:-0.148967 21:-1.707742 22:1.231469 23:-0.563710 24:0.089703 25:-0.253387 26:-1.308055 27:2.310021 28:-0.497895 29:0.174033 30:0.701345 31:0.920310 32:-0.016967 33:0.177540 34:-0.857471 35:0.744187 36:-0.072304 37:1.022519 38:0.389829 39:0.251724 40:0.295137 41:-0.065585 42:0.607043 43:1.374711 44:0.483942 45:0.190055 46:-0.925258 47:0.595638 48:-0.147753 49:1.102618 50:-2.057791 51:-0.828293 52:-1.033462 53:-0.944052 54:0.344121 55:0.354287 56:-2.099255 57:0.506239 58:-0.020361 59:1.250082 60:0.796667 61:0.318868 62:0.608071 63:0.202329 64:0.495375 65:-0.246194 66:1.188997 67:-0.282188 68:-0.038044 69:1.606013 70:-0.687116
-1 1:0.696708 2:-0.789302 3:-0.384075 4:-0.135294 5:-0.187497 6:1.386521 7:-1.109241 8:2.324008 9:-0.738662 10:-1.097898 11:-1.139235 12:1.137112 13:0.063223 14:2.286599 15:-1.529430 16:0.679545 17:1.070089 18:0.217539 19:-1.388006 20:-0.581205 21:-0.985056 22:0.198891 23:-1.007243 24:-1.451855 25:0.250837 26:0.379505 27:0.650169 28:1.003032 29:1.754930 30:0.450046 31:0.857824 32:-0.572582 33:-2.206579 34:-0.967361 35:1.468140 36:-0.501164 37:1.775439 38:1.351805 39:-1.039618 40:0.197531 41:-0.766086 42:-1.229577 43:-1.194890 44:0.410258 45:-0.424345 46:0.384353 47:-0.148741 48:0.383573 49:1.157395 50:0.659198 51:-0.103990 52:2.111410 53:-1.047181 54:-0.390513 55:0.027307 56:-0.712165 57:1.804583 58:-0.496852 59:1.047491 60:-0.954250 61:-0.483133 62:0.135291 63:0.514181 64:-1.413761 65:1.689552 66:-1.631335 67:0.467860 68:0.707795 69:0.033483 70:-0.604649
-1 1:-0.874143 2:-0.659918 3:-0.023125 4:-0.137760 5:-0.957942 6:0.175777 7:0.629075 8:-0.381475 9:-0.909082 10:2.496830 11:0.227752 12:-1.204617 13:0.965243 14:-0.261025 15:-1.511451 16:0.147700 17:1.062405 18:-2.051926 19:2.556440 20:-0.478254 21:0.546253 22:0.960558 23:1.076934 24:0.253079 25:-1.443522 26:-0.819635 27:-1.458829 28:-1.249817 29:0.290052 30:0.143137 31:0.347434 32:-0.394575 33:-0.481499 34:-1.076603 35:0.632426 36:0.484968 37:0.433586 38:-0.822153 39:-0.908299 40:-1.134950 41:-0.755908 42:-1.133358 43:-2.016768 44:-1.225920 45:-0.726010 46:0.254812 47:-2.591554 48:-0.497349 49:0.847149 50:-0.863754 51:0.208102 52:-1.735410 53:-0.067944 54:-1.335758 55:-0.804926 56:-0.273135 57:0.222836 58:1.380754 59:-0.820425 60:1.357915 61:2.561873 62:2.446655 63:-0.938758 64:1.078173 65:1.769089 66:0.553876 67:2.994846 68:-1.548317 69:0.275192 70:-0.821733
-1 1:-0.100818 2:0.034774 3:0.229817 4:1.153899 5:1.088732 6:0.288088 7:0.392403 8:1.732793 9:-1.410123 10:-0.846696 11:-1.499171 12:-1.076745 13:1.276517 14:0.498600 15:-1.313542 16:0.874502 17:-1.048433 18:-0.010914 19:0.444096 20:-0.213438 21:-0.650504 22:-0.810230 23:-0.026991 24:0.318191 25:-1.112842 26:0.066514 27:1.595845 28:-1.723247 29:1.332842 30:0.508758 31:-0.644736 32:0.375702 33:0.872729 34:0.704950 35:2.858940 36:-1.100325 37:-0.231268 38:-0.101327 39:-0.780196 40:0.855669 41:1.172298 42:-0.870919 43:1.218396 44:-0.807850 45:0.518854 46:2.044173 47:0.327367 48:-1.639176 49:0.318108 50:-0.518731 51:0.151004 52:-0.835945 53:-0.761766 54:0.600615 55:-0.225685 56:-0.483952 57:-1.195992 58:-1.857655 59:1.165545 60:0.254246 61:-1.619034 62:1.118318 63:-2.129447 64:-0.361305 65:0.908467 66:-0.357358 67:-1.773787 68:0.230355 69:1.982965 70:-2.126138
-1 1:-0.147745 2:-0.512493 3:-1.786401 4:-1.617364 5:0.294263 6:1.255895 7:1.456397 8:-1.654064 9:0.796268 10:0.359927 11:1.527299 12:1.545189 13:-0.385317 14:0.925904 15:-0.465171 16:-0.781556 17:1.191853 18:-1.044696 19:-0.874600 20:0.922353 21:-2.204500 22:1.187341 23:-1.395719 24:-0.332960 25:0.498800 26:1.493127 27:0.125653 28:0.023134 29:0.488770 30:-0.933853 31:-1.115649 32:1.703367 33:0.247251 34:-0.946394 35:-1.326424 36:1.066378 37:1.291498 38:0.152305 39:-0.734471 40:0.186978 41:0.360270 42:0.750093 43:1.886683 44:0.091558 45:-0.037659 46:-0.043641 47:-0.246747 48:-1.886385 49:-0.639434 50:-0.762940 51:0.461851 52:-1.144046 53:-0.010061 54:0.086124 55:-0.132004 56:0.090252 57:-2.660324 58:0.072893 59:-0.710997 60:0.974411 61:-1.183749 62:1.048252 63:0.976906 64:-1.289734 65:0.507746 66:0.519402 67:0.295452 68:-0.328768 69:3.541570 70:-0.579175
-1 1:1.784515 2:-2.143778 3:-2.792982 4:0.745745 5:-2.558345 6:0.565404 7:0.574677 8:0.855398 9:-0.067098 10:0.784792 11:-0.136601 12:1.298941 13:1.525651 14:-0.559612 15:0.164701 16:-1.502758 17:1.082998 18:0.874587 19:-0.067068 20:-0.279832 21:-0.569595 22:0.457762 23:-1.694254 24:-0.632536 25:-0.308038 26:-0.018035 27:-2.077178 28:1.356107 29:-1.689909 30:0.537925 31:-0.345399 32:1.142709 33:-1.722059 34:1.378097 35:1.531559 36:-0.044807 37:1.037878 38:-0.011987 39:-1.009782 40:-1.557861 41:1.780912 42:0.460576 43:0.020723 44:-1.404405 45:-0.388519 46:0.215045 47:-1.273989 48:-0.355577 49:0.861227 50:0.953385 51:-0.587861 52:1.163966 53:-0.319546 54:1.322177 55:0.174832 56:0.989089 57:0.979536 58:-1.774764 59:-0.147086 60:-0.726538 61:0.312991 62:0.996499 63:-0.285432 64:-0.922955 65:-0.495116 66:0.291018 67:-1.266670 68:1.574971 69:0.971267 70:-0.413634
-1 1:0.766552 2:0.167495 3:1.260387 4:1.053730 5:1.277420 6:0.509620 7:-0.066670 8:-0.364534 9:1.813459 10:-0.392248 11:1.902708 12:0.702157 13:0.764553 14:-0.615665 15:-0.478736 16:-1.168425 17:0.380400 18:-0.151414 19:-0.846416 20:-1.226101 21:-1.215091 22:-0.810807 23:0.346559 24:-1.550678 25:-0.657834 26:0.062312 27:-0.210575 28:-1.981689 29:-0.900148 30:-0.453271 31:0.071786 32:-0.695187 33:0.348731 34:0.892831 35:0.814168 36:-1.198641 37:2.511785 38:1.449935 39:-2.750032 40:-0.343481 41:0.986923 42:2.119504 43:-1.141914 44:0.293884 45:-0.043652 46:-1.001595 47:-0.315750 48:-0.774401 49:0.016071 50:1.321304 51:-0.414649 52:0.623680 53:1.241803 54:-0.471050 55:0.641503 56:0.363429 57:-0.879520 58:0.517357 59:-0.374592 60:0.328945 61:-0.188665 62:0.001072 63:0.670579 64:-0.308363 65:-0.478252 66:-1.118038 67:-0.907388 68:1.569364 69:1.280652 70:-1.280321
-1 1:-0.980717 2:2.002292 3:-0.390432 4:1.561691 5:0.774921 6:1.190615 7:0.492718 8:0.358622 9:0.918023 10:0.227377 11:-0.764751 12:0.510936 13:1.059577 14:-0.520904 15:-0.963211 16:-0.426413 17:-0.830625 18:1.073676 19:-0.280486 20:0.107575 21:0.779425 22:-1.581267 23:-0.519293 24:-0.367058 25:-0.888066 26:-0.552081 27:-0.590900 28:0.059659 29:-1.170265 30:-0.151597 31:0.039820 32:0.305080 33:-0.541583 34:-0.784177 35:1.264813 36:-0.986201 37:2.065985 38:1.005894 39:-0.621580 40:0.181878 41:-1.181640 42:-0.049178 43:-0.399328 44:-0.237879 45:0.200248 46:0.105818 47:0.237651 48:-0.122937 49:-0.145920 50:-0.698699 51:-0.306241 52:-1.186641 53:-0.005438 54:1.220292 55:-0.245751 56:0.717565 57:1.233090 58:-0.432757 59:0.947422 60:0.379476 61:-1.300517 62:0.266386 63:0.465564 64:0.994901 65:-0.918186 66:-0.793523 67:-0.792695 68:-1.242745 69:0.065813 70:0.051938
-1 1:-1.023990 2:-2.196857 3:0.413112 4:0.278647 5:-0.652875 6:-1.222685 7:-0.340913 8:1.124179 9:-0.441150 10:0.687303 11:0.436409 12:0.394683 13:-0.465025 14:0.862004 15:1.864246 16:0.008614 17:1.170286 18:-0.506467 19:-0.926546 20:0.352484 21:0.183716 22:1.067650 23:-0.812384 24:0.606354 25:-0.507163 26:0.402569 27:0.464069 28:0.556253 29:-0.096653 30:1.066184 31:-0.974721 32:-0.078739 33:-0.785412 34:-1.027289 35:-1.552935 36:-1.272534 37:-0.719563 38:0.211692 39:1.620988 40:1.734975 41:-0.556573 42:-0.455268 43:1.818715 44:0.625830 45:-2.175633 46:-0.094543 47:0.310608 48:-0.034840 49:0.235202 50:0.554828 51:0.378900 52:-0.281155 53:0.217907 54:0.941904 55:-0.019942 56:-1.084105 57:-0.508366 58:1.103709 59:1.147768 60:-1.105235 61:0.074857 62:0.291702 63:-2.547261 64:-1.061113 65:-1.126481 66:-1.636731 67:-0.858268 68:0.142387 69:-0.852401 70:0.718207
-1 1:0.929278 2:-0.062690 3:-1.018606 4:2.251236 5:0.912145 6:-1.021402 7:0.049116 8:0.758213 9:0.143355 10:-0.522439 11:0.484547 12:-0.628549 13:-0.676423 14:2.071312 15:2.136084 16:1.396810 17:1.064157 18:0.801536 19:-1.484219 20:-1.674931 21:1.008671 22:1.608869 23:-1.151436 24:-0.706468 25:-0.169552 26:-1.108575 27:0.128480 28:-0.335258 29:0.197655 30:-0.195759 31:-0.067434 32:0.785169 33:-0.741048 34:-0.939859 35:-2.908600 36:-2.119606 37:0.361279 38:1.258008 39:2.500944 40:-0.734940 41:0.751570 42:-0.282928 43:-1.262009 44:1.918275 45:1.487905 46:-0.522512 47:-1.571239 48:1.447817 49:1.538826 50:0.368503 51:0.887391 52:-2.545996 53:-1.470577 54:-0.100333 55:-1.882109 56:-0.244052 57:1.881128 58:-0.482673 59:-0.063608 60:-2.614430 61:-1.711898 62:-2.304064 63:-0.498517 64:1.285146 65:0.219779 66:0.566435 67:0.513877 68:0.382577 69:-0.566449 70:0.960431
-1 1:1.505872 2:1.576536 3:0.066675 4:0.619934 5:-0.391507 6:-0.356549 7:0.434729 8:0.436891 9:0.778948 10:0.745861 11:0.293287 12:0.606509 13:0.686017 14:-0.466332 15:0.322693 16:-0.697053 17:-0.616632 18:0.649089 19:-0.072665 20:-1.882254 21:0.078768 22:-0.786864 23:-1.093805 24:-0.570333 25:-1.287509 26:-0.700465 27:-1.413392 28:-0.106524 29:0.156249 30:-1.168056 31:0.663418 32:0.136644 33:-0.770961 34:2.519569 35:-2.597204 36:-0.112930 37:0.684976 38:1.118774 39:-0.298191 40:0.533395 41:1.017246 42:0.721208 43:-1.502762 44:-1.710888 45:-1.633887 46:1.820882 47:0.865257 48:-1.143270 49:0.362389 50:2.027818 51:-0.934508 52:0.504675 53:1.271484 54:0.340313 55:0.200154 56:-0.511296 57:0.617790 58:-0.277920 59:0.714399 60:-1.173815 61:-0.203782 62:0.269704 63:-0.425931 64:0.133310 65:0.792071 66:1.178099 67:-0.608802 68:1.190838 69:-0.429962 70:-0.669952
-1 1:-0.469037 2:-0.651938 3:-0.013859 4:0.696862 5:1.079400 6:-0.656625 7:1.020760 8:1.174181 9:-0.530685 10:-0.763951 11:0.255011 12:1.388831 13:-1.551037 14:1.295757 15:-0.515538 16:1.148598 17:1.278415 18:-0.575993 19:0.450251 20:1.289001 21:0.736844 22:-1.131862 23:1.260310 24:0.299478 25:-0.779757 26:1.402122 27:-0.227813 28:1.090882 29:0.792536 30:0.320818 31:-1.147331 32:1.469363 33:1.560351 34:0.193570 35:-2.155861 36:0.380797 37:-0.079938 38:-0.194141 39:-1.545883 40:-0.276431 41:-0.272990 42:-0.188345 43:0.279201 44:-1.416027 45:0.469621 46:-0.533699 47:0.287566 48:-0.199194 49:0.121950 50:1.144269 51:-0.683833 52:0.078180 53:-0.694522 54:0.190388 55:0.677731 56:-0.256696 57:-1.259330 58:1.690070 59:0.318857 60:-0.072305 61:0.875346 62:-0.101089 63:1.262852 64:0.199437 65:-0.585793 66:-0.747798 67:-0.609357 68:-2.342417 69:-1.694467 70:0.687277
-1 1:-1.642193 2:0.029462 3:-0.234694 4:0.860246 5:-0.457276 6:1.822839 7:0.657941 8:-0.909337 9:-0.854409 10:0.077002 11:-1.780589 12:0.140864 13:-1.692449 14:-0.098522 15:-0.787689 16:-0.912948 17:1.031812 18:0.372361 19:-0.318657 20:1.244115 21:1.088690 22:0.485673 23:-0.953187 24:0.877293 25:1.943866 26:-0.468124 27:-1.260486 28:-0.375383 29:-0.008641 30:-0.796096 31:-1.034180 32:-2.161578 33:0.388471 34:0.219626 35:-1.113060 36:-1.563383 37:2.480797 38:-2.291801 39:0.428905 40:1.187103 41:0.214865 42:-1.162491 43:0.014491 44:0.432442 45:-1.556141 46:-0.627456 47:1.917565 48:-0.934924 49:0.182485 50:-1.359405 51:0.213317 52:0.038880 53:0.222706 54:-0.106510 55:0.481465 56:0.278778 57:0.076443 58:2.016575 59:-0.337200 60:0.348677 61:-0.298841 62:-1.760020 63:0.370517 64:-0.847639 65:1.363365 66:0.862821 67:-0.212207 68:-0.281607 69:-0.946256 70:-0.084452
-1 1:1.089880 2:0.984291 3:1.094909 4:0.463577 5:-0.208679 6:-1.486651 7:0.946661 8:-0.372723 9:-0.840974 10:0.224631 11:-0.673612 12:0.638054 13:-0.412921 14:-0.338600 15:-0.416031 16:-1.275274 17:-0.829423 18:1.022323 19:-1.389955 20:-1.175634 21:-0.532289 22:0.157408 23:0.502324 24:2.163962 25:-1.503884 26:0.476928 27:0.450150 28:0.331118 29:0.077507 30:1.031051 31:-1.035241 32:-0.705171 33:0.601848 34:-0.686586 35:-0.522751 36:-0.807435 37:0.039867 38:-0.123457 39:0.882559 40:-1.276747 41:1.039578 42:-1.000640 43:-0.650213 44:-1.581545 45:-0.367352 46:-1.638593 47:-1.312671 48:-0.320871 49:-0.017619 50:-0.084384 51:-0.431379 52:1.105431 53:1.295533 54:-0.765204 55:-1.744850 56:-0.494827 57:-1.965831 58:-0.160593 59:0.257338 60:0.473859 61:0.447908 62:1.503592 63:1.229883 64:0.305777 65:0.061916 66:0.453585 67:0.866175 68:0.528703 69:2.229967 70:-0.900324
-1 1:1.660922 2:1.336332 3:-0.360457 4:1.142379 5:1.193147 6:-1.183688 7:0.453456 8:1.459755 9:-1.781515 10:0.262925 11:-0.182211 12:0.380920 13:0.467290 14:0.453769 15:-2.360713 16:-1.024965 17:-0.414505 18:0.194064 19:0.896271 20:0.076300 21:-1.016246 22:1.254806 23:0.817275 24:-0.163546 25:-0.553769 26:-0.669842 27:0.326672 28:-1.674619 29:0.674982 30:-0.439011 31:1.208382 32:0.700522 33:1.523360 34:-1.688880 35:0.832366 36:0.173300 37:-0.015136 38:1.006362 39:-0.021044 40:-1.176586 41:-0.973022 42:0.252741 43:-0.278816 44:-0.503856 45:0.013702 46:-0.016304 47:1.080371 48:-1.041631 49:3.140487 50:1.669120 51:0.619906 52:-0.655703 53:-0.697430 54:0.851238 55:1.199206 56:1.068563 57:2.787288 58:1.582598 59:0.749427 60:-0.874629 61:-0.507461 62:-0.677334 63:-0.321919 64:1.551127 65:-1.056387 66:0.336968 67:-1.664324 68:1.297734 69:-0.652082 70:0.198350
-1 1:0.533851 2:0.891669 3:-1.485224 4:-0.202406 5:-2.195032 6:-0.682559 7:0.274601 8:0.235635 9:-0.390905 10:-1.005107 11:-1.358618 12:2.232008 13:-0.363247 14:1.133778 15:-1.667491 16:-0.276465 17:-0.094239 18:-2.417877 19:-0.303828 20:0.394057 21:1.745534 22:1.771314 23:1.803808 24:-0.367731 25:1.095352 26:1.047185 27:0.765077 28:0.670875 29:1.519777 30:-0.928305 31:-0.840609 32:0.377291 33:-1.335004 34:1.262071 35:1.375350 36:1.167850 37:0.786383 38:0.142313 39:-0.224252 40:-0.333605 41:0.487255 42:0.677542 43:0.023134 44:0.222975 45:0.593971 46:-2.037545 47:0.734192 48:-0.087744 49:-0.579176 50:0.259502 51:0.684827 52:-0.975225 53:-0.501832 54:-0.597061 55:1.280447 56:1.426753 57:-0.919331 58:-1.180024 59:1.061483 60:0.543146 61:0.583277 62:-0.242213 63:-0.914232 64:-1.572932 65:0.086972 66:1.119614 67:0.899612 68:0.755872 69:-0.022716 70:0.804148
-1 1:-0.080240 2:0.309730 3:0.560755 4:1.321357 5:0.187006 6:-0.050492 7:0.392138 8:0.715794 9:-1.450941 10:-1.516256 11:-1.271093 12:-0.375723 13:-1.899657 14:0.523961 15:0.645273 16:-0.494555 17:0.143006 18:-0.307268 19:1.633758 20:1.832182 21:0.304872 22:1.393366 23:-1.352858 24:-1.349514 25:-0.302689 26:0.331383 27:-0.303385 28:-0.157627 29:1.033349 30:0.222010 31:0.919813 32:-0.707472 33:-0.517853 34:-0.419950 35:0.439954 36:-0.045329 37:-0.568495 38:0.346496 39:-0.176199 40:-0.486531 41:0.543170 42:0.271226 43:0.955941 44:0.050442 45:0.276909 46:1.823029 47:0.704185 48:-0.458118 49:2.289337 50:0.153252 51:0.537933 52:-0.106984 53:1.955379 54:0.232114 55:-1.927255 56:0.017554 57:1.265784 58:-0.769601 59:-0.184640 60:0.425384 61:0.035294 62:-1.395926 63:-0.979174 64:0.151450 65:-0.420390 66:-0.454594 67:-0.199261 68:0.240215 69:-0.141982 70:0.677670
-1 1:-1.773047 2:-0.839066 3:-0.602351 4:0.109734 5:-0.411235 6:0.275151 7:0.921746 8:0.389657 9:0.085145 10:1.686390 11:-0.775213 12:-1.026540 13:-0.647171 14:0.373109 15:-0.412074 16:-1.047015 17:-1.100235 18:1.824606 19:1.505240 20:1.434679 21:-0.413489 22:0.621489 23:-0.370955 24:-0.179464 25:-0.131944 26:-0.924820 27:-0.999432 28:-0.646679 29:0.734172 30:0.610617 31:0.285295 32:-0.200776 33:1.224062 34:0.300690 35:0.186095 36:-0.753350 37:-0.040617 38:-1.386731 39:-0.178643 40:0.007421 41:0.697244 42:-2.097221 43:-1.545137 44:0.734879 45:1.003984 46:-0.090612 47:-0.689114 48:1.011806 49:0.651335 50:0.487269 51:-0.918243 52:0.331448 53:1.168882 54:-2.866094 55:-0.775376 56:-0.468461 57:1.272954 58:-0.386386 59:-0.523060 60:0.055343 61:0.293646 62:-0.923924 63:-1.365878 64:-1.468609 65:-0.571588 66:-0.547425 67:0.229829 68:-0.294568 69:1.446927 70:-0.022804
-1 1:-1.531630 2:1.270561 3:-0.182265 4:0.723920 5:1.587120 6:0.491450 7:-0.104633 8:-0.299119 9:0.462012 10:0.974999 11:0.211121 12:0.650081 13:0.595817 14:-0.267043 15:0.376241 16:0.150545 17:-1.478498 18:0.005436 19:-0.609335 20:1.894168 21:-0.782634 22:-0.227882 23:0.642362 24:-0.316524 25:0.676086 26:-1.433806 27:-2.227532 28:-1.354448 29:1.635038 30:-0.991222 31:-0.845746 32:0.494588 33:1.067026 34:-0.096683 35:1.184422 36:-2.597428 37:0.635547 38:-0.272129 39:1.168938 40:0.208405 41:1.171042 42:0.439687 43:-0.800501 44:-0.460239 45:1.771899 46:-1.314972 47:-0.111921 48:1.928440 49:-0.260084 50:0.887124 51:-1.823063 52:-0.106296 53:0.639047 54:-1.613013 55:-1.617376 56:2.124217 57:-0.975697 58:-0.573984 59:-0.135264 60:1.327365 61:0.747121 62:0.274463 63:-1.542994 64:0.288582 65:-0.475389 66:-0.401411 67:0.663872 68:-1.045520 69:-0.057553 70:-1.663872
-1 1:0.684777 2:0.502295 3:0.795441 4:0.368413 5:-0.190995 6:-0.068718 7:-0.982881 8:-0.324623 9:0.009401 10:-0.129812 11:-0.580286 12:0.788704 13:-1.028810 14:1.004711 15:1.006461 16:1.774784 17:-0.666045 18:-0.674216 19:0.543171 20:-1.534999 21:0.769023 22:-0.230345 23:0.423778 24:0.987413 25:-2.448734 26:0.807041 27:0.388798 28:-2.614821 29:-0.868474 30:-0.996829 31:-1.412898 32:2.484242 33:0.783210 34:0.614873 35:0.810230 36:-1.942831 37:0.018723 38:-0.728968 39:-0.336672 40:-0.475508 41:0.006268 42:1.566434 43:-0.591256 44:0.217925 45:0.763610 46:1.325514 47:-0.766513 48:-1.336401 49:1.717190 50:1.700545 51:-1.467073 52:-0.872210 53:0.286624 54:-1.179525 55:1.150951 56:-1.582163 57:-0.586658 58:1.525833 59:-1.837114 60:-0.223190 61:-1.362063 62:0.229077 63:0.347090 64:0.143813 65:-1.143506 66:-0.229944 67:-0.142455 68:-0.259629 69:0.328241 70:-0.957782
-1 1:-0.794521 2:-2.286062 3:2.711381 4:-1.582761 5:-0.238857 6:-0.459263 7:-0.211848 8:-1.436847 9:1.032336 10:-1.354785 11:0.552289 12:0.596386 13:-0.648665 14:-0.614699 15:1.254416 16:-0.651003 17:0.941913 18:-0.063502 19:-0.127968 20:-0.873959 21:-1.751381 22:0.590861 23:-0.879203 24:0.383780 25:0.170134 26:-0.859935 27:0.064255 28:1.703734 29:0.059964 30:-1.139480 31:0.487071 32:-0.228488 33:-0.292578 34:-0.152899 35:0.665344 36:-0.477736 37:0.226704 38:-1.461289 39:-1.887053 40:-0.433039 41:-0.686940 42:-0.372213 43:-0.416300 44:-0.015452 45:-1.033181 46:0.774113 47:1.110859 48:-1.471572 49:-0.107934 50:-0.373894 51:2.821760 52:-0.293970 53:1.105766 54:-1.004196 55:1.568015 56:0.861443 57:-0.218853 58:0.090192 59:0.010471 60:0.354881 61:-0.487727 62:0.567999 63:0.690248 64:-2.288087 65:-0.720772 66:-0.520831 67:-1.533492 68:-0.855733 69:-0.752483 70:0.025205
-1 1:0.663122 2:1.143029 3:0.758480 4:-0.843693 5:-0.849149 6:-1.132797 7:1.028580 8:-1.400245 9:1.290070 10:0.122973 11:-0.022631 12:-1.597529 13:0.707676 14:-1.189814 15:1.088651 16:-0.722106 17:0.041340 18:0.012266 19:-1.432869 20:1.756203 21:-2.211996 22:0.350987 23:1.093203 24:-1.303926 25:-1.368629 26:-0.056828 27:-1.087904 28:0.235323 29:-0.377858 30:-0.766935 31:-0.307740 32:-0.074654 33:-1.078521 34:-0.019570 35:-0.514678 36:0.025772 37:0.749146 38:-2.434360 39:0.290130 40:-0.332269 41:1.235854 42:0.798810 43:-0.711433 44:0.419574 45:-0.153823 46:1.412360 47:0.952577 48:-0.543108 49:0.887065 50:-0.042964 51:0.238425 52:-0.527454 53:1.342797 54:-0.523383 55:0.625041 56:0.403219 57:-2.234836 58:-0.680872 59:-0.211618 60:-1.083873 61:-0.505531 62:-0.349497 63:-1.003905 64:1.015986 65:-1.789344 66:0.156861 67:0.983372 68:-0.464874 69:1.225527 70:-0.058002
-1 1:0.428539 2:-2.261507 3:-0.464627 4:0.324046 5:0.738993 6:1.016736 7:-0.774013 8:0.338605 9:-0.180644 10:0.413831 11:-0.720816 12:0.153293 13:-0.422474 14:-0.127328 15:1.468103 16:-0.195125 17:-0.364959 18:0.475795 19:-0.764421 20:-1.879347 21:0.272835 22:-0.985435 23:-0.778165 24:0.242143 25:0.291751 26:0.392075 27:-1.238488 28:0.721482 29:-1.247415 30:-1.367039 31:0.214206 32:0.392956 33:0.979681 34:-0.406977 35:-0.123917 36:0.893512 37:0.410845 38:-0.591229 39:0.942565 40:-0.882839 41:-0.794962 42:-0.454125 43:2.475063 44:-0.428453 45:0.918723 46:0.987599 47:-0.323387 48:1.933926 49:1.767333 50:-0.091910 51:1.632848 52:1.017783 53:-0.605905 54:2.300228 55:0.651482 56:-0.801966 57:0.665078 58:0.715676 59:-0.127973 60:-1.129044 61:-0.351332 62:0.267738 63:-0.035551 64:-0.495342 65:-1.820911 66:0.721780 67:-0.093899 68:1.016583 69:-0.104804 70:-0.710755
-1 1:0.772793 2:0.115462 3:-0.716141 4:1.134866 5:1.251620 6:0.886818 7:0.921311 8:0.568818 9:0.866626 10:0.419362 11:-0.265068 12:-2.480316 13:-0.404464 14:-0.282371 15:0.379738 16:-2.010291 17:-0.145915 18:0.929448 19:0.806723 20:-0.613726 21:1.307718 22:-1.542831 23:-0.756700 24:0.772952 25:-0.117982 26:1.209609 27:-0.122564 28:0.914725 29:-0.229954 30:-0.261769 31:0.096289 32:-0.042971 33:0.161384 34:0.331394 35:-0.246566 36:-1.660529 37:-0.684113 38:1.138122 39:-1.956111 40:-0.700461 41:1.281402 42:-0.372638 43:0.158482 44:-0.759020 45:0.052313 46:1.956777 47:0.578847 48:0.806487 49:-0.765974 50:-1.513876 51:-1.187183 52:-0.654757 53:-0.373064 54:0.651894 55:-0.386465 56:-1.761706 57:1.094535 58:-0.501497 59:-1.170381 60:2.061473 61:0.728012 62:-0.508010 63:-0.136393 64:1.775864 65:0.552687 66:0.339963 67:-0.482000 68:-0.745213 69:1.378374 70:0.262031
-1 1:0.714049 2:-2.043074 3:1.162483 4:0.107886 5:1.085480 6:0.827474 7:-1.911117 8:-0.582316 9:-0.239274 10:-0.390898 11:0.481304 12:-1.663062 13:-1.275707 14:0.487947 15:1.641766 16:-0.502729 17:1.022576 18:-0.160513 19:-0.796376 20:1.038403 21:-0.782430 22:0.408459 23:-0.292306 24:-0.705810 25:1.098810 26:0.002065 27:-0.366605 28:-0.034217 29:0.777607 30:0.831161 31:-0.167020 32:-1.610849 33:2.008228 34:1.007861 35:-0.661798 36:1.165613 37:-1.396075 38:-1.309461 39:0.526973 40:-1.122634 41:-0.369245 42:1.542619 43:-0.513827 44:0.971595 45:0.434834 46:0.661720 47:0.874600 48:1.226704 49:0.651874 50:0.967763 51:0.700904 52:-1.213282 53:-0.916864 54:0.035115 55:-0.280934 56:0.259542 57:-1.423481 58:0.481514 59:0.912157 60:0.951763 61:0.458688 62:0.738797 63:-0.317284 64:-1.283148 65:-0.844424 66:0.642729 67:-0.533266 68:-1.695244 69:0.777983 70:-0.222329
-1 1:-1.012680 2:-1.277680 3:0.902443 4:-1.044057 5:-0.002950 6:0.358035 7:0.311826 8:-0.050986 9:-0.870111 10:0.400963 11:-0.268097 12:-0.814072 13:-1.073457 14:0.264097 15:0.660493 16:-0.540989 17:0.198699 18:-0.400681 19:0.673557 20:0.315991 21:-1.458591 22:0.506806 23:1.151607 24:0.450233 25:1.090548 26:1.477760 27:-0.702688 28:-0.444761 29:-2.063067 30:-0.459731 31:-0.331422 32:-0.048046 33:1.522267 34:2.180984 35:0.136625 36:1.286144 37:-0.175558 38:-2.096549 39:-1.130506 40:-0.779846 41:0.221714 42:-0.292812 43:0.647900 44:0.625246 45:0.408339 46:-1.437045 47:0.090469 48:-0.192812 49:-2.217672 50:0.938014 51:0.882445 52:1.313727 53:-0.095142 54:0.225592 55:1.121598 56:-0.077062 57:0.379385 58:-2.581568 59:-1.169398 60:-0.266883 61:1.209982 62:-0.533175 63:-0.157339 64:0.033736 65:-0.087516 66:-1.729957 67:-0.208813 68:1.040287 69:0.164934 70:0.225043
-1 1:1.363520 2:0.276482 3:1.510003 4:0.368102 5:-0.490610 6:-0.230929 7:-0.229925 8:-0.027038 9:1.825146 10:-0.081576 11:-0.124403 12:1.513874 13:0.565719 14:1.986764 15:-1.108637 16:0.547762 17:-0.138538 18:-0.131282 19:-0.363216 20:0.113843 21:-1.473327 22:0.525572 23:1.168627 24:0.171177 25:-0.931706 26:1.122892 27:-0.562600 28:0.099985 29:-0.424609 30:-0.826915 31:0.452194 32:1.721142 33:-0.317073 34:1.497528 35:-0.257724 36:3.113723 37:0.814806 38:0.364745 39:2.166190 40:1.136726 41:-0.981127 42:0.592757 43:-1.083826 44:2.001921 45:-0.324470 46:-0.891976 47:-0.516029 48:0.634317 49:-1.003756 50:-0.389566 51:-0.238826 52:-0.736044 53:0.014729 54:0.127914 55:0.628718 56:0.180410 57:-0.181373 58:0.723419 59:0.720403 60:-1.191480 61:0.638650 62:-0.523263 63:0.071520 64:-0.997577 65:-0.686195 66:2.188754 67:-0.429492 68:0.276644 69:-0.939729 70:-1.042319
-1 1:0.574667 2:0.407389 3:1.473223 4:0.840126 5:-0.100676 6:-0.523765 7:0.702536 8:0.626835 9:1.801585 10:-0.560727 11:2.515591 12:-0.018324 13:0.556098 14:-1.197493 15:-0.776204 16:-1.439779 17:0.569116 18:0.693986 19:-0.995089 20:0.319648 21:-0.439816 22:-0.561247 23:-0.299449 24:0.400133 25:-0.697254 26:-0.411491 27:0.148162 28:0.241278 29:0.866949 30:0.029025 31:-0.834064 32:-0.188857 33:0.238134 34:0.165874 35:1.578444 36:0.795694 37:0.636828 38:0.363362 39:0.877568 40:0.281408 41:1.222156 42:2.141152 43:0.331021 44:-0.075468 45:1.691284 46:-0.708083 47:0.691223 48:-1.597524 49:0.067453 50:-1.837153 51:2.095952 52:-2.583674 53:-0.312850 54:-1.497480 55:-0.491699 56:-0.575323 57:0.271208 58:-1.260267 59:-0.277612 60:-2.469690 61:-0.580161 62:0.354478 63:3.576796 64:1.310141 65:0.091246 66:-0.467769 67:-0.595041 68:2.111344 69:0.302319 70:0.514629
-1 1:-0.352566 2:-0.470201 3:-1.178163 4:-0.089848 5:1.351781 6:-0.876293 7:-1.130909 8:-1.688552 9:-0.358930 10:1.637520 11:-0.540570 12:-0.992543 13:-0.321787 14:-0.180057 15:-1.415661 16:0.555869 17:-0.323260 18:-0.344935 19:0.812454 20:-0.864301 21:-0.444037 22:-0.617373 23:-0.023758 24:0.588163 25:-0.794947 26:0.434526 27:-0.046182 28:0.122853 29:-2.171124 30:1.153506 31:-0.977221 32:0.213458 33:-0.207922 34:0.337069 35:-0.017296 36:-0.415969 37:-0.560663 38:0.296886 39:1.026751 40:0.046386 41:0.133635 42:-0.277789 43:1.018069 44:-0.270690 45:0.173737 46:0.519497 47:-0.470094 48:0.964854 49:-0.123122 50:0.216374 51:-0.529706 52:-1.196615 53:1.054683 54:1.377144 55:-0.958624 56:0.947348 57:0.187185 58:0.283814 59:-0.596077 60:-0.231451 61:0.386891 62:1.217772 63:-0.609899 64:-1.344590 65:-0.202560 66:2.817291 67:0.458686 68:-0.904474 69:-1.120817 70:0.362259
-1 1:-1.341902 2:2.309512 3:-1.427178 4:0.746695 5:0.476155 6:-0.150625 7:-1.655060 8:-0.027002 9:0.686974 10:-0.294511 11:0.717389 12:1.267442 13:2.193497 14:2.165918 15:0.733365 16:0.396061 17:0.503611 18:1.113884 19:0.928558 20:-1.333661 21:1.945243 22:-0.404910 23:0.351561 24:-0.013724 25:1.038367 26:-1.772599 27:0.020404 28:0.086915 29:1.021493 30:-0.779884 31:1.230787 32:-1.201047 33:2.084102 34:0.222215 35:0.093102 36:-2.029990 37:-1.478530 38:-0.942561 39:0.855222 40:-1.019654 41:-0.615760 42:-0.821063 43:1.006195 44:-0.684089 45:0.169312 46:-0.821800 47:-1.356883 48:1.678225 49:1.488345 50:-1.356900 51:0.146905 52:-1.405980 53:0.669563 54:1.042978 55:-0.029277 56:-1.692295 57:-0.679655 58:-0.856437 59:0.717122 60:0.943429 61:-0.452857 62:0.119250 63:1.271259 64:-2.080373 65:-3.262639 66:-0.137778 67:1.271217 68:-0.272962 69:-0.486935 70:-0.178515
-1 1:-1.261967 2:0.249248 3:0.853489 4:0.389312 5:-0.038017 6:0.450031 7:-1.750710 8:0.434370 9:1.615625 10:1.020125 11:-1.095729 12:-0.039401 13:0.649881 14:-0.232604 15:-0.845605 16:1.862417 17:2.010935 18:-0.415598 19:-1.571510 20:-0.205814 21:1.481340 22:-0.348270 23:-2.146787 24:1.565412 25:0.663005 26:-1.440996 27:0.617355 28:-0.648918 29:0.625340 30:0.812496 31:1.777747 32:0.576782 33:-0.269556 34:1.270181 35:-0.332201 36:1.056848 37:0.500097 38:-0.137043 39:-1.532060 40:1.073149 41:-0.388204 42:-0.192661 43:-2.293769 44:1.485823 45:0.350827 46:1.908371 47:-0.076066 48:-0.430924 49:0.675040 50:0.512990 51:0.395839 52:-0.015017 53:-0.894766 54:-0.617188 55:-0.466076 56:0.398077 57:-0.052549 58:0.151542 59:-0.158478 60:-0.285577 61:1.018648 62:0.648661 63:-0.155016 64:0.443828 65:-0.957367 66:-0.079448 67:1.011259 68:-0.957890 69:1.541982 70:-0.125785
-1 1:-0.598629 2:-2.743871 3:0.229634 4:-0.364827 5:0.202411 6:1.787052 7:-0.770102 8:0.339641 9:-1.107024 10:0.366116 11:0.890771 12:2.121422 13:-0.527444 14:-0.707710 15:-0.262971 16:-0.677795 17:-0.992376 18:1.003036 19:-1.284133 20:0.214922 21:-0.034107 22:0.967678 23:-0.541235 24:0.411698 25:-0.645719 26:-0.774627 27:0.376802 28:1.091948 29:0.945164 30:0.352039 31:-0.450196 32:0.709220 33:0.262212 34:0.568438 35:-0.328825 36:-1.377597 37:-1.232074 38:0.722902 39:1.189925 40:0.622016 41:-0.438892 42:-2.396210 43:-0.934872 44:1.020719 45:0.088824 46:-0.158117 47:-0.164763 48:0.538434 49:-0.443862 50:0.690673 51:1.273354 52:-0.260875 53:-1.206482 54:-0.847042 55:1.508493 56:-0.810295 57:0.222774 58:2.051802 59:-1.487567 60:1.762226 61:1.739957 62:0.591059 63:-1.401864 64:-1.457230 65:0.350145 66:-0.289340 67:0.414100 68:-0.197155 69:-0.886979 70:-0.446843
-1 1:-0.572041 2:0.213552 3:-0.432848 4:-0.214984 5:-0.577739 6:1.561972 7:-2.263991 8:1.671809 9:1.219695 10:-2.106448 11:0.816582 12:-1.510572 13:-0.311158 14:0.327459 15:-0.815827 16:0.152028 17:-0.246089 18:1.145926 19:-0.466785 20:1.187478 21:-0.147527 22:1.082970 23:-0.237543 24:-0.822404 25:-0.518247 26:0.540051 27:0.001248 28:1.010936 29:0.582141 30:0.978604 31:-2.446195 32:0.778108 33:-0.582407 34:-0.118932 35:-0.778816 36:2.060978 37:-0.042080 38:1.462642 39:-0.559167 40:-0.065732 41:-0.327493 42:-0.673148 43:0.176339 44:0.043642 45:-1.201416 46:-1.570559 47:1.031558 48:0.675757 49:-0.849541 50:-1.160594 51:0.537782 52:-0.138386 53:0.421041 54:-0.901960 55:-0.026052 56:-0.488204 57:0.138620 58:0.597037 59:-0.016331 60:-0.664666 61:-1.434491 62:-0.103705 63:-1.081001 64:0.745315 65:-0.759511 66:-0.865131 67:0.001120 68:0.174341 69:0.784865 70:-0.591627
-1 1:0.184468 2:1.133105 3:0.925325 4:0.263777 5:-1.080948 6:-0.899412 7:0.144786 8:-0.297743 9:0.562198 10:-1.505205 11:-0.407271 12:-2.117663 13:0.732538 14:-0.893331 15:0.096271 16:-0.103512 17:0.239739 18:0.165410 19:-0.935510 20:-0.664687 21:0.258869 22:-0.723375 23:0.385887 24:0.227064 25:0.801531 26:1.770646 27:0.201120 28:-0.800430 29:-1.513490 30:0.102472 31:-0.220532 32:1.166776 33:0.577588 34:-0.637859 35:2.003555 36:-1.167009 37:1.474022 38:0.861861 39:0.601032 40:-0.096135 41:2.327584 42:1.003094 43:-0.757193 44:0.736055 45:-1.424185 46:1.883717 47:0.357134 48:-1.189396 49:1.573798 50:2.237258 51:0.973893 52:0.423430 53:-3.739110 54:-0.271007 55:-0.661902 56:0.773480 57:-0.431340 58:2.005649 59:-0.625963 60:0.066598 61:-1.120722 62:-0.652227 63:0.901172 64:-0.486256 65:-1.547517 66:0.633591 67:0.347138 68:0.153018 69:0.362605 70:-1.312532
-1 1:0.402249 2:0.121246 3:-1.052143 4:-0.619682 5:-0.953527 6:-1.083978 7:-1.363230 8:-1.141301 9:-1.101246 10:-0.734249 11:-1.334377 12:-0.025143 13:-0.146951 14:2.050493 15:-0.748350 16:0.589387 17:0.084061 18:0.345701 19:-0.964285 20:0.344760 21:-0.741930 22:-0.756246 23:-1.694990 24:0.274095 25:-0.441635 26:-2.596021 27:-1.097678 28:0.597221 29:0.858862 30:-0.128951 31:-0.544063 32:0.580594 33:-0.337320 34:-1.524239 35:-1.155355 36:-0.692688 37:-0.612873 38:0.227589 39:-0.001767 40:-0.454699 41:0.347199 42:0.365804 43:0.340287 44:-0.722251 45:0.266073 46:0.738460 47:-0.695360 48:0.775615 49:0.988911 50:1.067961 51:-0.126977 52:0.291002 53:0.238776 54:-0.541001 55:-0.103175 56:-0.909036 57:1.092433 58:1.279530 59:0.474565 60:0.933343 61:1.879615 62:-1.658262 63:-0.004254 64:0.566393 65:-0.737062 66:-0.328948 67:-0.127842 68:-0.699528 69:-3.216718 70:-0.414072
-1 1:-0.079716 2:-1.403455 3:-0.002647 4:0.186528 5:-0.062681 6:0.365660 7:-0.795121 8:0.228597 9:-0.201397 10:0.238465 11:-1.023020 12:0.043228 13:1.263325 14:-0.584533 15:0.929623 16:0.784783 17:0.730653 18:0.072056 19:0.644274 20:-0.004355 21:-0.486656 22:0.139209 23:1.728653 24:1.094338 25:-0.347126 26:-1.597142 27:1.434530 28:-0.055891 29:1.780536 30:2.005615 31:0.386899 32:1.125847 33:-1.275206 34:1.115357 35:-0.542284 36:-1.929906 37:-1.644978 38:0.288888 39:-2.092721 40:-0.776099 41:-0.089028 42:-0.169691 43:-0.900933 44:-0.658968 45:1.831528 46:0.407747 47:-0.843453 48:-0.199600 49:-1.021228 50:-1.076890 51:-0.111637 52:0.548472 53:1.407880 54:0.547839 55:-0.055751 56:-0.885729 57:0.005198 58:-1.187332 59:-1.795729 60:0.677554 61:1.709135 62:2.404173 63:-1.049899 64:0.209982 65:-0.718633 66:-2.207991 67:0.340233 68:-0.360140 69:0.887326 70:-0.965443
-1 1:-0.394289 2:-0.223988 3:-1.224441 4:-0.128359 5:0.016264 6:1.476792 7:-0.032427 8:0.172380 9:-0.103417 10:0.325385 11:-0.577133 12:-0.334841 13:0.814943 14:-1.749849 15:-1.969353 16:-1.646198 17:-0.848331 18:-1.773786 19:1.058086 20:-0.264482 21:-1.083554 22:0.405435 23:-0.625947 24:-0.577467 25:0.100910 26:-0.238641 27:0.139463 28:1.159519 29:-0.031562 30:-0.727027 31:-1.674954 32:-0.625337 33:-0.372502 34:-0.116142 35:0.014260 36:0.895557 37:0.418929 38:0.764155 39:0.205753 40:0.862366 41:0.967964 42:1.424651 43:1.264008 44:-1.454910 45:1.666438 46:-0.645456 47:-0.152065 48:-0.641045 49:0.782757 50:-0.806133 51:0.964511 52:0.464574 53:2.598302 54:0.970332 55:-1.102591 56:1.899257 57:1.212550 58:-1.041591 59:-0.633548 60:0.983530 61:0.324026 62:-0.835108 63:-1.650066 64:-0.510431 65:1.345156 66:1.074696 67:1.091959 68:-0.492275 69:0.208279 70:-0.769890
-1 1:-1.078667 2:-0.512551 3:0.467287 4:-0.352636 5:0.016245 6:1.813512 7:1.359008 8:-0.815193 9:0.588069 10:0.970158 11:-0.285052 12:-0.789105 13:1.643724 14:-0.745700 15:0.122170 16:-2.110661 17:1.797989 18:-0.964840 19:0.069281 20:0.467451 21:-1.691358 22:-1.102918 23:0.819107 24:-1.598219 25:-0.889747 26:0.212733 27:0.874896 28:-0.977993 29:1.153445 30:0.276967 31:-1.601665 32:-1.162230 33:-2.097050 34:1.248807 35:0.419515 36:1.464990 37:-0.780964 38:-1.631523 39:-0.623292 40:-1.254045 41:-1.142461 42:0.329792 43:-1.462789 44:0.440601 45:-0.469395 46:0.724289 47:-0.615140 48:0.116799 49:0.399898 50:-2.389185 51:0.500311 52:0.975493 53:-1.353237 54:0.065363 55:-2.115113 56:-1.274664 57:0.439865 58:1.107022 59:-0.389071 60:-1.006768 61:0.090277 62:0.800929 63:-0.519946 64:-1.469229 65:-0.409440 66:-0.614819 67:0.972202 68:0.944738 69:-0.176985 70:-0.422505
-1 1:-1.725475 2:1.431880 3:-0.448405 4:-1.036229 5:0.296622 6:-1.024366 7:0.225802 8:-1.262665 9:0.911508 10:-0.901266 11:-0.677428 12:-0.622075 13:0.711768 14:0.977511 15:0.096278 16:0.316723 17:-0.975139 18:-1.547110 19:1.380758 20:-2.168440 21:0.968262 22:0.954345 23:0.030637 24:-0.277590 25:-0.728354 26:0.586431 27:0.541281 28:-0.540984 29:-0.194320 30:2.196825 31:0.223656 32:0.166338 33:0.257531 34:-1.533885 35:-1.137715 36:0.970877 37:0.092970 38:0.073516 39:-1.448015 40:1.280781 41:1.718214 42:-0.647838 43:1.868293 44:0.791680 45:1.984952 46:-0.152514 47:-0.097034 48:0.186923 49:-0.520535 50:-1.204816 51:1.204191 52:-0.301036 53:0.029945 54:-0.738459 55:-0.101623 56:0.360479 57:-0.953667 58:-1.622751 59:0.603503 60:-1.103535 61:0.549121 62:-0.761281 63:-0.584887 64:0.645083 65:-0.174690 66:-0.049252 67:0.726542 68:0.191328 69:-0.892392 70:0.549959
-1 1:-1.423362 2:0.445581 3:1.815714 4:1.567479 5:1.901587 6:-0.358155 7:-0.350952 8:1.230906 9:0.281935 10:-0.147271 11:0.745143 12:1.127443 13:-1.079530 14:1.177788 15:0.095338 16:0.701732 17:0.409966 18:-1.855789 19:0.228386 20:-0.296940 21:0.514911 22:0.601167 23:-1.249619 24:-0.620900 25:-0.330366 26:1.953208 27:-0.503983 28:-0.472241 29:0.468024 30:0.987661 31:2.644682 32:0.196033 33:0.641894 34:-0.026668 35:-0.100466 36:0.544093 37:-1.496256 38:-1.182673 39:-0.920298 40:0.438987 41:1.451256 42:-0.724185 43:0.505004 44:-0.562355 45:-0.401574 46:-2.628549 47:-0.489328 48:-1.240844 49:-0.855067 50:0.066185 51:1.748163 52:-0.977447 53:-0.507964 54:-0.715097 55:-0.494496 56:-0.283177 57:-2.168981 58:-0.029011 59:1.080501 60:-0.474915 61:-0.271957 62:-0.154130 63:1.464187 64:0.228406 65:-0.839484 66:-1.099496 67:-0.990090 68:-0.387012 69:0.631290 70:-0.978853
-1 1:-2.176620 2:1.141067 3:0.621709 4:1.076974 5:0.417252 6:1.116879 7:0.874998 8:-0.221010 9:-0.418565 10:0.206645 11:-0.301526 12:1.717636 13:-0.097812 14:-1.001444 15:0.133562 16:-0.364837 17:-0.660904 18:-0.698652 19:-0.966444 20:0.768660 21:1.332870 22:1.454772 23:0.648209 24:-0.308083 25:0.234888 26:-0.745462 27:0.019195 28:1.549859 29:-0.423626 30:1.185151 31:0.124704 32:-0.089776 33:-0.956558 34:1.433010 35:0.681249 36:0.128828 37:-1.412169 38:-0.700002 39:0.556896 40:-1.290161 41:-1.486517 42:0.648661 43:-0.005330 44:0.683954 45:-1.209093 46:-1.060955 47:-1.120165 48:0.239088 49:0.107498 50:1.584905 51:0.438370 52:-1.043034 53:0.047952 54:-0.199604 55:0.081537 56:-0.694997 57:-0.559532 58:1.976130 59:-0.752786 60:-0.235203 61:-0.382033 62:-1.809291 63:-1.217985 64:-0.920984 65:-0.486100 66:1.111943 67:-0.724046 68:-3.277914 69:-1.348704 70:1.645700
-1 1:0.570764 2:1.555073 3:0.719681 4:0.688200 5:0.048348 6:0.762154 7:0.333982 8:0.117149 9:0.221322 10:-0.801980 11:-0.797082 12:-0.614930 13:-0.177309 14:-1.152664 15:1.263473 16:0.014257 17:0.434913 18:0.084454 19:-1.392919 20:1.149408 21:2.106379 22:-0.616445 23:0.655799 24:-0.772053 25:-2.218209 26:-0.708873 27:1.001133 28:-0.257516 29:1.674542 30:0.815796 31:-0.873589 32:-1.517260 33:-1.453138 34:-0.947914 35:-1.037985 36:-0.364627 37:-0.619527 38:-0.754790 39:1.661506 40:-1.797453 41:-0.041817 42:-0.467844 43:-0.168619 44:0.497077 45:0.002363 46:-0.678013 47:0.755979 48:0.353015 49:0.145993 50:-1.708570 51:-0.166650 52:-0.608157 53:0.101657 54:0.997312 55:0.190927 56:-2.548656 57:-1.069439 58:1.136352 59:1.507488 60:-1.379591 61:0.188992 62:-1.681888 63:0.406534 64:-0.930472 65:1.454101 66:-0.989981 67:0.489952 68:1.565137 69:-0.928143 70:0.695769
-1 1:0.021973 2:-0.278156 3:0.590138 4:-1.556035 5:1.060944 6:0.616371 7:1.382733 8:2.006949 9:1.739959 10:0.646859 11:1.254077 12:1.655751 13:0.414344 14:1.070380 15:-0.601970 16:2.189294 17:-0.292935 18:-0.894979 19:0.764254 20:-0.718441 21:-0.174764 22:1.419092 23:-0.970275 24:-1.718237 25:-0.978423 26:-0.630391 27:1.644749 28:0.567738 29:0.151241 30:1.562405 31:-0.245399 32:-0.132605 33:1.323315 34:0.344928 35:-0.203696 36:-0.806664 37:-2.036696 38:0.472966 39:1.150716 40:0.422865 41:-1.168442 42:0.119641 43:2.949274 44:-0.586796 45:-0.410279 46:-0.351297 47:-1.023679 48:-0.946468 49:0.852428 50:0.940928 51:-0.561930 52:0.697214 53:-0.338656 54:-0.177942 55:-2.029641 56:1.562040 57:1.567930 58:-2.165321 59:1.659614 60:0.399790 61:0.218280 62:0.356813 63:0.391959 64:2.151232 65:-0.238115 66:0.039142 67:-1.946379 68:0.970831 69:-0.661366 70:-2.213340
-1 1:-1.879192 2:-1.990183 3:1.517803 4:1.155624 5:-1.146681 6:-0.443983 7:0.931622 8:0.030612 9:0.747549 10:0.263083 11:-0.597091 12:0.723254 13:-0.420351 14:0.895504 15:0.907558 16:0.879489 17:-0.748697 18:0.150685 19:0.779010 20:-0.676647 21:0.567383 22:-0.705139 23:0.185012 24:1.395234 25:1.100827 26:0.352240 27:-0.284865 28:-0.620844 29:1.158364 30:-0.846006 31:-0.453966 32:-0.223073 33:1.643096 34:-0.436729 35:0.507001 36:0.597165 37:0.571422 38:-0.820598 39:-0.301365 40:0.953933 41:0.013055 42:0.048098 43:-1.051177 44:-0.175375 45:0.082465 46:1.468806 47:1.493547 48:0.743704 49:-0.571578 50:0.881219 51:1.419469 52:-0.034635 53:0.239900 54:1.290157 55:0.011078 56:-0.554577 57:-0.493621 58:-0.675961 59:0.559245 60:0.674844 61:-1.300889 62:2.108924 63:-0.189000 64:-0.336925 65:-1.542763 66:-0.841826 67:0.828035 68:0.023438 69:1.029883 70:0.165598
-1 1:0.540175 2:-0.666669 3:1.178174 4:0.515828 5:-0.510127 6:-2.260274 7:1.454868 8:-0.580356 9:0.205459 10:0.333680 11:-1.659570 12:-1.042773 13:-0.575617 14:-0.441520 15:0.875118 16:0.279339 17:-1.188978 18:-1.265619 19:0.357054 20:-1.455417 21:0.847782 22:-1.032584 23:-0.074944 24:-0.337227 25:-0.576711 26:-0.050256 27:0.077935 28:-0.484647 29:-2.242363 30:-0.975332 31:1.401829 32:0.122502 33:0.830413 34:2.167145 35:-0.846467 36:-0.669590 37:-0.143916 38:-0.275253 39:0.951132 40:0.920531 41:0.476192 42:0.423858 43:0.955364 44:0.721848 45:-0.369209 46:-1.414210 47:0.057120 48:0.750594 49:-1.612248 50:-0.432953 51:-1.755625 52:-0.077195 53:0.407527 54:-2.027562 55:0.584600 56:-0.248196 57:-0.597049 58:-0.166392 59:-0.905045 60:0.298201 61:2.957775 62:-1.146106 63:0.327272 64:0.240174 65:-0.363036 66:1.101498 67:-2.790801 68:-0.047608 69:0.010119 70:1.492828
-1 1:-0.454120 2:1.583444 3:-0.394377 4:1.477319 5:-0.085611 6:-0.772564 7:0.409062 8:-0.045535 9:-1.035982 10:-2.227596 11:-0.325564 12:-2.584715 13:0.116272 14:-0.337829 15:-0.208190 16:-1.873111 17:0.379464 18:-0.672784 19:0.283210 20:-1.630621 21:0.996507 22:1.024536 23:1.057552 24:1.165957 25:-0.173711 26:1.030274 27:1.179015 28:1.083771 29:0.022104 30:-1.812835 31:1.027603 32:-0.299771 33:0.448048 34:0.335987 35:0.063596 36:-2.221197 37:-1.414428 38:-0.729517 39:1.066894 40:-0.442252 41:-1.222060 42:0.361109 43:-1.389374 44:-0.054710 45:-0.645576 46:-0.422560 47:0.978357 48:0.420742 49:0.730526 50:0.967929 51:-0.538450 52:0.625285 53:-1.842354 54:0.947965 55:-0.057125 56:1.029592 57:0.031036 58:-0.094688 59:0.099747 60:-1.211341 61:-1.542011 62:-0.442058 63:-0.424302 64:0.223424 65:1.382943 66:0.219876 67:1.413215 68:-0.234054 69:-0.676906 70:-0.682736
-1 1:1.688494 2:-0.438260 3:1.067683 4:-0.047920 5:-0.080251 6:-0.600655 7:0.696073 8:-1.292529 9:-0.299865 10:-1.489566 11:0.890564 12:0.557746 13:-0.661771 14:-1.566091 15:1.712273 16:-0.658039 17:1.050668 18:1.263420 19:-1.292003 20:-0.849417 21:-1.608986 22:-0.939751 23:-0.888751 24:0.660139 25:-0.333434 26:-0.356910 27:-1.883680 28:0.693901 29:1.564989 30:0.248303 31:-0.013234 32:0.553093 33:0.404246 34:0.499146 35:-0.767435 36:-0.816210 37:1.195894 38:0.510064 39:0.137780 40:-1.074606 41:-0.212696 42:1.189483 43:-0.452686 44:-0.234831 45:0.162529 46:-0.417414 47:-0.476578 48:0.384560 49:1.253373 50:-1.569976 51:0.421264 52:0.206339 53:0.518186 54:-0.805555 55:-0.453706 56:0.934036 57:-1.530544 58:0.774614 59:0.876290 60:0.136058 61:0.680210 62:-2.716364 63:0.014297 64:-0.893497 65:1.439221 66:0.086566 67:0.512671 68:0.046744 69:-2.049427 70:-0.160491
-1 1:-1.003157 2:1.215583 3:-2.060139 4:-0.544723 5:-0.878062 6:-1.387959 7:1.250704 8:1.191325 9:-0.197787 10:0.281195 11:1.017910 12:-0.325132 13:0.002217 14:0.844768 15:0.659811 16:0.277109 17:-0.393933 18:-0.107918 19:-0.050681 20:0.609527 21:-1.160454 22:0.054376 23:-1.483765 24:-0.179210 25:0.984965 26:-0.869666 27:0.550429 28:-0.662297 29:-0.070982 30:-0.705200 31:1.270448 32:2.553247 33:0.475044 34:1.141441 35:1.794347 36:-1.012736 37:-1.500997 38:-0.076975 39:-0.480629 40:1.640083 41:-2.359239 42:0.273882 43:0.490826 44:-0.990989 45:0.392810 46:-1.573163 47:-1.686872 48:0.438394 49:-0.200060 50:0.090456 51:0.668845 52:0.484742 53:-0.513144 54:1.654555 55:-0.277220 56:0.672685 57:0.307697 58:-0.169124 59:-0.117902 60:0.275123 61:-1.024042 62:-0.513737 63:0.857133 64:-0.432959 65:-0.040434 66:-0.825074 67:0.550179 68:0.398577 69:-1.502578 70:1.619703
-1 1:-1.466990 2:-2.227497 3:-1.467599 4:2.968680 5:2.427429 6:1.797093 7:0.844134 8:1.187909 9:0.094555 10:-0.146894 11:1.773536 12:0.746051 13:0.321201 14:-2.559990 15:0.553919 16:-0.160121 17:-1.851004 18:1.185357 19:-2.388105 20:-0.671211 21:-1.576252 22:-0.808700 23:2.064661 24:-0.875797 25:1.209259 26:0.444935 27:1.361869 28:0.948039 29:-1.195139 30:1.594083 31:0.320801 32:-0.179703 33:0.149965 34:-0.133630 35:-1.633661 36:-0.386475 37:-0.189244 38:-0.272090 39:0.463794 40:1.427323 41:-0.019315 42:0.196655 43:0.061433 44:0.575376 45:-1.529728 46:-1.486688 47:0.355698 48:0.440439 49:0.125058 50:0.036845 51:0.115513 52:0.181354 53:0.661159 54:-0.425462 55:0.777870 56:1.720471 57:-0.388763 58:-0.231737 59:-1.943848 60:0.394983 61:-0.680641 62:-0.441719 63:-0.295692 64:-0.149014 65:0.720575 66:0.865222 67:2.291080 68:0.860749 69:0.295434 70:-1.266662
-1 1:1.147350 2:1.466177 3:-0.022778 4:-0.389699 5:0.517260 6:-0.307336 7:-1.875150 8:0.091090 9:0.413204 10:0.690031 11:-1.143485 12:-0.152531 13:0.868105 14:-0.597798 15:0.024594 16:-0.570101 17:1.414051 18:-0.056038 19:-0.139499 20:-0.165682 21:-2.117691 22:-0.674947 23:-0.897771 24:0.740499 25:0.215832 26:0.980404 27:1.304905 28:0.668904 29:-3.174856 30:-0.299177 31:1.097351 32:0.309945 33:0.383045 34:-0.681298 35:0.311658 36:1.074719 37:-1.503765 38:-0.325007 39:-0.558694 40:-0.095321 41:0.684312 42:0.571250 43:1.283070 44:0.853232 45:-0.329774 46:0.943070 47:2.033590 48:0.498744 49:-0.278590 50:0.273120 51:0.006088 52:0.204142 53:-1.361754 54:1.255502 55:-0.820850 56:-1.514763 57:-0.895524 58:1.654236 59:0.252931 60:-1.293476 61:-0.306508 62:-0.721558 63:1.501944 64:-0.613616 65:-2.454300 66:-0.733595 67:1.858833 68:-0.602397 69:-1.240439 70:0.601158
-1 1:0.094986 2:0.511610 3:-1.664625 4:0.388503 5:0.833013 6:-0.438023 7:0.432006 8:1.611562 9:0.525560 10:0.635382 11:-0.304958 12:-0.903606 13:0.721566 14:0.859285 15:-0.041883 16:-0.851012 17:0.256132 18:0.941310 19:1.872260 20:0.463147 21:-1.269559 22:-0.417169 23:-1.198383 24:0.120182 25:-0.998364 26:-1.427535 27:-0.566638 28:-0.907114 29:-1.273505 30:0.303374 31:0.267355 32:-0.194763 33:-0.037956 34:0.481495 35:0.795856 36:0.065924 37:-0.390157 38:0.280087 39:-0.208113 40:0.609300 41:0.384699 42:-0.962188 43:0.188662 44:0.219152 45:-0.614525 46:-0.995777 47:-0.378014 48:-0.134937 49:-1.318837 50:1.441997 51:1.294897 52:-0.147860 53:-1.227010 54:0.739132 55:0.860149 56:-0.162948 57:-0.195726 58:1.896377 59:0.454438 60:0.289862 61:-1.264997 62:1.229998 63:0.457937 64:-0.121351 65:1.147126 66:0.750459 67:0.531217 68:-0.500139 69:0.845830 70:0.390887
-1 1:-0.778192 2:-0.630073 3:0.875404 4:-1.219081 5:0.254880 6:-1.397554 7:-1.573309 8:-0.442438 9:-0.560616 10:0.188012 11:-0.912013 12:-0.412635 13:0.871537 14:0.287865 15:0.101704 16:2.038984 17:0.721779 18:1.235896 19:0.917229 20:0.095097 21:1.108140 22:-0.971507 23:-1.587306 24:-2.518983 25:1.333605 26:-0.939108 27:0.854303 28:-0.323299 29:-0.353286 30:-0.790319 31:1.454654 32:-0.285402 33:1.210818 34:0.178724 35:-0.691952 36:-1.187449 37:-0.123854 38:0.453747 39:-0.810088 40:-0.043850 41:-1.260878 42:-0.006746 43:-0.822768 44:-0.247581 45:-0.751301 46:0.153018 47:0.245242 48:-0.824794 49:0.457430 50:-0.227792 51:1.108165 52:0.593776 53:0.512701 54:-0.994275 55:-0.598514 56:-0.345554 57:0.052001 58:1.098303 59:0.990731 60:-0.221239 61:0.194333 62:0.223593 63:-0.116894 64:-1.684888 65:-0.655800 66:0.082683 67:0.902417 68:-0.831050 69:-0.707226 70:0.197323
-1 1:-0.203312 2:0.882864 3:-1.041498 4:0.328639 5:1.072224 6:0.071511 7:1.669003 8:0.916468 9:-0.685120 10:-0.059131 11:0.716610 12:-0.150501 13:0.999218 14:-0.359447 15:0.305581 16:-0.360352 17:-0.844976 18:-0.409447 19:0.166297 20:-0.005746 21:-0.185197 22:1.082192 23:0.753013 24:-1.212405 25:0.250650 26:1.204242 27:1.200431 28:-1.457282 29:-0.562507 30:-0.554326 31:1.513071 32:0.217949 33:-2.068515 34:1.418216 35:-0.384970 36:-0.150331 37:1.195487 38:-0.356224 39:-0.540905 40:0.662979 41:0.835033 42:-0.854577 43:-0.012649 44:-2.518503 45:0.445107 46:1.158706 47:0.377933 48:0.693938 49:0.214400 50:-0.135825 51:0.047867 52:-1.217982 53:1.038892 54:1.294272 55:0.180040 56:0.499425 57:-0.518247 58:0.558246 59:-0.436494 60:0.869453 61:-1.256755 62:1.118330 63:0.642676 64:0.401686 65:-0.363451 66:-0.867747 67:-1.799827 68:-1.473821 69:0.864691 70:1.661318
-1 1:-0.108865 2:-0.140802 3:1.334173 4:-0.583579 5:1.373549 6:0.538035 7:0.823846 8:-0.777422 9:0.360570 10:1.737667 11:0.128142 12:-0.265246 13:-1.646359 14:0.890851 15:-0.759722 16:1.816485 17:-0.284846 18:-1.870355 19:0.557173 20:0.034322 21:-1.492425 22:0.258742 23:1.482567 24:-0.383863 25:-0.973459 26:0.612702 27:0.095767 28:1.357470 29:1.119183 30:-0.529742 31:0.981162 32:1.871787 33:0.780784 34:1.434367 35:0.401103 36:0.099305 37:0.977585 38:1.054456 39:-0.963695 40:0.149844 41:-0.182233 42:-0.511688 43:-1.187895 44:0.529852 45:-0.626612 46:0.133551 47:1.207865 48:-3.233129 49:-0.307056 50:-0.377240 51:-0.213455 52:0.529827 53:0.387705 54:-0.369084 55:-1.118902 56:0.591191 57:0.913377 58:-1.017120 59:-0.704726 60:0.039666 61:0.435817 62:-0.086368 63:-0.133870 64:-1.054142 65:1.129474 66:-1.208788 67:0.733803 68:0.570384 69:-0.382429 70:1.241400
-1 1:1.322100 2:-0.891320 3:-0.826770 4:1.060719 5:0.756791 6:-1.596532 7:0.942908 8:-0.715465 9:-0.533390 10:-0.809744 11:0.622140 12:1.170017 13:0.394309 14:-0.932912 15:-1.435121 16:0.809490 17:0.416786 18:0.047382 19:0.820978 20:-0.243068 21:-0.919387 22:0.630371 23:-0.263294 24:-0.728505 25:0.563374 26:0.728178 27:-0.108811 28:0.723688 29:-0.325124 30:1.685678 31:0.267241 32:-0.337166 33:-0.087171 34:1.200871 35:-1.770584 36:0.424198 37:1.197704 38:2.224643 39:0.406639 40:-0.857816 41:-0.774071 42:-0.075709 43:1.202516 44:-1.350548 45:-0.920608 46:0.127739 47:-0.366810 48:0.666556 49:-1.009107 50:1.302713 51:-0.285521 52:-0.814939 53:-2.206624 54:-0.369359 55:0.527110 56:0.284513 57:0.617006 58:-0.059850 59:0.706799 60:-0.354768 61:0.984355 62:1.393559 63:0.717166 64:1.083000 65:-0.299348 66:-0.724575 67:0.432413 68:0.935230 69:-0.445886 70:1.262068
-1 1:-0.768902 2:0.934564 3:1.136027 4:-0.740258 5:2.069746 6:-0.947822 7:0.425132 8:-0.184682 9:-0.783477 10:-0.605980 11:1.300094 12:0.870802 13:2.081035 14:0.310808 15:0.299918 16:-1.157201 17:0.317232 18:-1.266891 19:0.619639 20:-0.189148 21:1.333430 22:1.080750 23:0.944136 24:0.309354 25:0.698983 26:-1.245125 27:0.433358 28:-0.883814 29:-0.133019 30:-1.668307 31:-0.006000 32:-1.089854 33:-0.299643 34:-1.006615 35:-0.243318 36:-1.380448 37:1.419624 38:1.136214 39:-1.097178 40:0.121842 41:1.336639 42:-1.100346 43:0.430301 44:0.406647 45:-0.002841 46:-1.530091 47:-0.005846 48:-0.268918 49:-0.599389 50:-0.333247 51:-1.695101 52:-0.763153 53:-0.704453 54:-0.347381 55:1.335048 56:-0.908450 57:0.872710 58:0.039765 59:0.786897 60:1.852125 61:-0.712331 62:-1.014506 63:1.735389 64:-0.405830 65:-0.005045 66:-0.796306 67:-0.702042 68:-0.094448 69:0.208771 70:-0.487214
-1 1:-0.598350 2:-1.313551 3:0.688153 4:-1.312289 5:-1.433114 6:-1.117192 7:-2.033356 8:1.080000 9:0.105303 10:0.721187 11:-0.070252 12:-1.240957 13:-0.436185 14:-0.439978 15:0.573205 16:-1.927736 17:1.447918 18:0.475773 19:0.429161 20:-2.366624 21:-0.692986 22:1.649490 23:-0.077027 24:-0.406556 25:-0.957320 26:0.477369 27:0.428577 28:-0.652368 29:0.310091 30:1.044571 31:-0.424296 32:-1.760042 33:-0.098744 34:1.148305 35:-0.492390 36:0.173017 37:1.050005 38:-0.790076 39:0.097232 40:-0.842919 41:0.766362 42:-1.035740 43:1.010366 44:0.145916 45:0.770027 46:-0.050870 47:-0.616369 48:-0.359369 49:-1.388125 50:-1.878149 51:0.855771 52:-0.645373 53:-0.444326 54:-1.004824 55:-0.668816 56:-0.684911 57:-0.002244 58:1.109659 59:0.010209 60:-1.119153 61:-0.001787 62:-0.101651 63:0.037219 64:0.165370 65:-0.466880 66:-1.004050 67:-0.946789 68:-0.135529 69:0.938068 70:0.711080
-1 1:-1.464401 2:1.515713 3:0.168796 4:1.580635 5:0.771684 6:0.247850 7:0.093734 8:2.122312 9:1.153394 10:1.542852 11:0.664434 12:0.084738 13:-1.868214 14:1.164756 15:-3.057838 16:0.043836 17:-0.323457 18:0.540194 19:-1.062937 20:0.055667 21:-0.328575 22:-1.125707 23:0.383194 24:0.968445 25:0.348905 26:0.560588 27:0.463322 28:-0.994523 29:1.293280 30:0.319836 31:-0.801582 32:0.453856 33:-1.870939 34:-0.088134 35:-1.516666 36:-0.566076 37:-1.055077 38:1.462422 39:2.311821 40:-1.032265 41:-1.131117 42:0.092188 43:-0.682256 44:-0.881873 45:0.620388 46:1.134442 47:-1.303058 48:-0.139418 49:-0.240579 50:-0.529397 51:-2.736816 52:0.923568 53:0.468847 54:-0.099869 55:0.168779 56:-1.180893 57:0.551813 58:0.060621 59:0.153015 60:-0.277953 61:-1.685832 62:-0.408876 63:0.978207 64:0.364910 65:0.007896 66:0.440153 67:0.866073 68:-0.832960 69:0.859930 70:-0.477080
-1 1:-0.533032 2:0.167871 3:0.666518 4:-0.688968 5:-1.603058 6:-0.049943 7:-0.265614 8:-0.289492 9:0.623545 10:1.405821 11:-0.176279 12:0.037661 13:1.014684 14:-0.815490 15:-0.821803 16:-0.862993 17:-1.108139 18:-0.080250 19:0.668891 20:-1.246663 21:0.621717 22:1.135407 23:-0.248729 24:-1.135093 25:1.505072 26:-1.357244 27:0.482567 28:-0.115001 29:0.693623 30:0.328442 31:-0.462981 32:1.609639 33:0.708802 34:1.327580 35:1.820393 36:-1.290456 37:0.053785 38:2.788491 39:-0.811135 40:-0.985984 41:-0.433420 42:-1.001788 43:1.063993 44:-0.727306 45:1.598530 46:-0.010282 47:-1.594271 48:-0.711252 49:-0.318192 50:-0.726420 51:-0.366016 52:-0.690590 53:0.319283 54:-0.311488 55:0.299576 56:-1.533968 57:0.138123 58:-0.776387 59:0.542263 60:-0.747026 61:-0.107812 62:-0.226751 63:-0.103180 64:-1.130157 65:-0.965102 66:0.135383 67:-0.674615 68:-0.524119 69:0.544660 70:0.902068
-1 1:-1.061810 2:1.595368 3:0.236310 4:-0.292801 5:0.029039 6:0.139979 7:0.253524 8:-0.087505 9:0.830087 10:0.282499 11:0.673961 12:1.034182 13:0.770847 14:1.285557 15:-0.667297 16:-1.768869 17:0.124232 18:0.026250 19:-1.830919 20:-0.119789 21:0.603168 22:-0.102027 23:-1.706137 24:-0.225995 25:-0.908308 26:0.030731 27:-0.193135 28:-0.134649 29:-0.889860 30:0.140818 31:-0.565416 32:1.004662 33:-1.445957 34:0.003515 35:-1.056832 36:-1.241418 37:0.762220 38:1.041727 39:0.192875 40:-0.185433 41:1.316643 42:0.049077 43:-0.471248 44:-0.488805 45:1.751839 46:-0.172435 47:-1.634395 48:0.773627 49:-1.067004 50:2.229907 51:-0.353796 52:0.480213 53:0.895818 54:-0.950269 55:1.821601 56:-1.727798 57:-0.253726 58:0.742778 59:0.341324 60:-2.278712 61:1.760381 62:0.251606 63:1.248195 64:1.655961 65:0.700237 66:-1.646665 67:0.824532 68:-2.261141 69:-0.539253 70:-0.728328
-1 1:0.150229 2:-0.358665 3:0.070258 4:0.147400 5:-0.210483 6:1.279962 7:-0.274290 8:0.035130 9:0.262106 10:0.234661 11:1.054074 12:0.804402 13:1.733497 14:2.599615 15:-1.063486 16:-1.594966 17:-0.024334 18:0.874551 19:-0.712218 20:1.452882 21:-0.224894 22:0.773663 23:-1.226688 24:0.245979 25:-1.098927 26:0.140355 27:0.193609 28:-0.242289 29:-0.127415 30:0.692019 31:0.241927 32:-0.007475 33:-0.146179 34:-0.275330 35:-0.642944 36:1.367275 37:-0.936461 38:-0.102522 39:0.100459 40:-0.307807 41:0.198645 42:-0.281804 43:1.620669 44:-0.611897 45:0.461879 46:0.152744 47:-0.238232 48:-0.444835 49:-0.699561 50:1.475399 51:0.502583 52:-0.832475 53:-0.402414 54:0.231753 55:0.070512 56:-1.218630 57:1.298127 58:0.394864 59:-2.316593 60:-1.924132 61:-0.079846 62:0.357991 63:0.346772 64:-1.257045 65:-0.209822 66:0.211288 67:0.178799 68:1.618654 69:-0.580772 70:-1.337655
-1 1:0.828147 2:0.846328 3:-1.126151 4:1.147811 5:-0.680073 6:-1.064396 7:0.558826 8:0.773387 9:-0.375210 10:-0.733940 11:-2.374656 12:-0.155315 13:-1.545224 14:0.950427 15:-0.799028 16:-0.475218 17:-2.053149 18:0.024902 19:0.957255 20:0.802617 21:1.411256 22:-1.199015 23:-1.001592 24:-1.024021 25:-0.383974 26:-0.272277 27:0.374830 28:-0.385723 29:0.283828 30:-0.011492 31:0.823550 32:1.851205 33:-0.524762 34:-1.567549 35:-1.320180 36:-0.701469 37:-1.112144 38:-0.928523 39:0.968727 40:0.149556 41:2.157260 42:-1.910786 43:1.135243 44:-2.226751 45:1.149980 46:0.176264 47:0.338058 48:0.343027 49:1.414032 50:1.415828 51:-1.165882 52:-0.539783 53:0.268679 54:-0.866115 55:0.349416 56:-0.324655 57:0.863086 58:1.443978 59:2.019907 60:1.158227 61:-0.127903 62:0.803468 63:2.745207 64:-0.249610 65:-0.226432 66:2.114312 67:-1.305729 68:-1.008801 69:1.063376 70:0.196447
-1 1:0.683673 2:0.957013 3:1.030039 4:-1.768895 5:1.256747 6:0.788900 7:-2.222466 8:1.515207 9:-0.064814 10:-0.459359 11:-0.826914 12:0.132316 13:0.162905 14:1.141039 15:0.206602 16:-1.006908 17:-0.224057 18:1.589282 19:-0.539875 20:0.945712 21:1.089546 22:-0.227065 23:-1.022666 24:-0.383651 25:1.822638 26:0.688848 27:0.093856 28:0.394976 29:-0.340773 30:-0.385725 31:1.736042 32:-0.929791 33:-0.668916 34:-0.458920 35:0.509498 36:-1.195003 37:0.338157 38:0.793464 39:-0.226807 40:-0.894469 41:-0.388742 42:0.508985 43:-0.103004 44:-0.409316 45:0.375078 46:-2.719480 47:1.882328 48:1.265163 49:-0.588905 50:1.438902 51:0.451296 52:-0.254103 53:0.796717 54:0.716458 55:-1.044553 56:-1.336625 57:-1.459101 58:-0.737843 59:-0.217912 60:-2.186357 61:-0.117988 62:0.623614 63:0.417801 64:0.586629 65:-0.394728 66:0.256489 67:0.310148 68:-0.265553 69:0.542262 70:-0.951404
-1 1:-1.273243 2:-0.452253 3:-1.138292 4:-1.041704 5:0.549066 6:-2.038978 7:-0.419298 8:-1.661395 9:-0.302148 10:0.367616 11:-0.362671 12:-0.937280 13:0.461459 14:0.312031 15:0.967235 16:-1.526936 17:0.797777 18:1.227994 19:1.018232 20:0.185308 21:-0.592320 22:-0.194593 23:-0.113360 24:0.557447 25:0.584979 26:0.098381 27:1.641950 28:-0.026489 29:1.283071 30:0.969911 31:1.207366 32:-0.035975 33:-0.224526 34:-0.605978 35:-0.163384 36:1.059868 37:0.208461 38:0.194354 39:-0.674874 40:-0.632207 41:-0.169182 42:0.725719 43:0.328015 44:-1.194203 45:0.762129 46:0.026588 47:-0.292157 48:-0.725926 49:-0.234963 50:-0.058385 51:-1.402752 52:1.065711 53:0.385120 54:0.106373 55:-1.803524 56:-0.092165 57:0.095225 58:-0.287777 59:1.135991 60:0.567597 61:0.808366 62:0.832844 63:0.155099 64:-0.503142 65:-1.779261 66:1.065463 67:-2.010451 68:-1.090099 69:0.705205 70:-0.249923
-1 1:-1.211078 2:0.522513 3:-0.047941 4:0.377091 5:-0.084794 6:0.091883 7:-0.297261 8:0.499963 9:0.931193 10:1.241822 11:-0.147608 12:-1.040762 13:-0.251469 14:1.378780 15:-0.335148 16:1.218437 17:-1.105193 18:-1.078644 19:-1.555088 20:1.298107 21:-0.451340 22:0.596541 23:1.509098 24:-0.121874 25:-1.935611 26:-0.561967 27:-0.218932 28:2.050914 29:-0.547549 30:1.423031 31:1.878993 32:-0.051522 33:-0.833458 34:-0.220877 35:-1.019796 36:2.069305 37:1.876809 38:-1.158824 39:-0.678232 40:-1.010176 41:0.406854 42:1.872216 43:0.607526 44:-0.189458 45:-0.872167 46:0.469171 47:0.275743 48:-1.695891 49:1.889145 50:-0.547282 51:2.666804 52:-1.820582 53:0.929511 54:-0.284243 55:-0.935182 56:0.119495 57:0.026881 58:-2.310590 59:-0.629149 60:1.994243 61:0.789666 62:-0.312620 63:-0.993589 64:1.056327 65:0.289451 66:0.281318 67:-0.494488 68:1.326156 69:2.586417 70:-0.700753
-1 1:-2.169499 2:0.273006 3:-0.904000 4:0.404935 5:0.050727 6:-1.213074 7:-1.267605 8:1.077442 9:-0.493775 10:-0.743737 11:-0.164713 12:2.033704 13:-0.263732 14:0.748928 15:-0.017857 16:-1.663823 17:-0.668251 18:0.184649 19:1.171397 20:-0.281216 21:1.064091 22:-0.534769 23:-1.643429 24:0.126198 25:0.106232 26:0.207851 27:-0.399164 28:-0.223354 29:1.289892 30:0.650018 31:0.578805 32:1.338353 33:0.074379 34:1.465898 35:0.463625 36:-0.441113 37:-0.552003 38:-1.154554 39:0.442487 40:-0.533059 41:-1.600522 42:-0.683614 43:-0.194650 44:-0.634612 45:-0.815357 46:1.093665 47:-1.645132 48:-0.814270 49:-0.938207 50:-1.322323 51:-0.077440 52:-2.415524 53:-1.840573 54:1.501790 55:-0.139971 56:-0.740389 57:-1.008702 58:1.204913 59:0.110746 60:1.723140 61:0.581491 62:-2.296442 63:0.227959 64:0.371894 65:0.132956 66:0.749359 67:0.596630 68:0.429221 69:1.255849 70:-3.010401
-1 1:0.255730 2:0.170529 3:-1.146114 4:0.107800 5:-0.276968 6:0.495373 7:0.596591 8:-1.353012 9:1.777184 10:1.298373 11:-0.828499 12:-0.958603 13:-2.294430 14:0.570881 15:-0.312834 16:-1.478366 17:-0.829643 18:-0.252720 19:-0.688234 20:-0.987747 21:2.909399 22:0.097013 23:1.236870 24:0.041163 25:0.853211 26:0.235095 27:1.631748 28:-0.494125 29:2.046526 30:-0.377610 31:-0.010452 32:-0.012922 33:-0.064665 34:1.246142 35:-0.735309 36:-0.101887 37:0.537699 38:2.138002 39:0.145812 40:1.008308 41:-0.241632 42:-0.810041 43:-0.312827 44:0.479245 45:-0.129905 46:-1.263805 47:-0.575927 48:0.714240 49:1.556948 50:-0.226750 51:0.507636 52:-0.351631 53:1.103314 54:0.940013 55:1.824336 56:0.125355 57:-1.210734 58:0.800141 59:-1.163380 60:0.966622 61:-0.211333 62:0.002340 63:0.007471 64:-1.532698 65:0.200720 66:0.556451 67:-0.702536 68:0.483555 69:-0.802427 70:-0.885688
-1 1:-0.875837 2:-0.824152 3:-0.684983 4:-0.061155 5:1.401791 6:-0.885169 7:-1.628065 8:1.589646 9:0.187123 10:0.332489 11:0.073967 12:-0.658025 13:1.575054 14:-1.199344 15:-0.238921 16:-1.035832 17:-0.347319 18:1.113082 19:-0.232167 20:-0.294803 21:0.497933 22:0.281405 23:-0.898309 24:0.624392 25:-1.305794 26:-0.784935 27:-0.922776 28:-2.051757 29:-0.587803 30:0.327724 31:1.310528 32:0.800256 33:0.262991 34:-0.794621 35:-0.190350 36:-1.418952 37:-0.884778 38:0.708186 39:-0.353822 40:0.596396 41:-1.814180 42:-0.223620 43:-0.333289 44:-1.654023 45:-0.590722 46:-0.689199 47:0.273922 48:0.874093 49:0.464528 50:-0.928388 51:0.944196 52:0.512597 53:0.411914 54:-0.637354 55:0.652348 56:-0.389256 57:0.588612 58:1.002251 59:1.266494 60:-0.477326 61:-0.286373 62:-1.254859 63:0.741514 64:0.665472 65:-0.218381 66:-0.338089 67:-0.295881 68:-0.252754 69:1.795729 70:1.081962
-1 1:-0.882155 2:-0.416591 3:-0.557776 4:-0.173513 5:0.522120 6:-0.451613 7:-1.804707 8:0.114129 9:1.230429 10:-0.330098 11:-0.279770 12:-0.380937 13:-0.173389 14:1.130679 15:0.206296 16:-0.573187 17:-0.167368 18:-0.519160 19:-0.979552 20:0.009931 21:-0.847145 22:-1.140461 23:0.485387 24:-0.318730 25:1.060095 26:0.194542 27:0.802042 28:0.312483 29:-0.038839 30:-0.716689 31:-0.564467 32:-1.739431 33:-2.040168 34:-2.200608 35:0.820891 36:0.518984 37:1.165117 38:2.024935 39:0.815440 40:-0.179798 41:-0.451802 42:-0.754619 43:0.764162 44:-2.142723 45:-1.572390 46:-0.464023 47:0.170087 48:-1.980582 49:-1.104312 50:-0.055068 51:-0.480569 52:-0.696108 53:-0.250652 54:0.489951 55:-0.646175 56:-0.018978 57:0.367804 58:-1.896313 59:0.529943 60:-0.258185 61:-0.164593 62:1.045314 63:-1.136143 64:-0.034715 65:0.201133 66:0.397716 67:-0.003721 68:0.204779 69:0.029865 70:1.016290
-1 1:0.799237 2:2.778869 3:-0.182379 4:-1.069898 5:-1.555997 6:0.059524 7:0.873590 8:-0.975104 9:-0.266221 10:0.099622 11:0.588124 12:-0.072447 13:-0.011264 14:1.512833 15:-0.487838 16:0.467795 17:1.956438 18:1.462452 19:0.853443 20:0.412910 21:0.853783 22:-0.113131 23:-1.488494 24:2.379722 25:-0.826863 26:-1.100485 27:-0.102108 28:-1.352311 29:-0.442474 30:-1.288713 31:-0.461564 32:0.680872 33:-0.893263 34:0.442147 35:-1.332918 36:0.371380 37:0.821660 38:0.628144 39:-1.413181 40:0.639159 41:-2.192852 42:0.933460 43:1.121234 44:-0.496034 45:-1.541473 46:-0.383829 47:0.408436 48:-0.852857 49:-0.585097 50:-0.006949 51:-0.112345 52:-2.204868 53:-0.759728 54:0.155353 55:-0.086697 56:0.285417 57:-2.082770 58:1.262302 59:0.165453 60:0.850132 61:-0.655729 62:-1.199246 63:1.054854 64:-0.387642 65:1.660619 66:-0.476890 67:0.143842 68:0.644030 69:-0.882652 70:-0.098739
-1 1:-0.822274 2:-0.577635 3:0.208258 4:0.391236 5:-1.028323 6:-0.646145 7:1.010070 8:-0.221337 9:-2.198809 10:0.508094 11:0.523054 12:-1.305669 13:0.219601 14:0.386618 15:1.135129 16:-2.253072 17:0.000441 18:-0.918446 19:-0.796826 20:-0.590125 21:-0.997267 22:0.517741 23:-0.441670 24:-1.120045 25:0.251803 26:-0.515774 27:-0.630504 28:0.121391 29:-1.199138 30:-1.825308 31:0.206667 32:-0.146766 33:0.332869 34:-1.214293 35:-0.893750 36:1.395989 37:0.304247 38:-0.641167 39:0.382080 40:-1.240201 41:0.779265 42:-0.627500 43:0.354209 44:0.784116 45:0.189551 46:-0.512713 47:-0.867754 48:-0.533626 49:-1.850119 50:-0.437255 51:-2.860309 52:1.191549 53:1.867943 54:-0.107625 55:-0.513117 56:0.931253 57:0.131053 58:-1.329407 59:1.035902 60:0.167937 61:0.320928 62:1.280935 63:0.826490 64:0.060657 65:-0.169340 66:-2.344332 67:0.822130 68:0.810932 69:2.058949 70:-0.839955
-1 1:1.146784 2:-1.683897 3:1.323786 4:0.272057 5:0.651990 6:0.328645 7:0.106587 8:0.336986 9:0.073642 10:1.967900 11:-0.534061 12:-0.943175 13:-1.366770 14:-1.186150 15:-1.302425 16:0.688418 17:1.292581 18:-0.783664 19:-0.130775 20:-0.508963 21:0.229268 22:-1.399285 23:0.611022 24:1.666982 25:1.001115 26:0.559327 27:-0.761059 28:0.391127 29:1.011927 30:-0.818509 31:0.216491 32:-0.573029 33:-1.050481 34:-0.609596 35:0.141615 36:-0.523984 37:0.741312 38:-1.285857 39:1.039695 40:-0.687027 41:0.447576 42:-1.313979 43:0.886797 44:0.195039 45:-0.601510 46:-1.171113 47:1.600963 48:-0.788505 49:1.196371 50:-0.101663 51:-1.056206 52:0.155290 53:-1.520928 54:-0.231139 55:0.946738 56:0.682221 57:-0.046660 58:-1.217705 59:-0.816817 60:-0.090736 61:-0.599732 62:0.674898 63:-0.431272 64:-0.907712 65:1.544807 66:0.467234 67:0.826634 68:0.968808 69:1.060950 70:-1.091849
-1 1:2.063516 2:0.886928 3:-0.527714 4:-0.239121 5:0.232024 6:-1.883407 7:-1.202306 8:0.968463 9:-1.310974 10:1.282524 11:-0.500211 12:0.229838 13:-0.383885 14:0.547445 15:-0.433478 16:1.552060 17:0.503984 18:-0.329918 19:-2.438884 20:-0.399973 21:2.054059 22:0.303993 23:0.097520 24:0.263651 25:2.078434 26:-0.273558 27:1.444052 28:-0.310871 29:-0.938680 30:-1.066157 31:1.632370 32:0.560858 33:-0.089037 34:-0.460095 35:-1.304254 36:-0.153624 37:-1.426739 38:2.338867 39:-0.445117 40:0.466025 41:-2.182071 42:-0.758135 43:0.188387 44:-0.316085 45:-0.299145 46:-1.031174 47:-1.432115 48:-0.221821 49:-0.290723 50:0.038422 51:0.436768 52:-0.816901 53:-0.860345 54:0.870556 55:-0.390622 56:-0.831857 57:-0.217432 58:-0.445869 59:-0.324892 60:2.182353 61:0.611542 62:-2.936568 63:0.070192 64:-0.705967 65:1.556623 66:0.796703 67:1.158522 68:0.013041 69:-1.607722 70:0.137845
-1 1:-0.909080 2:-0.066499 3:-0.790960 4:-0.056981 5:-1.406894 6:-0.789886 7:0.458086 8:0.750679 9:0.320735 10:0.960514 11:0.458822 12:0.185491 13:-1.114253 14:2.614248 15:-0.499742 16:0.321236 17:1.311902 18:-0.427261 19:-0.588690 20:-0.842180 21:-1.326673 22:-0.432613 23:-1.482392 24:2.251082 25:0.115940 26:0.088661 27:0.813043 28:-2.485167 29:-0.559778 30:0.661040 31:-0.693167 32:-0.671698 33:1.211762 34:-0.705899 35:1.133713 36:-0.590374 37:1.090143 38:-1.021242 39:0.727354 40:-1.787194 41:-0.886372 42:0.902754 43:-0.877897 44:-0.361182 45:-0.461055 46:0.088339 47:0.433441 48:-0.782493 49:0.765607 50:0.920267 51:-1.101342 52:0.781123 53:-0.257958 54:-1.805693 55:-0.586739 56:-1.673037 57:0.358332 58:-0.035347 59:-0.636171 60:-0.833706 61:-0.517879 62:1.060390 63:-0.719099 64:-0.356589 65:1.339483 66:0.880897 67:-0.120471 68:0.241468 69:-0.892970 70:0.996542
-1 1:-0.729182 2:1.327758 3:0.669708 4:-0.201010 5:1.381367 6:0.147922 7:-0.021657 8:0.872972 9:-0.506228 10:-1.539788 11:1.063014 12:0.368541 13:0.042982 14:-1.494501 15:1.504713 16:0.158192 17:-0.291596 18:-0.702918 19:1.159413 20:-0.162361 21:-0.103032 22:1.160389 23:1.282948 24:-0.630667 25:0.450389 26:-0.657354 27:-0.001999 28:0.764428 29:0.878161 30:0.678412 31:0.169875 32:0.119409 33:-1.203873 34:1.311964 35:-0.080607 36:0.622222 37:1.578252 38:0.888726 39:0.120162 40:0.164009 41:0.424212 42:-0.194738 43:0.401123 44:-0.417021 45:0.354909 46:0.443305 47:0.645515 48:-0.066530 49:1.287538 50:-0.351132 51:-1.341117 52:-1.097938 53:-0.037398 54:-0.023568 55:-0.297505 56:-1.268049 57:2.093537 58:-0.139645 59:1.120821 60:-0.161352 61:-0.409380 62:-0.804201 63:-1.594171 64:1.020017 65:2.382674 66:-0.718968 67:-3.504656 68:-0.003300 69:-1.189099 70:0.017662
-1 1:0.405468 2:0.446783 3:0.254017 4:-1.263588 5:1.434095 6:-1.154249 7:0.077217 8:-0.826325 9:-0.728880 10:-0.309634 11:0.527666 12:-0.985975 13:0.141737 14:-0.141966 15:0.097994 16:-0.000720 17:-0.816808 18:0.377893 19:-1.054496 20:-1.477590 21:-0.398717 22:0.790114 23:0.428311 24:0.864188 25:-0.177858 26:0.660642 27:0.936796 28:-0.616877 29:0.528226 30:1.026352 31:-1.472217 32:0.454430 33:0.227724 34:-1.792968 35:0.553620 36:1.207145 37:-0.854700 38:1.269659 39:-0.783412 40:1.404820 41:0.483461 42:-1.144298 43:0.963167 44:-1.749623 45:-0.000256 46:0.502527 47:0.139217 48:1.610894 49:-0.985890 50:0.480097 51:-2.609293 52:-0.618679 53:1.185196 54:1.727530 55:-0.746812 56:0.404174 57:0.045332 58:0.308692 59:-0.160220 60:-1.135505 61:0.259424 62:-1.118327 63:-1.229696 64:-0.211381 65:-0.482619 66:-1.847963 67:-0.501022 68:-0.157983 69:-0.471795 70:0.485307
-1 1:-0.838474 2:1.462501 3:-2.098109 4:-2.191802 5:1.209488 6:-0.946020 7:0.467207 8:-0.310486 9:-1.188373 10:0.214290 11:1.769952 12:0.680587 13:0.214629 14:0.942118 15:0.149564 16:-0.336696 17:2.309868 18:-0.592428 19:0.946711 20:-1.796962 21:0.175059 22:1.218893 23:-0.094753 24:1.134767 25:-0.376031 26:0.747686 27:0.022228 28:-1.485099 29:0.153822 30:-1.224971 31:1.348439 32:-0.850111 33:-0.449587 34:0.453463 35:0.429433 36:0.667714 37:0.734771 38:-0.140709 39:-0.219799 40:-0.606683 41:-1.448364 42:-0.711151 43:-1.598084 44:0.887370 45:-1.587005 46:-0.214030 47:1.162381 48:1.102115 49:-0.553466 50:-0.519755 51:2.048186 52:-1.225296 53:1.975893 54:-0.371598 55:0.425272 56:1.483105 57:0.942145 58:-0.162043 59:-0.722964 60:-1.396637 61:0.724209 62:-1.519189 63:0.064881 64:0.899820 65:-1.518981 66:-0.537465 67:-0.850162 68:0.456712 69:-0.640738 70:-1.180175
-1 1:1.496887 2:-1.345472 3:-1.052943 4:1.029853 5:1.391003 6:0.151026 7:-0.596591 8:0.294060 9:-0.221685 10:0.554264 11:-0.503435 12:1.524472 13:1.393832 14:0.537766 15:-0.782799 16:-0.254588 17:-1.078418 18:0.579674 19:0.245985 20:0.538800 21:-0.090464 22:-0.265574 23:-0.340050 24:1.294387 25:1.068466 26:1.411565 27:0.620883 28:-1.221834 29:-0.587180 30:2.741397 31:0.522871 32:-0.200906 33:-0.811731 34:1.089560 35:1.448052 36:-1.657634 37:0.067532 38:1.929334 39:1.319267 40:0.379598 41:0.231746 42:-0.376218 43:-0.146270 44:-0.595182 45:-0.390258 46:1.352398 47:-0.374122 48:-0.421720 49:0.668630 50:1.386210 51:-0.926575 52:-0.164023 53:0.604180 54:0.235761 55:0.319491 56:-0.398570 57:-1.340493 58:-0.926897 59:-0.386504 60:-0.620014 61:-1.002184 62:0.147667 63:-1.156467 64:-0.507205 65:1.006025 66:0.077130 67:-0.869458 68:0.210720 69:-0.442548 70:1.957683
-1 1:-1.410552 2:-0.882892 3:1.642059 4:0.196138 5:-0.239105 6:-0.688408 7:-0.765347 8:-0.856285 9:0.852046 10:0.651161 11:-0.830026 12:-0.087531 13:1.472041 14:1.393558 15:0.446804 16:0.270107 17:0.718844 18:0.593865 19:-0.246980 20:0.275357 21:1.465342 22:0.504181 23:-0.961001 24:-2.130175 25:-0.164187 26:0.482165 27:-1.162931 28:-0.971760 29:2.134529 30:0.252692 31:0.527997 32:-1.692798 33:0.865642 34:1.222877 35:-1.269107 36:0.043886 37:-0.432853 38:-0.703360 39:-0.440767 40:-1.802187 41:-0.469787 42:-1.249935 43:0.984418 44:-0.831837 45:1.313637 46:-0.947333 47:0.672967 48:0.264258 49:-0.028051 50:-0.612564 51:0.234910 52:-0.170017 53:0.418657 54:-0.075311 55:-0.587782 56:-0.133495 57:1.472240 58:2.207785 59:2.133714 60:-1.572952 61:-0.482987 62:-0.029978 63:-1.272924 64:-0.462539 65:-0.237872 66:0.065341 67:0.638126 68:0.553087 69:-0.847197 70:-2.066815
-1 1:0.046231 2:-0.622863 3:-1.389517 4:0.093388 5:-0.200023 6:-0.453544 7:-0.513438 8:1.472204 9:-2.380825 10:-0.485947 11:1.244107 12:-0.647312 13:1.164067 14:-0.163974 15:0.134890 16:-1.165314 17:0.224956 18:0.216183 19:0.161776 20:-0.572103 21:0.694770 22:-1.452674 23:-0.906263 24:1.003382 25:2.147988 26:0.664199 27:0.454237 28:0.702525 29:0.219839 30:0.205699 31:-0.139043 32:0.827171 33:2.591509 34:0.068050 35:0.180534 36:-0.040172 37:-0.158443 38:-0.570385 39:-1.174042 40:-0.025306 41:0.457659 42:1.186353 43:-0.111408 44:-0.303593 45:0.078226 46:1.833805 47:-0.109820 48:0.312472 49:1.593146 50:-0.474732 51:1.145801 52:-0.597802 53:0.415681 54:-0.399276 55:-0.319659 56:-0.068045 57:-0.344003 58:-0.143064 59:0.327826 60:1.065857 61:0.546464 62:0.548441 63:1.160313 64:0.221524 65:0.358055 66:-1.638873 67:-0.806034 68:0.255241 69:2.429713 70:0.110435
-1 1:-0.812072 2:-0.343387 3:0.365387 4:-0.272996 5:0.070712 6:2.113303 7:-0.268290 8:-0.223589 9:-0.421276 10:-0.661543 11:-0.607373 12:-0.243005 13:-0.171878 14:-0.469765 15:0.302157 16:-0.739536 17:0.381107 18:0.150857 19:-0.629192 20:-0.789423 21:-0.759758 22:0.312056 23:0.763125 24:-1.918162 25:-2.232960 26:0.080171 27:-0.441802 28:-2.477146 29:-1.351052 30:0.728371 31:0.627692 32:0.097644 33:1.741523 34:1.242777 35:-0.290831 36:0.897298 37:-0.441925 38:1.118984 39:1.346884 40:-0.862047 41:-0.189643 42:0.147044 43:-1.073336 44:-0.301170 45:1.173269 46:-0.030679 47:-0.396053 48:-1.014712 49:0.483720 50:2.231018 51:-0.663234 52:-0.963962 53:0.149433 54:-0.233491 55:-1.091795 56:-1.262075 57:-0.797900 58:-0.258569 59:-0.770709 60:-0.687620 61:-0.263111 62:-0.266806 63:-0.214354 64:-1.142064 65:0.917253 66:-0.877751 67:0.120518 68:0.447551 69:0.226393 70:-1.708207
-1 1:-2.200346 2:0.908554 3:0.555441 4:0.287345 5:0.481764 6:1.008887 7:-0.044530 8:0.438254 9:0.332686 10:0.311070 11:-0.498164 12:-0.166655 13:-1.130655 14:-1.083985 15:-0.840158 16:0.410139 17:-0.043390 18:-0.364262 19:0.138240 20:1.869921 21:-0.119377 22:-0.347822 23:-0.750684 24:0.080986 25:0.560017 26:-0.157721 27:1.359136 28:0.631334 29:-0.095525 30:0.699341 31:1.870524 32:-0.227982 33:0.165541 34:-1.715353 35:-0.293972 36:-1.136897 37:-0.013193 38:-0.559058 39:0.851327 40:2.543122 41:1.451163 42:0.122051 43:-0.128620 44:-0.627479 45:1.056797 46:1.407894 47:-0.688617 48:1.311717 49:1.583981 50:0.141299 51:-1.037781 52:0.944299 53:-1.459080 54:0.536678 55:0.699955 56:0.511214 57:0.320903 58:0.512562 59:0.706969 60:0.198693 61:-1.271588 62:0.059360 63:-1.023209 64:-0.024974 65:0.972042 66:0.059611 67:-1.612914 68:0.554733 69:0.854619 70:0.525535
-1 1:1.162519 2:-1.399637 3:0.714874 4:0.228163 5:-3.015043 6:-0.843107 7:0.551300 8:-0.403848 9:0.781555 10:0.278092 11:1.562776 12:0.721167 13:-1.818536 14:-1.465389 15:-1.707112 16:-0.462697 17:1.050998 18:-1.553458 19:0.280649 20:0.942130 21:-1.891046 22:-0.083179 23:0.924038 24:-1.468873 25:-0.924566 26:-0.047882 27:1.660429 28:-0.619428 29:0.821430 30:1.469613 31:0.003721 32:0.006857 33:0.581963 34:-1.134795 35:-1.243312 36:1.142263 37:1.047126 38:-0.670905 39:-0.768518 40:0.862333 41:-1.558647 42:2.717963 43:0.361738 44:-0.989855 45:-0.337876 46:-0.672859 47:-0.417299 48:-0.210110 49:-2.143178 50:0.271909 51:1.133135 52:-0.387064 53:-0.540195 54:0.323560 55:-0.141998 56:0.273451 57:-1.984491 58:0.913517 59:-0.320127 60:0.214398 61:0.343743 62:0.416165 63:0.559331 64:1.352695 65:-1.064365 66:1.221084 67:0.907552 68:1.254588 69:2.239926 70:1.069378
-1 1:-1.779841 2:0.672028 3:-1.292940 4:-0.420562 5:0.398544 6:-0.142263 7:2.276059 8:-1.712511 9:-0.073096 10:-0.687873 11:0.539429 12:1.040466 13:-1.132629 14:-1.685566 15:-0.288892 16:0.843883 17:-1.420741 18:1.217574 19:1.318525 20:-0.954013 21:0.735939 22:0.049068 23:-0.438720 24:1.023140 25:1.117189 26:-0.485482 27:0.587873 28:-1.060228 29:-0.543534 30:-0.959400 31:0.871906 32:-0.610116 33:-0.096997 34:1.241280 35:-0.840151 36:-1.267442 37:0.947063 38:0.217935 39:-0.356903 40:-0.813840 41:0.926395 42:-0.673233 43:-0.042675 44:-0.842175 45:-1.022415 46:1.045847 47:-0.556043 48:-1.412277 49:0.969853 50:-0.464309 51:-0.270695 52:-0.572076 53:-1.127869 54:0.523413 55:-1.497766 56:-0.082053 57:1.601314 58:-0.666784 59:2.017543 60:0.423861 61:-0.212593 62:0.843378 63:0.334192 64:0.108787 65:0.757361 66:-1.161678 67:-0.220488 68:-0.818600 69:-0.276519 70:-0.329829
-1 1:0.361536 2:0.506998 3:-0.065829 4:0.995041 5:-1.366321 6:0.656825 7:0.574581 8:0.875467 9:-1.250271 10:-1.323905 11:-0.389616 12:-0.685328 13:-0.117119 14:2.070668 15:-0.736339 16:1.414327 17:0.667091 18:0.541223 19:-1.016738 20:0.386183 21:0.932084 22:1.418153 23:2.138068 24:0.478434 25:1.354491 26:-1.030022 27:-1.507938 28:-0.133093 29:-0.628780 30:-2.124333 31:0.442980 32:0.898201 33:-0.178303 34:0.415474 35:-2.495231 36:0.376655 37:1.841319 38:0.385799 39:1.252512 40:-0.011527 41:-0.275568 42:-1.046653 43:0.178726 44:0.464867 45:-0.002419 46:0.491088 47:0.357144 48:-0.965169 49:-0.655729 50:1.829283 51:0.446666 52:0.848005 53:0.955240 54:-0.985176 55:0.294540 56:0.119706 57:-1.739130 58:-0.306166 59:0.178665 60:-0.822474 61:-0.096157 62:-0.185189 63:-1.253768 64:0.641446 65:-0.418399 66:-1.327033 67:2.192444 68:0.666476 69:-0.591137 70:1.759122
-1 1:-0.870024 2:0.670188 3:0.396727 4:1.202263 5:-0.206535 6:-0.219155 7:-0.304385 8:-0.756260 9:0.209991 10:-2.129298 11:0.100562 12:-2.122519 13:-0.297050 14:1.609489 15:0.260441 16:0.943696 17:1.000695 18:0.292256 19:-1.387067 20:0.626729 21:-0.285390 22:0.849258 23:0.203913 24:0.594519 25:0.639154 26:1.690321 27:-1.204356 28:-0.135601 29:0.767580 30:0.092222 31:-1.530969 32:-0.107083 33:0.120710 34:-1.076405 35:-0.502345 36:0.771283 37:0.166904 38:-0.225271 39:0.196867 40:0.513035 41:-1.612467 42:0.311316 43:-0.327494 44:0.736559 45:-0.393915 46:-0.605253 47:0.564862 48:-0.298082 49:-0.991602 50:0.849155 51:1.637392 52:-1.171923 53:0.282596 54:-1.145108 55:-0.601469 56:0.305378 57:-0.598003 58:0.298313 59:0.448757 60:-0.654422 61:-0.432968 62:-1.139423 63:0.752067 64:-0.963788 65:3.043944 66:-0.988555 67:0.102037 68:-0.087259 69:2.301200 70:2.125653
-1 1:0.882007 2:0.220726 3:0.954527 4:0.076586 5:1.565474 6:0.127446 7:0.232884 8:2.530660 9:0.465528 10:-1.271436 11:-0.535398 12:0.584067 13:-0.827024 14:0.135671 15:-0.764922 16:0.098798 17:0.594407 18:-0.816164 19:-0.457712 20:0.320918 21:-0.800135 22:-1.562760 23:1.188740 24:0.406893 25:-0.994751 26:-0.933289 27:0.999806 28:-0.876996 29:0.909591 30:-0.310187 31:0.384255 32:0.056767 33:-0.227522 34:-0.152411 35:-0.364952 36:-0.808467 37:0.252747 38:0.488489 39:-1.266635 40:1.573663 41:-0.277097 42:0.461957 43:0.614818 44:-0.141472 45:0.867215 46:-0.755306 47:-1.950163 48:-0.517174 49:1.204829 50:-0.099550 51:1.960453 52:1.852030 53:-0.493152 54:-0.204697 55:1.100008 56:0.764129 57:0.338587 58:0.093760 59:0.631475 60:2.020848 61:0.663569 62:0.175682 63:1.378604 64:-0.665933 65:1.279772 66:0.042482 67:1.008368 68:-0.950351 69:-0.007368 70:0.693508
-1 1:0.534984 2:-0.030308 3:-0.421576 4:-0.181167 5:1.416242 6:0.814719 7:0.507429 8:0.590140 9:0.964862 10:0.785051 11:-0.004502 12:-0.291819 13:-1.748148 14:1.252469 15:-0.293287 16:-0.283661 17:1.443385 18:-0.369225 19:0.369579 20:1.441822 21:0.357690 22:1.031141 23:0.393305 24:0.467746 25:0.486075 26:0.315596 27:0.857560 28:1.000929 29:-0.212765 30:0.138499 31:1.317709 32:1.415137 33:0.886082 34:-0.077690 35:0.855273 36:-1.287637 37:-1.028003 38:-1.127438 39:0.408257 40:0.342359 41:3.078870 42:1.815807 43:-0.022755 44:-0.317552 45:0.113555 46:-0.597546 47:-2.632496 48:0.415165 49:-0.827747 50:-0.449674 51:1.215222 52:-0.964707 53:-1.299144 54:-0.011604 55:0.091476 56:-0.251328 57:0.848137 58:0.919890 59:-1.098042 60:-0.229982 61:0.100595 62:-0.290302 63:1.381608 64:0.665088 65:-0.533176 66:0.336566 67:-1.117983 68:1.303475 69:1.905617 70:-1.186744
-1 1:-0.854759 2:2.138774 3:0.667280 4:-1.186777 5:0.482755 6:0.832116 7:0.682342 8:-1.721838 9:0.248996 10:-0.275775 11:0.590105 12:-0.273805 13:0.338629 14:-2.927462 15:-1.141740 16:-0.451879 17:0.426203 18:-0.891816 19:0.493479 20:-0.662485 21:0.621007 22:-0.798690 23:1.386176 24:1.271957 25:0.943135 26:0.307130 27:0.125533 28:-0.496834 29:1.254567 30:-2.198562 31:-0.515164 32:1.522324 33:1.117789 34:-1.793309 35:-0.990628 36:-0.055175 37:0.076792 38:0.686812 39:-0.501167 40:-3.302726 41:-1.443405 42:-1.068328 43:0.836085 44:-0.184660 45:0.756623 46:-0.225866 47:1.384464 48:-1.516533 49:-0.569251 50:0.008128 51:1.411376 52:-0.611670 53:-0.040774 54:-0.490188 55:0.523263 56:0.734208 57:1.083013 58:-0.503882 59:0.469858 60:-0.292171 61:-2.015310 62:-0.052748 63:0.774942 64:-0.941224 65:0.785074 66:0.941233 67:0.850340 68:1.321813 69:-0.209445 70:1.563104
-1 1:0.254532 2:0.961176 3:-1.157285 4:0.465908 5:-0.515776 6:0.314231 7:1.436453 8:-0.816544 9:-0.076879 10:0.144238 11:-0.316770 12:-0.903778 13:-1.179719 14:0.098650 15:0.700289 16:0.212970 17:0.350088 18:0.427485 19:-0.678437 20:0.513649 21:-1.822166 22:0.832017 23:-0.923268 24:0.300145 25:-1.522150 26:0.608793 27:0.348102 28:-1.981481 29:0.858734 30:-0.056387 31:-1.078045 32:-1.132606 33:-0.062746 34:-0.785382 35:-0.622037 36:1.451664 37:0.701594 38:1.664041 39:1.684141 40:-1.197068 41:-0.309826 42:0.829308 43:0.338598 44:0.483351 45:-1.692927 46:0.169789 47:1.190456 48:0.487785 49:-0.146492 50:-0.684889 51:-0.894675 52:-2.219539 53:0.220725 54:2.259034 55:-0.950598 56:-1.164895 57:-0.192610 58:-2.070165 59:0.047720 60:-0.139874 61:-0.419430 62:-1.091309 63:-0.155355 64:-1.371682 65:-0.026483 66:0.442950 67:-0.972049 68:-0.534129 69:-1.646251 70:-1.281528
-1 1:-1.032370 2:-0.902761 3:-1.449475 4:0.327750 5:-0.295173 6:-0.907222 7:-0.789659 8:-0.144595 9:0.975824 10:0.768682 11:-0.323222 12:2.184839 13:0.581871 14:-0.368970 15:-0.956237 16:-0.472314 17:1.242604 18:1.122919 19:-1.042295 20:-0.658268 21:-0.885444 22:1.177766 23:-1.399308 24:2.379632 25:0.692909 26:0.468884 27:-1.289620 28:1.719257 29:-1.050454 30:-1.064797 31:-0.107825 32:-1.550594 33:-1.718847 34:0.089316 35:-2.575240 36:1.404281 37:0.406868 38:1.621057 39:0.170630 40:0.576089 41:1.235235 42:-0.132271 43:-1.215741 44:-0.242793 45:0.592579 46:-0.497413 47:-1.124764 48:0.318096 49:0.001546 50:0.573012 51:1.554509 52:-1.062105 53:0.619991 54:-1.664924 55:-1.039245 56:1.016533 57:-0.315602 58:-0.977962 59:-0.111376 60:-0.611610 61:-0.719415 62:0.490414 63:-0.574502 64:0.603111 65:0.620015 66:0.833145 67:-0.293830 68:0.213485 69:0.528332 70:-1.820272
-1 1:-0.852082 2:-0.413557 3:-0.968006 4:0.262570 5:1.006176 6:-1.515986 7:-0.524726 8:1.040392 9:0.222118 10:-0.396071 11:1.238826 12:-0.883338 13:-0.498152 14:-1.499514 15:1.069431 16:-0.275568 17:-1.072925 18:-0.072295 19:-0.220226 20:-0.819026 21:0.863129 22:0.172326 23:-0.937563 24:-0.619564 25:-1.159723 26:0.104362 27:-0.187512 28:-1.781262 29:0.265403 30:2.008823 31:0.123938 32:-1.837128 33:-0.078431 34:0.216057 35:0.833887 36:-1.266575 37:0.783574 38:0.737580 39:0.632900 40:0.345960 41:-1.187201 42:-0.560745 43:-0.547907 44:-0.407671 45:0.558727 46:-1.665618 47:0.243332 48:1.229638 49:-1.393824 50:1.436193 51:1.158932 52:-0.483970 53:1.174999 54:0.556532 55:-0.278649 56:-1.453070 57:-0.623099 58:-0.641059 59:1.790748 60:2.379964 61:0.040730 62:2.289752 63:0.612830 64:0.836522 65:1.853904 66:-0.575501 67:-0.258535 68:-0.476188 69:-0.131327 70:-0.800801
-1 1:1.220397 2:-0.166197 3:0.367315 4:2.939788 5:0.278231 6:1.316979 7:-1.224300 8:0.662293 9:0.752128 10:0.540027 11:-0.285044 12:-0.630731 13:0.539274 14:-0.872868 15:0.110594 16:-0.565350 17:-0.597934 18:1.661022 19:0.581467 20:-0.224067 21:0.691065 22:0.996104 23:-0.018578 24:-1.552553 25:0.071267 26:0.783961 27:0.014966 28:-1.488702 29:-0.928185 30:1.546056 31:1.096647 32:0.303627 33:1.189457 34:0.467446 35:-0.561870 36:0.320143 37:-0.529303 38:-0.788384 39:0.447836 40:-0.529330 41:0.716015 42:-1.093115 43:-0.651184 44:-1.975772 45:0.441603 46:-0.737039 47:-0.549631 48:-0.371323 49:2.857618 50:-1.412442 51:0.581444 52:-0.855427 53:0.179471 54:-0.038447 55:1.592868 56:0.998019 57:-1.763242 58:0.130518 59:-0.586033 60:0.248515 61:0.262112 62:0.228230 63:0.118152 64:0.067836 65:-1.456626 66:1.227387 67:-2.042760 68:0.098940 69:0.928991 70:1.146360
-1 1:0.122921 2:-0.359452 3:-0.633298 4:-0.018731 5:-0.106608 6:0.727759 7:-0.006569 8:0.122132 9:0.271071 10:0.547490 11:0.988743 12:-0.969638 13:-0.638191 14:1.235721 15:0.945642 16:1.145084 17:-0.617896 18:0.041094 19:-0.271005 20:-0.633273 21:-0.751535 22:0.119392 23:1.115876 24:-0.785053 25:1.366817 26:-0.365697 27:0.263084 28:0.294515 29:1.422931 30:0.250597 31:0.307301 32:-0.427874 33:1.293350 34:1.189981 35:1.041963 36:-0.510336 37:-0.059901 38:-0.257636 39:-0.244019 40:1.789410 41:0.928345 42:0.812277 43:0.449142 44:0.429979 45:-0.068343 46:0.459741 47:-1.427687 48:-0.365329 49:0.205793 50:0.644380 51:-0.786768 52:1.272619 53:0.257221 54:0.184964 55:-0.419323 56:0.787064 57:-2.344644 58:1.244941 59:-1.182440 60:-0.310130 61:-1.659940 62:0.388442 63:2.261966 64:-0.992838 65:-0.211896 66:-1.579741 67:-1.552821 68:0.165030 69:-0.789050 70:0.240611
-1 1:-1.021968 2:-1.091720 3:-1.722441 4:0.301802 5:-0.996943 6:0.095202 7:0.293945 8:-0.600749 9:1.028657 10:2.106601 11:-0.185090 12:0.145841 13:0.860476 14:-2.258590 15:-0.750467 16:1.846941 17:-0.434992 18:1.328310 19:1.095219 20:0.165705 21:0.261374 22:0.304256 23:-0.054445 24:-0.742806 25:1.043728 26:-0.388884 27:-0.562391 28:1.001273 29:-0.826352 30:-0.316513 31:0.480435 32:0.190073 33:-1.502396 34:-0.688847 35:0.280179 36:0.481454 37:0.139594 38:-1.290698 39:0.610187 40:-0.949297 41:0.686588 42:-0.160713 43:0.650379 44:-1.602739 45:1.051324 46:0.461414 47:0.788888 48:-0.366591 49:0.220748 50:0.592514 51:-0.683940 52:1.178364 53:-0.414479 54:-0.383354 55:0.644305 56:-0.771158 57:-2.177806 58:-1.349744 59:1.534564 60:0.265032 61:-1.310333 62:0.028335 63:-2.346459 64:-0.040771 65:0.765032 66:-0.324756 67:-0.806372 68:0.369774 69:-0.033452 70:0.574968
-1 1:-1.631185 2:-1.571178 3:0.656118 4:0.124933 5:0.396713 6:1.504292 7:-0.190049 8:0.553168 9:-0.500048 10:-0.814641 11:0.551382 12:-1.008488 13:0.889221 14:1.594265 15:0.258591 16:0.559249 17:0.084800 18:-0.025450 19:1.157457 20:-0.098726 21:-0.926875 22:-1.427456 23:0.476809 24:-0.204854 25:0.040235 26:0.652628 27:0.413210 28:0.862453 29:-1.231753 30:-0.611626 31:0.778868 32:-0.074115 33:1.187586 34:1.199548 35:-1.698399 36:-0.611223 37:-0.857823 38:-0.236338 39:-1.913015 40:0.286737 41:0.207439 42:-0.074118 43:0.604625 44:-0.282105 45:1.575788 46:-2.006922 47:-0.140553 48:-0.611737 49:-0.275150 50:-0.835697 51:-1.026259 52:0.934854 53:1.232256 54:1.810307 55:-0.524506 56:0.391629 57:0.449790 58:-0.450933 59:-0.757344 60:0.045053 61:-0.936056 62:-0.465714 63:0.387659 64:1.374003 65:0.676404 66:-0.371704 67:-1.598494 68:-1.295504 69:0.521540 70:-1.109275
-1 1:-0.756765 2:-0.956135 3:0.837532 4:-0.415391 5:1.031998 6:2.189353 7:0.457514 8:-1.327558 9:-2.152660 10:1.902510 11:0.238423 12:-0.538893 13:0.338061 14:-1.417184 15:-2.235016 16:-0.994671 17:0.863664 18:0.211528 19:0.082714 20:-0.224789 21:0.247005 22:2.843245 23:0.215255 24:0.183508 25:-0.087656 26:2.551538 27:-0.862223 28:0.115745 29:0.151756 30:-1.213999 31:-0.088441 32:0.104982 33:-0.755288 34:1.263195 35:1.282412 36:-0.664125 37:-1.294031 38:-0.728854 39:-0.589752 40:0.716296 41:-0.130520 42:1.049028 43:0.254920 44:-2.467967 45:0.608171 46:-1.394848 47:-0.389989 48:0.025431 49:-0.882016 50:-2.287806 51:-0.158625 52:-0.058726 53:0.109556 54:1.764083 55:-1.247121 56:0.064518 57:0.221681 58:-1.469534 59:-3.580570 60:-0.313891 61:-1.936659 62:0.188973 63:-0.655724 64:-0.669331 65:0.330238 66:-2.039680 67:0.591048 68:-0.966459 69:0.244735 70:0.978229
-1 1:0.416836 2:0.181539 3:0.429090 4:0.586076 5:0.029220 6:0.258421 7:-1.048210 8:-1.096612 9:0.283536 10:-0.069068 11:-1.906659 12:0.639107 13:-1.531323 14:-0.663539 15:-0.258983 16:0.654799 17:0.637992 18:-0.520061 19:-0.538469 20:0.754444 21:-0.416987 22:1.928817 23:1.194233 24:0.952631 25:-0.443509 26:-1.271385 27:0.450065 28:-0.490510 29:-0.367050 30:-0.046297 31:0.445408 32:-0.577705 33:-0.057148 34:0.059756 35:1.157479 36:-0.609299 37:-0.081238 38:0.788528 39:0.862830 40:1.132939 41:0.038902 42:-0.139855 43:0.238515 44:1.033439 45:-0.173442 46:-1.551157 47:0.725355 48:1.132532 49:-0.309898 50:-0.369587 51:-2.566194 52:0.704550 53:-0.512481 54:2.231631 55:1.034447 56:0.201264 57:-0.663347 58:-1.134524 59:-1.097799 60:-0.791310 61:-0.139539 62:2.007080 63:-1.587480 64:1.427078 65:0.285177 66:-0.239179 67:0.154912 68:0.797438 69:0.296665 70:-1.117670
-1 1:1.377859 2:-0.156603 3:-0.141137 4:0.716982 5:-0.244923 6:0.716009 7:-0.117022 8:-0.105301 9:-0.243991 10:0.237846 11:-1.754939 12:-0.125051 13:0.121566 14:-0.787103 15:-2.418722 16:-0.211075 17:1.408801 18:-0.457878 19:-0.804677 20:0.857635 21:0.037608 22:0.742092 23:1.138444 24:0.030461 25:-0.609290 26:-0.806440 27:0.019314 28:-2.027659 29:0.893064 30:0.076588 31:0.241681 32:-1.174545 33:0.510010 34:0.641025 35:-0.117227 36:-1.810109 37:-0.185085 38:-1.363683 39:0.677320 40:-0.396747 41:-0.201311 42:-0.585791 43:0.124895 44:1.201362 45:-0.649056 46:1.812623 47:0.640094 48:-0.228293 49:-0.145471 50:-0.587780 51:-0.360899 52:-0.087284 53:1.811663 54:-0.320354 55:0.998497 56:-0.848600 57:-0.051710 58:-0.001022 59:-0.234891 60:-0.824730 61:0.820417 62:0.764931 63:-1.442535 64:1.871111 65:-0.406865 66:-1.072290 67:1.735374 68:0.553637 69:1.085051 70:1.681053
-1 1:-1.900679 2:-1.351513 3:0.708004 4:1.455026 5:-0.577085 6:-1.443878 7:1.387203 8:-0.676269 9:0.914554 10:0.950967 11:0.746368 12:0.710125 13:-0.769842 14:1.210738 15:0.124276 16:-0.421567 17:-0.189124 18:-3.372682 19:0.658334 20:1.596078 21:-0.789761 22:0.847658 23:-0.255211 24:-0.507332 25:-0.561254 26:0.096225 27:-0.592369 28:-0.067544 29:-0.770888 30:1.800596 31:0.628000 32:0.790882 33:1.402136 34:0.932964 35:0.535639 36:-0.071272 37:-0.160619 38:0.640077 39:-0.195145 40:0.533656 41:-1.207235 42:-0.349261 43:0.675380 44:-1.691422 45:-1.161409 46:-0.258481 47:-0.878695 48:-1.464421 49:-0.757062 50:0.061916 51:-0.707125 52:-0.477574 53:-0.412301 54:0.670554 55:0.115895 56:-0.218808 57:-0.586200 58:0.443836 59:0.124834 60:1.064066 61:0.100784 62:0.813178 63:0.291624 64:-1.007351 65:-1.082762 66:1.115345 67:1.033926 68:-2.126515 69:0.336674 70:0.197438
-1 1:-1.340112 2:-1.133750 3:0.069511 4:-0.435861 5:-0.778670 6:-0.495133 7:-0.474664 8:1.563798 9:0.567865 10:-1.383932 11:1.060171 12:-0.038723 13:-0.861696 14:0.744779 15:-0.106431 16:0.255564 17:-0.104703 18:0.202572 19:-0.425603 20:0.438827 21:-1.701555 22:1.169926 23:0.624865 24:-0.390972 25:-0.397523 26:0.068553 27:1.759990 28:0.519713 29:-1.365257 30:0.558877 31:-1.740905 32:-0.126377 33:0.567669 34:1.729606 35:0.110660 36:-0.622534 37:-0.187715 38:-0.169595 39:0.239608 40:-0.063514 41:-0.646608 42:0.966811 43:1.378839 44:0.521806 45:-0.857479 46:-0.064382 47:-1.230932 48:-0.971285 49:0.312617 50:-0.474927 51:0.698322 52:-0.230790 53:0.015736 54:0.504373 55:0.125688 56:-2.430732 57:1.009634 58:-0.161529 59:0.691838 60:-0.117992 61:0.669030 62:-0.867982 63:-0.594486 64:1.943105 65:0.539369 66:1.085116 67:-0.266798 68:-0.298163 69:0.967067 70:1.496295
-1 1:0.691192 2:-0.127778 3:1.483099 4:-0.840875 5:1.374807 6:-1.629814 7:0.845093 8:-2.405312 9:-0.142229 10:-0.799648 11:2.282617 12:-0.420565 13:-0.452595 14:1.957912 15:0.278807 16:0.709213 17:-0.369044 18:-0.049636 19:-0.885076 20:-0.010383 21:0.323017 22:0.475116 23:-0.744905 24:-0.546753 25:-1.546394 26:-1.608489 27:0.490930 28:-0.883503 29:0.374464 30:0.224478 31:0.768490 32:2.682704 33:0.792251 34:-0.687689 35:1.487159 36:-1.220673 37:0.579573 38:-1.432284 39:0.805323 40:0.293368 41:-2.147234 42:-1.492515 43:-0.210062 44:-0.361564 45:0.869523 46:2.151981 47:0.305505 48:-0.727424 49:-1.564249 50:1.181206 51:0.477376 52:1.463765 53:-0.576367 54:-1.151291 55:-1.384812 56:-0.013656 57:1.488548 58:0.140740 59:-0.434153 60:1.695198 61:1.592194 62:0.213223 63:-0.602599 64:-0.452617 65:0.925403 66:1.455140 67:-0.672263 68:-1.178915 69:-0.975172 70:-0.696435
-1 1:1.793198 2:-0.132224 3:-0.809525 4:0.947190 5:0.027060 6:0.656545 7:-0.268454 8:-0.801727 9:0.116012 10:-0.725664 11:0.107086 12:-0.884812 13:0.554534 14:0.326664 15:0.795260 16:-0.932136 17:-0.739307 18:0.335194 19:0.861090 20:-0.237561 21:-2.009886 22:-0.158699 23:1.043626 24:0.415328 25:1.973634 26:-0.563099 27:-0.937690 28:0.114013 29:-3.336031 30:-0.239763 31:0.747770 32:2.761275 33:0.668951 34:-2.126226 35:0.537176 36:0.440624 37:-1.283805 38:0.178012 39:1.161875 40:-0.585256 41:-1.207781 42:0.328884 43:-1.913410 44:0.127206 45:0.887672 46:-1.470202 47:1.046540 48:0.625875 49:2.205571 50:0.588703 51:0.528241 52:0.320023 53:-1.084060 54:-0.287778 55:-0.681983 56:0.807424 57:-0.989439 58:-2.239379 59:-1.005986 60:1.145559 61:-0.118830 62:0.584008 63:0.500859 64:-2.426141 65:0.190511 66:0.185638 67:-0.121134 68:0.024971 69:0.282210 70:1.029999
-1 1:1.259433 2:-0.420032 3:1.760759 4:0.533166 5:0.912626 6:1.632566 7:1.362336 8:1.333994 9:0.613833 10:-2.064039 11:-1.324560 12:-0.049581 13:-0.548868 14:-0.256904 15:1.857240 16:2.215802 17:0.744052 18:1.320304 19:-0.750477 20:0.708676 21:-1.290952 22:0.232179 23:0.676533 24:-0.683849 25:0.483204 26:0.110945 27:0.444081 28:0.879016 29:-0.404171 30:0.059194 31:-1.404342 32:0.341442 33:-0.744118 34:-1.489105 35:-0.225333 36:1.366895 37:-1.156101 38:-0.409066 39:-0.790585 40:0.528202 41:-1.222652 42:-0.866023 43:0.308219 44:0.123954 45:0.941150 46:-1.185177 47:-1.606424 48:0.217338 49:-1.006119 50:-1.227048 51:0.398905 52:1.413025 53:-2.694920 54:1.546971 55:-0.984572 56:0.321607 57:1.132039 58:0.621054 59:-0.085781 60:-1.294739 61:-0.917589 62:0.516002 63:0.898833 64:1.486018 65:-0.432923 66:-1.224474 67:1.205192 68:-1.127096 69:1.170975 70:0.685154
-1 1:-0.073143 2:1.227385 3:-1.805331 4:0.571644 5:0.862295 6:-0.648982 7:-0.498424 8:-0.719458 9:1.140398 10:1.226480 11:0.415934 12:-0.880868 13:-0.903104 14:0.187141 15:-1.224249 16:-0.708728 17:1.807779 18:1.394190 19:-0.905961 20:1.715162 21:1.101293 22:-1.066511 23:-1.243866 24:1.665004 25:0.338026 26:0.720048 27:-0.952587 28:-1.289449 29:0.013570 30:0.215627 31:0.097338 32:0.277971 33:-1.812672 34:-0.425164 35:-0.613840 36:-1.208831 37:-0.150423 38:0.281332 39:1.318296 40:-0.004987 41:-0.215270 42:0.084139 43:-0.538390 44:0.927530 45:0.762764 46:0.540945 47:0.262143 48:-1.036717 49:-1.735485 50:0.478464 51:1.438213 52:-0.453065 53:0.381312 54:0.490554 55:-1.798992 56:0.335019 57:-1.256406 58:-0.876315 59:-0.375430 60:-0.295880 61:0.649057 62:-0.015598 63:0.551802 64:0.171304 65:0.145427 66:0.613488 67:-1.416229 68:-1.423556 69:2.407979 70:-0.806173
-1 1:-1.004381 2:-1.308866 3:1.015236 4:-0.336808 5:0.278800 6:-1.630030 7:-1.675292 8:0.503866 9:1.185090 10:1.147445 11:-0.963352 12:0.868831 13:0.438978 14:0.236185 15:-0.125941 16:0.247184 17:2.237925 18:1.161940 19:-1.246621 20:2.153147 21:1.448475 22:-1.194579 23:0.338756 24:1.073469 25:-0.120199 26:0.480796 27:-1.337113 28:0.062718 29:1.421341 30:-1.693075 31:-0.976707 32:0.246229 33:-0.926970 34:-1.111995 35:2.034716 36:0.515578 37:-0.180762 38:0.520870 39:0.691640 40:-1.211592 41:-0.981706 42:-1.497098 43:-0.362064 44:0.478503 45:-0.771464 46:-0.815923 47:0.962628 48:0.003143 49:0.148049 50:-0.441778 51:0.235443 52:0.380498 53:-1.259718 54:0.018045 55:-0.640901 56:-0.763635 57:-1.356033 58:-1.322934 59:2.161475 60:0.210720 61:-1.012320 62:0.550881 63:-0.625116 64:-0.018908 65:0.308160 66:-0.690906 67:-1.553220 68:-1.332540 69:0.217618 70:0.424622
-1 1:-0.577624 2:-0.669772 3:-1.222271 4:0.117047 5:0.157068 6:-2.448957 7:0.942562 8:-1.434130 9:1.515686 10:-0.646569 11:0.136348 12:-0.612279 13:-1.610020 14:-1.135829 15:-1.628896 16:-1.130423 17:0.397561 18:-0.280881 19:0.889966 20:-1.504563 21:1.403056 22:-0.687626 23:0.077182 24:-0.223534 25:2.495482 26:0.714250 27:-0.273892 28:-0.222127 29:1.004054 30:-1.991787 31:-0.525628 32:-0.744697 33:-1.470417 34:0.497965 35:0.415609 36:-1.297146 37:-0.554461 38:-1.648032 39:-1.017436 40:-0.282078 41:0.838664 42:0.551374 43:0.371506 44:0.153465 45:-0.286349 46:1.037217 47:-0.300322 48:-0.743609 49:0.445386 50:-0.427014 51:0.111675 52:-0.132438 53:0.116695 54:-1.598485 55:1.603762 56:-2.181634 57:-0.345873 58:0.567656 59:0.433302 60:-0.681487 61:1.572042 62:-0.265951 63:1.343239 64:-0.040030 65:0.545765 66:0.179707 67:-0.326558 68:-1.896061 69:0.737329 70:0.115578
-1 1:-0.284511 2:0.745083 3:-0.543069 4:-1.580320 5:-0.112175 6:-0.530378 7:-0.382398 8:0.970567 9:0.812339 10:2.039738 11:-0.102220 12:0.815863 13:-0.568030 14:0.950193 15:-0.276846 16:-1.853163 17:-0.321343 18:-1.562765 19:1.406941 20:-0.799057 21:-1.102614 22:0.970938 23:0.034672 24:-0.263685 25:-0.125917 26:0.941841 27:-0.975748 28:1.827810 29:0.487633 30:-1.168678 31:-1.201961 32:0.211275 33:-0.672145 34:-1.325168 35:-1.569389 36:-1.411952 37:2.253802 38:1.842503 39:1.126249 40:0.634075 41:0.431239 42:-3.388076 43:0.589237 44:-0.467855 45:-1.460460 46:0.727835 47:0.998963 48:1.073791 49:0.146353 50:0.411621 51:-0.244553 52:-1.421015 53:-1.619686 54:2.088365 55:0.555356 56:-2.081159 57:-0.634103 58:-1.244014 59:-0.211908 60:0.029414 61:-0.484467 62:-0.374842 63:-0.325867 64:-0.541309 65:0.757213 66:-0.075717 67:-0.131727 68:0.259169 69:-0.798013 70:2.306599
-1 1:0.200720 2:-2.034808 3:0.494514 4:0.084887 5:-0.843827 6:-0.522882 7:0.240429 8:-0.586688 9:-1.121323 10:-1.677613 11:-3.277515 12:0.651358 13:-1.133234 14:0.206756 15:0.301864 16:-1.281397 17:-0.771431 18:1.546142 19:0.925647 20:0.680609 21:-1.163171 22:0.764452 23:-1.879123 24:0.298696 25:1.929711 26:-0.387534 27:-0.644515 28:0.386087 29:-0.193725 30:0.039021 31:-1.792043 32:0.400639 33:0.402915 34:0.504926 35:0.280186 36:-1.330274 37:-0.887989 38:1.943591 39:-1.578042 40:-2.056014 41:0.236646 42:-1.157141 43:-0.549171 44:0.182255 45:0.365899 46:-0.368121 47:-0.362168 48:0.721325 49:0.712849 50:-0.631728 51:-0.390272 52:-0.544597 53:0.648743 54:1.694567 55:0.954341 56:0.270904 57:2.048638 58:0.840054 59:-0.269020 60:-0.386209 61:1.199756 62:-0.518534 63:0.228151 64:-0.038168 65:0.838713 66:-1.280683 67:0.820136 68:-0.866093 69:-0.353665 70:0.539191
-1 1:-2.612876 2:-0.091209 3:-0.189156 4:-2.399130 5:-0.285944 6:0.023952 7:0.737556 8:0.595198 9:1.677193 10:-0.355766 11:-0.371569 12:1.355295 13:-2.092715 14:-0.902873 15:0.427214 16:0.013523 17:-1.197882 18:-0.401534 19:0.919134 20:0.129682 21:0.736055 22:0.668157 23:-0.377725 24:0.163546 25:-0.882070 26:0.539139 27:1.419484 28:-0.108467 29:-0.319489 30:-0.200672 31:-1.034345 32:-0.287782 33:-1.281465 34:-0.022713 35:-0.352980 36:0.459357 37:0.253988 38:1.676607 39:-0.629550 40:0.835323 41:-0.185488 42:1.011698 43:-0.519090 44:-0.092657 45:-0.104956 46:0.245775 47:0.946298 48:-0.223570 49:-0.044923 50:0.401625 51:-0.615025 52:0.811482 53:1.271757 54:-0.772690 55:-3.022969 56:-1.779915 57:-0.135331 58:0.284876 59:1.655386 60:1.800126 61:0.249348 62:0.051754 63:-0.317685 64:-0.764029 65:-0.316441 66:0.785051 67:1.490807 68:-1.609947 69:-0.411188 70:-1.284538
-1 1:-1.857506 2:-0.922388 3:1.204056 4:0.608044 5:-0.169463 6:1.782952 7:1.410751 8:1.365026 9:0.543513 10:0.572261 11:2.198110 12:-0.305758 13:-1.231979 14:-0.078216 15:-0.230692 16:-1.492257 17:0.616892 18:1.491099 19:1.465691 20:-0.193798 21:2.148431 22:0.866420 23:0.384967 24:1.005351 25:-1.418614 26:-1.164186 27:0.313318 28:-1.599483 29:-0.475009 30:1.763564 31:2.617965 32:-0.109188 33:0.920658 34:0.098015 35:-0.526124 36:-0.066826 37:0.711477 38:2.398448 39:-1.303706 40:-1.063585 41:-0.816864 42:-0.187499 43:0.484170 44:-0.365823 45:-0.703567 46:0.062509 47:-0.299783 48:-1.182172 49:0.926334 50:-0.882851 51:0.461887 52:0.134914 53:-0.439692 54:0.697253 55:1.049614 56:0.528515 57:1.140737 58:-0.047711 59:0.594833 60:-0.465911 61:-0.528031 62:0.836626 63:-0.207266 64:-0.691093 65:-0.965037 66:-0.105772 67:0.682166 68:0.118164 69:0.840887 70:0.276587
-1 1:0.253287 2:-1.549437 3:-0.265456 4:-0.194384 5:-1.489313 6:0.393698 7:-1.039443 8:0.078996 9:1.021454 10:-0.166254 11:0.780815 12:-0.444862 13:0.635147 14:-1.125801 15:1.048739 16:-1.829843 17:0.809527 18:-0.864829 19:1.133286 20:0.069545 21:-0.307496 22:-1.500702 23:0.793094 24:-0.148772 25:0.115366 26:-0.778503 27:-0.046886 28:-0.938616 29:-0.014128 30:-0.440325 31:0.853211 32:-2.103467 33:-0.438132 34:0.445109 35:0.276371 36:1.463324 37:0.343609 38:-1.687052 39:-0.196731 40:-1.103155 41:-0.084534 42:-0.626247 43:0.346283 44:-0.340771 45:-0.034558 46:-0.479712 47:-0.619166 48:-0.980356 49:1.717198 50:0.097996 51:-1.259745 52:0.264503 53:0.495519 54:-1.314707 55:0.797263 56:-2.667509 57:-0.279014 58:-0.466672 59:-0.940665 60:1.142512 61:-0.676753 62:-1.578249 63:-0.296368 64:-0.109303 65:2.053481 66:-0.655699 67:0.554098 68:-0.276324 69:-0.786994 70:0.545770
-1 1:3.416711 2:-1.169922 3:0.971123 4:-0.572001 5:-0.487617 6:-0.251316 7:-1.819110 8:-0.459162 9:1.479454 10:-0.763251 11:0.396941 12:0.643802 13:-0.079632 14:1.648372 15:0.180532 16:-0.693350 17:-1.286140 18:-0.797839 19:-1.423936 20:-1.404195 21:0.116401 22:0.061020 23:-0.606038 24:0.655308 25:1.646481 26:0.847896 27:1.697418 28:-1.252995 29:0.858932 30:0.634453 31:-0.083267 32:-0.863843 33:-0.596808 34:2.510477 35:0.937634 36:2.615124 37:-1.961810 38:-2.237601 39:-1.143970 40:1.862298 41:0.130374 42:1.012563 43:0.540408 44:1.690651 45:-0.611713 46:-0.603646 47:-0.943889 48:-0.843527 49:-0.058684 50:0.435565 51:-0.135682 52:0.177133 53:0.773300 54:1.456702 55:0.009792 56:1.703716 57:0.412523 58:0.759682 59:2.633532 60:0.151666 61:-0.141012 62:-0.133737 63:1.765259 64:1.130551 65:0.548185 66:0.731351 67:1.740928 68:-1.113443 69:-1.065886 70:0.736791
-1 1:-0.158937 2:-0.656150 3:0.210230 4:0.466109 5:-0.465593 6:0.475836 7:-0.665101 8:1.040273 9:2.803832 10:-0.446551 11:-0.542179 12:-0.300515 13:1.615611 14:-0.565359 15:0.100311 16:0.189575 17:-0.732510 18:0.327014 19:-1.116275 20:1.473834 21:1.176700 22:0.490153 23:-0.488185 24:-0.053456 25:1.896091 26:2.216112 27:2.092800 28:0.003777 29:0.117303 30:-0.964119 31:1.955881 32:-0.615240 33:-0.240684 34:1.222479 35:0.489004 36:0.964441 37:-0.357908 38:0.117078 39:0.639747 40:-1.718612 41:0.153756 42:-0.121773 43:0.537481 44:-2.228615 45:2.081330 46:0.959354 47:-0.563229 48:-2.016623 49:0.160783 50:-0.244993 51:0.568001 52:1.050337 53:0.141918 54:-2.774600 55:1.838985 56:-0.857974 57:-0.062441 58:-0.638202 59:0.618780 60:-0.309794 61:-0.424343 62:-0.073740 63:-1.151263 64:-0.462909 65:-1.316593 66:-0.039400 67:-1.349175 68:0.624323 69:1.010126 70:-2.303240
-1 1:0.076908 2:0.770021 3:2.383348 4:-0.326859 5:-0.308548 6:1.528883 7:0.318200 8:-0.391418 9:1.098860 10:0.081040 11:0.252876 12:1.229300 13:-0.042284 14:0.141253 15:1.172056 16:0.973747 17:0.476966 18:1.171771 19:0.227297 20:-0.167443 21:-0.503924 22:-0.161425 23:0.619789 24:-0.056940 25:-0.321253 26:-0.078087 27:0.204292 28:-1.605925 29:0.624830 30:-0.329671 31:1.451439 32:1.072381 33:1.608551 34:0.262785 35:0.539001 36:0.128166 37:0.830746 38:0.115903 39:0.179148 40:0.244057 41:0.952020 42:-1.619419 43:0.374324 44:-0.941365 45:1.806684 46:-0.443868 47:-0.479033 48:0.248836 49:-0.762415 50:0.412305 51:1.285057 52:1.225984 53:-0.855289 54:-0.833775 55:1.028777 56:0.083207 57:-1.715732 58:-1.363898 59:-0.911549 60:-0.928380 61:-0.296255 62:1.284372 63:-0.807364 64:0.746809 65:-0.224473 66:-1.134220 67:0.039709 68:0.915301 69:0.976572 70:-1.905153
-1 1:-0.491230 2:-1.762558 3:1.032118 4:-0.707252 5:-1.879323 6:-0.068672 7:0.516760 8:-0.357624 9:-1.184937 10:-0.124459 11:1.409304 12:-0.087638 13:-0.689873 14:0.098925 15:0.772587 16:-1.542233 17:1.397324 18:0.598663 19:-0.835161 20:0.197676 21:1.054124 22:-0.162197 23:-0.622417 24:-0.264221 25:0.211500 26:1.587924 27:-0.235368 28:0.846467 29:-0.846165 30:0.712621 31:-0.166214 32:-0.183335 33:0.325151 34:0.239456 35:-0.017539 36:-1.292076 37:1.798696 38:1.234705 39:1.791988 40:0.708140 41:-1.001828 42:0.624882 43:-0.369290 44:0.541671 45:-0.736460 46:0.146408 47:-0.630146 48:1.015139 49:0.438820 50:0.845691 51:-0.584824 52:1.251925 53:0.159253 54:1.080404 55:0.198766 56:-0.089539 57:-1.012392 58:-2.521550 59:-0.305391 60:-1.002203 61:-0.821651 62:-0.193993 63:-0.278907 64:-0.555259 65:-1.113572 66:0.161994 67:-1.264299 68:0.581305 69:-0.527685 70:-0.706259
-1 1:0.848581 2:-1.223446 3:0.282180 4:-0.437210 5:-0.698065 6:-0.304954 7:-1.807037 8:-1.217635 9:-1.583298 10:0.653616 11:1.091164 12:1.602961 13:-1.863918 14:-0.220698 15:-0.220735 16:0.388346 17:0.594831 18:-2.211441 19:-0.712138 20:-0.078976 21:0.239877 22:-0.988564 23:0.238331 24:0.729793 25:-1.588193 26:1.748521 27:0.155671 28:-3.331154 29:0.316386 30:1.090475 31:1.571350 32:0.595116 33:0.601946 34:-0.175450 35:-0.183630 36:-0.886038 37:0.545711 38:0.574505 39:0.066935 40:-0.858994 41:0.897766 42:-0.377355 43:-0.684211 44:-0.673985 45:-0.728425 46:-0.644524 47:-1.086512 48:-0.942138 49:1.491008 50:-0.984355 51:-0.389179 52:-1.038842 53:0.602832 54:-0.388231 55:0.958424 56:0.145539 57:1.906593 58:-0.456044 59:-0.556890 60:-0.165341 61:0.277715 62:-1.059236 63:1.798746 64:-0.628557 65:1.667445 66:-0.352295 67:-0.963981 68:-0.804862 69:-0.411739 70:-0.295674
-1 1:-0.702874 2:-0.905723 3:-0.644681 4:0.168619 5:-2.052907 6:0.384986 7:-0.425170 8:0.125214 9:1.559257 10:0.005154 11:-0.416177 12:0.860601 13:0.098120 14:-0.391184 15:1.558801 16:-0.707891 17:-1.204837 18:0.005893 19:-0.411063 20:1.202165 21:0.971005 22:0.822584 23:-0.257555 24:-0.670692 25:2.859979 26:-2.331957 27:1.068299 28:2.024238 29:-0.038518 30:-1.845504 31:-1.783747 32:-0.962840 33:2.594757 34:-0.243713 35:-1.544568 36:0.391001 37:1.877115 38:-0.844638 39:-0.040908 40:-1.702025 41:-0.464262 42:-0.225393 43:-0.102041 44:0.786964 45:-1.811800 46:-0.485987 47:-2.285394 48:-0.636498 49:-0.311017 50:0.620934 51:0.153256 52:-2.394872 53:0.991853 54:0.256017 55:-1.316035 56:-1.625487 57:-0.410359 58:-0.312218 59:-1.676838 60:-0.329162 61:1.173088 62:0.964558 63:-0.385206 64:-1.799727 65:1.193903 66:1.117930 67:-0.074692 68:0.635847 69:-0.132129 70:-0.569698
-1 1:-0.129787 2:0.345519 3:0.369506 4:-1.693290 5:-1.402099 6:-0.067309 7:1.036550 8:-0.879423 9:-0.292851 10:-0.721001 11:1.368516 12:-0.862010 13:0.681613 14:-0.017339 15:0.061494 16:1.464123 17:0.139726 18:-0.624395 19:-1.695282 20:0.186188 21:-2.465142 22:-0.118375 23:-0.817891 24:1.471690 25:0.545063 26:-0.009133 27:0.224713 28:0.151692 29:2.091511 30:0.363787 31:-1.168048 32:0.768375 33:0.046025 34:-0.010155 35:-0.516748 36:0.116292 37:0.325021 38:0.588711 39:1.839429 40:1.000679 41:-0.324439 42:0.300535 43:1.244740 44:-0.757129 45:0.093826 46:-0.037414 47:0.885053 48:0.423566 49:-0.065973 50:0.171209 51:-1.882973 52:-0.256981 53:-0.371475 54:1.618668 55:-1.607055 56:-0.889758 57:0.029775 58:0.175395 59:-1.893499 60:0.593484 61:-0.619007 62:-1.327218 63:-0.123089 64:0.056060 65:-1.362047 66:-0.952750 67:-1.058422 68:0.118324 69:0.215718 70:0.012033
-1 1:-0.227782 2:0.096016 3:0.450869 4:-0.739717 5:-0.484882 6:0.850805 7:-0.009435 8:0.951090 9:0.062179 10:-0.862285 11:1.002357 12:-1.439971 13:2.131579 14:2.859475 15:-0.987552 16:0.500233 17:-1.928740 18:0.297141 19:-0.421091 20:-0.839297 21:-0.364618 22:-0.749395 23:-1.206608 24:-1.555467 25:-1.334190 26:-1.011301 27:-0.633200 28:-0.286229 29:2.136680 30:0.710059 31:-0.865992 32:0.447116 33:0.673971 34:0.985153 35:-1.195939 36:0.300731 37:0.478724 38:-1.994419 39:0.225082 40:1.180653 41:0.368027 42:-0.637572 43:-1.373375 44:-0.128677 45:-0.557571 46:0.382933 47:0.854740 48:-0.028574 49:0.189756 50:-0.520914 51:0.785463 52:-1.185905 53:0.925983 54:0.463564 55:-2.379711 56:0.356187 57:0.411334 58:0.668622 59:-1.025629 60:0.213884 61:0.079800 62:0.603470 63:0.132139 64:-0.640292 65:-0.958553 66:0.440070 67:-0.462399 68:-0.610347 69:-1.028608 70:0.981386
-1 1:0.339943 2:1.235778 3:-0.561490 4:0.520026 5:-1.427249 6:-0.121018 7:-1.417917 8:0.543696 9:0.327267 10:-0.789503 11:-0.096399 12:1.824570 13:-0.175505 14:1.281077 15:0.089674 16:0.956152 17:-0.220233 18:-1.281297 19:-1.221705 20:-1.264360 21:-0.549972 22:-0.390131 23:0.311809 24:0.397697 25:1.855732 26:-1.224891 27:0.014825 28:-0.503896 29:0.877760 30:0.507199 31:-0.325958 32:-0.435848 33:-0.220390 34:-0.712112 35:0.411379 36:0.411818 37:-0.670670 38:-0.010497 39:-0.002963 40:-0.418553 41:0.152437 42:-0.622610 43:0.924922 44:-1.170974 45:-1.267529 46:-0.457455 47:0.498229 48:-0.828784 49:-0.045843 50:1.636807 51:-1.449625 52:-0.086886 53:-0.469359 54:-1.763646 55:0.086908 56:0.398402 57:0.427819 58:0.947847 59:-1.313109 60:-1.246884 61:0.815930 62:0.304678 63:-1.416171 64:-0.721280 65:-1.561456 66:-0.910103 67:0.242083 68:1.295111 69:-1.368065 70:-1.190024
-1 1:-1.864664 2:-1.059385 3:1.131515 4:0.103860 5:-0.932074 6:-0.277464 7:-0.990285 8:-1.630871 9:0.883435 10:-1.100212 11:-0.164920 12:-0.043611 13:0.773660 14:0.697298 15:-0.920220 16:0.086762 17:0.200615 18:-0.161304 19:-0.085099 20:0.402588 21:-0.889964 22:-0.025573 23:-0.810178 24:0.218006 25:3.067371 26:0.424583 27:-1.154207 28:-1.730291 29:-0.420738 30:1.521376 31:0.595429 32:-0.071068 33:-0.699465 34:1.196947 35:-0.084767 36:-3.058426 37:-0.910393 38:1.058773 39:-0.131370 40:1.105573 41:3.087779 42:-0.649931 43:-1.082674 44:0.115176 45:1.509482 46:1.382711 47:-0.370827 48:0.262465 49:-0.760912 50:-0.079664 51:-0.030147 52:0.987392 53:1.733568 54:-0.159506 55:1.057732 56:-0.913120 57:-1.772389 58:0.362526 59:1.370681 60:-0.469149 61:-1.087928 62:0.543559 63:0.748807 64:1.253850 65:-1.381290 66:-0.139637 67:-1.806178 68:1.572491 69:-0.292064 70:1.175405
-1 1:0.113266 2:-0.201746 3:0.266278 4:-1.356723 5:-1.765840 6:-1.008151 7:-2.468431 8:-0.818752 9:0.424300 10:0.477847 11:1.189369 12:-1.027129 13:-1.176869 14:-0.059655 15:0.112866 16:-1.163952 17:-0.259670 18:-0.769855 19:0.782867 20:1.401374 21:-0.872876 22:-1.663899 23:-0.751656 24:2.126891 25:1.456567 26:-0.684218 27:-0.354826 28:-1.592039 29:-0.952116 30:-0.901351 31:-0.618995 32:0.232976 33:0.639168 34:-1.354156 35:-0.330893 36:-0.400320 37:-0.176954 38:2.308660 39:-1.479984 40:-1.271309 41:-0.297343 42:-0.327840 43:0.137397 44:0.023981 45:0.816823 46:-0.665626 47:-1.371748 48:-0.551901 49:0.654446 50:0.896027 51:0.411399 52:1.555112 53:-0.419539 54:1.157779 55:0.103677 56:-0.590172 57:-1.915341 58:1.295180 59:1.341122 60:-1.739270 61:0.131270 62:-0.267782 63:-1.535227 64:0.637637 65:-0.423459 66:-1.037085 67:1.262608 68:-0.123506 69:0.950089 70:-1.283156
-1 1:-0.002576 2:-1.062541 3:-0.406170 4:-1.088696 5:-1.997695 6:-0.224388 7:-2.003741 8:1.160119 9:0.626961 10:-0.869516 11:-1.591903 12:-1.349331 13:1.265733 14:1.396220 15:0.302311 16:2.457870 17:3.120485 18:-0.986390 19:-0.188025 20:-1.292432 21:-1.724185 22:-0.248592 23:-1.512239 24:-0.046038 25:-0.506497 26:0.426577 27:-0.626873 28:0.262426 29:0.295860 30:-1.036318 31:0.253473 32:-1.522108 33:-0.053503 34:0.930549 35:-0.866290 36:-0.493067 37:-1.274073 38:0.229945 39:0.395076 40:0.142721 41:-0.085059 42:-2.110742 43:0.573018 44:0.710943 45:-0.069403 46:0.460923 47:-0.579235 48:1.578929 49:0.496988 50:-0.522268 51:-0.885162 52:-0.068724 53:-0.440864 54:-1.239493 55:0.818701 56:-1.842470 57:-0.144563 58:0.352891 59:-1.030903 60:0.760659 61:-0.551565 62:-0.065615 63:-1.266266 64:-0.139162 65:1.068559 66:-0.313159 67:0.638431 68:-1.839748 69:-0.864598 70:-0.353545
-1 1:1.393521 2:0.399536 3:-1.201614 4:1.475907 5:-0.976417 6:-0.630720 7:1.301686 8:0.181652 9:1.062960 10:-0.252456 11:0.526044 12:-1.045487 13:1.029253 14:-1.022496 15:1.413838 16:-0.679330 17:-1.814253 18:0.116430 19:0.306582 20:-1.866387 21:0.610038 22:1.547113 23:0.136150 24:-1.335740 25:-0.456831 26:0.908464 27:0.031635 28:-0.756880 29:0.715332 30:-0.651666 31:-0.511624 32:0.541042 33:0.797064 34:2.208901 35:1.674816 36:-0.639449 37:0.250614 38:-0.530913 39:1.472066 40:0.620222 41:-0.620849 42:0.357664 43:1.385458 44:0.208921 45:0.913283 46:-0.534367 47:-0.118928 48:-0.672314 49:0.462150 50:-0.873324 51:-1.451799 52:-2.233250 53:0.311510 54:1.083294 55:-0.021195 56:-0.423010 57:-0.643479 58:0.967861 59:0.991492 60:0.825216 61:-1.716822 62:-0.270481 63:0.011275 64:-2.023449 65:0.577117 66:-1.497868 67:-0.734430 68:-0.007241 69:-0.354074 70:-0.902014
-1 1:-0.183237 2:-0.402411 3:-0.598719 4:-1.422833 5:-0.355432 6:1.314575 7:1.235210 8:1.202873 9:0.913943 10:1.648160 11:0.144579 12:-1.238450 13:0.915200 14:0.443618 15:1.909814 16:0.961188 17:-0.686974 18:0.254043 19:-0.146335 20:0.747851 21:1.619026 22:-0.086616 23:0.086803 24:0.283422 25:-0.598418 26:0.042148 27:-0.873127 28:-1.453707 29:-0.691458 30:0.569305 31:-0.038436 32:0.041148 33:1.219224 34:0.272752 35:-0.837974 36:0.429046 37:0.754546 38:-0.607131 39:0.481318 40:0.214986 41:-1.070000 42:0.056812 43:0.139885 44:1.672071 45:0.574429 46:1.015415 47:0.495805 48:0.974972 49:-0.615119 50:-0.693805 51:1.195936 52:-0.074747 53:-2.169534 54:1.622058 55:-1.951086 56:-1.150914 57:-0.086658 58:1.739004 59:-0.266781 60:0.391195 61:-0.651208 62:-0.536119 63:-1.614030 64:0.652253 65:0.273642 66:0.897064 67:0.157431 68:-0.254881 69:0.756077 70:-3.180020
-1 1:-1.207323 2:-1.458173 3:0.465695 4:-0.092038 5:-0.184982 6:0.563951 7:-2.538555 8:0.314011 9:1.517493 10:0.504040 11:-1.485494 12:0.518292 13:2.590269 14:-0.804977 15:0.213722 16:0.815048 17:-0.889868 18:-0.957780 19:0.619010 20:2.264783 21:1.102351 22:1.208647 23:0.606332 24:-0.234781 25:0.462918 26:0.754198 27:1.222639 28:-0.689177 29:-1.893522 30:1.974997 31:0.284705 32:1.262377 33:0.154504 34:-0.790178 35:0.484299 36:-0.682623 37:0.634481 38:0.499707 39:-0.589296 40:0.801649 41:-1.010526 42:-0.000604 43:-1.628101 44:1.509848 45:-1.024566 46:0.759356 47:-1.531126 48:-0.517582 49:1.651504 50:1.027036 51:-1.192702 52:0.964006 53:-0.255498 54:0.780928 55:-0.229861 56:0.790437 57:-1.664702 58:1.303776 59:0.814455 60:0.116695 61:2.206124 62:0.220826 63:0.203373 64:0.702818 65:-0.089871 66:0.121923 67:-0.992018 68:0.656160 69:1.889460 70:-1.435444
-1 1:2.295293 2:-1.141873 3:0.705043 4:0.937870 5:-1.370563 6:-1.145806 7:-0.836485 8:-1.288060 9:-0.211895 10:-0.528074 11:-1.261554 12:-0.343109 13:0.767321 14:-0.041160 15:0.451423 16:-1.709364 17:0.584943 18:0.850256 19:0.173580 20:-0.434417 21:-0.028259 22:1.060270 23:0.521622 24:1.077838 25:0.885781 26:-0.006047 27:0.876897 28:-0.302167 29:1.614677 30:-0.390936 31:1.053186 32:-0.392670 33:-0.827630 34:-0.556567 35:0.182723 36:1.825989 37:-1.279134 38:-1.419296 39:-0.573126 40:0.011436 41:-0.700769 42:-0.051531 43:-0.046824 44:-0.295981 45:1.719595 46:-1.234592 47:-1.749514 48:0.010867 49:-0.179161 50:-1.122815 51:-0.855225 52:-0.258321 53:0.435846 54:-1.303028 55:-0.544559 56:2.565428 57:0.863494 58:-0.498733 59:0.500017 60:0.622149 61:0.458946 62:0.352076 63:-0.355866 64:0.554074 65:-1.108945 66:1.323261 67:-0.568193 68:-0.622919 69:0.965611 70:-0.279037
-1 1:-0.601719 2:0.310530 3:-1.670218 4:-1.795033 5:-0.282489 6:0.021070 7:-0.509497 8:0.065113 9:0.544528 10:-1.817178 11:0.630584 12:-1.085881 13:-0.901977 14:0.002975 15:-0.207825 16:-0.865169 17:1.052239 18:-1.351852 19:0.470128 20:-2.254610 21:-0.960830 22:2.373439 23:-1.516698 24:-0.160807 25:-1.320246 26:0.259601 27:1.725189 28:-0.224254 29:0.989114 30:-0.409662 31:0.038568 32:0.922547 33:1.311379 34:-0.122709 35:2.519397 36:0.512478 37:0.600537 38:1.502007 39:-1.579698 40:-1.081497 41:2.428916 42:0.014620 43:1.918739 44:-1.189959 45:1.991699 46:2.186395 47:0.567957 48:0.530669 49:-0.569827 50:2.030310 51:-0.298537 52:1.325981 53:0.069384 54:0.535468 55:0.173274 56:-2.407871 57:0.339330 58:-0.109284 59:1.411689 60:-1.209141 61:-0.450364 62:0.313115 63:0.665124 64:0.213543 65:-0.224237 66:-0.524110 67:1.301948 68:-1.428324 69:-0.354277 70:-0.889428
-1 1:0.898476 2:-0.943308 3:-0.609969 4:-0.273967 5:-0.411066 6:0.616702 7:-0.830904 8:-2.800267 9:0.218671 10:1.833551 11:-0.035341 12:-0.237275 13:1.213522 14:0.075974 15:-0.973195 16:-0.576132 17:0.050808 18:-0.650917 19:-0.204617 20:-1.195117 21:-0.047250 22:-1.113444 23:0.208491 24:1.452690 25:0.392098 26:1.266792 27:0.749585 28:0.299244 29:1.256962 30:-0.350730 31:1.140766 32:-0.630142 33:-0.080357 34:-0.568259 35:-0.705712 36:0.875143 37:-0.040124 38:0.570609 39:-0.286122 40:0.279912 41:1.894084 42:1.000358 43:0.618117 44:2.357540 45:0.747593 46:1.837437 47:1.650808 48:-1.793975 49:0.126680 50:-1.149661 51:0.027283 52:-0.169778 53:-0.706399 54:1.219463 55:0.367090 56:-0.186095 57:-1.034438 58:0.342829 59:0.812513 60:-0.226866 61:-0.192578 62:0.531994 63:-0.004243 64:-0.352494 65:0.383398 66:1.231900 67:0.799477 68:1.418412 69:-1.721067 70:-0.047450
-1 1:-0.719969 2:-0.488256 3:0.088198 4:1.002174 5:-0.212443 6:0.260768 7:-0.685926 8:-0.057238 9:0.092744 10:-0.454082 11:-0.529229 12:0.202186 13:-0.770231 14:1.244699 15:-0.651308 16:-0.927424 17:-0.666706 18:0.497290 19:-0.582067 20:-1.877863 21:-0.294810 22:0.705951 23:-0.066708 24:0.119835 25:1.497196 26:-0.068834 27:-2.415050 28:-0.108464 29:0.264153 30:1.206593 31:-0.738444 32:1.193503 33:-1.992146 34:0.548870 35:1.882411 36:-1.119809 37:-0.338971 38:-1.215645 39:-2.123847 40:0.215485 41:-1.182032 42:0.639982 43:-1.653150 44:-0.163896 45:-0.918698 46:0.598414 47:-0.619041 48:0.607256 49:-0.940251 50:-1.504155 51:2.312617 52:-1.504551 53:-0.487965 54:-1.831825 55:0.029215 56:0.692501 57:-0.197507 58:0.536193 59:0.417691 60:-1.486272 61:0.324422 62:-0.124071 63:0.307982 64:-0.095013 65:-1.862693 66:-0.967340 67:0.247569 68:-1.940421 69:-0.184958 70:0.439062
-1 1:2.156818 2:0.046605 3:0.148500 4:-1.196171 5:1.154189 6:-1.123427 7:-1.416576 8:2.138282 9:0.238274 10:0.110401 11:-0.510783 12:0.331895 13:-0.312932 14:-0.269266 15:-0.745618 16:-2.623335 17:-0.010252 18:-0.788966 19:-0.328185 20:0.076130 21:-0.222318 22:0.077598 23:0.320660 24:1.171862 25:0.267842 26:1.330618 27:-0.119349 28:-0.339536 29:-0.854228 30:0.936253 31:0.112218 32:-0.191176 33:-0.278628 34:-0.085177 35:-0.221664 36:2.069304 37:-0.601080 38:0.163018 39:2.043955 40:-1.218079 41:-0.563060 42:0.514338 43:-0.036209 44:2.112932 45:-0.680998 46:0.467873 47:0.960537 48:0.205528 49:-0.849573 50:-0.083432 51:1.485699 52:0.573793 53:-1.401230 54:1.977783 55:-0.568808 56:0.619458 57:0.709619 58:-0.299781 59:1.450135 60:1.421507 61:1.162132 62:0.036493 63:-0.016893 64:1.666237 65:-1.189888 66:0.272737 67:-2.437712 68:0.781952 69:-0.183988 70:-0.284834
-1 1:-0.118177 2:-0.013333 3:-0.595998 4:-0.119640 5:-0.782413 6:-1.568720 7:0.361022 8:-0.440775 9:-0.735809 10:-1.194247 11:-0.409673 12:1.108470 13:-0.741164 14:-1.340495 15:-0.433528 16:2.185712 17:2.045220 18:1.854630 19:0.943114 20:0.305543 21:-0.074395 22:-1.286736 23:-0.675679 24:1.758456 25:-1.408849 26:0.728256 27:-0.210212 28:-0.465609 29:-0.265449 30:0.128865 31:1.478998 32:-0.448804 33:3.301104 34:-0.414253 35:0.192281 36:0.836981 37:-1.589061 38:-0.452089 39:1.149640 40:1.946762 41:1.366657 42:0.670171 43:-1.009650 44:-1.059971 45:-1.728398 46:-0.466370 47:0.145863 48:-0.347642 49:0.949777 50:-1.287659 51:-0.027913 52:-0.856268 53:-0.189594 54:0.253275 55:0.039467 56:-0.618194 57:-0.388436 58:-1.191653 59:-2.310736 60:0.674495 61:-0.117188 62:0.796002 63:1.413006 64:1.260072 65:0.029506 66:0.538043 67:1.254626 68:-1.279429 69:0.312469 70:-0.821292
-1 1:-0.625567 2:-0.757788 3:1.554597 4:-0.312595 5:-0.522106 6:1.384116 7:-0.402530 8:1.844972 9:-0.794827 10:1.115524 11:-1.947700 12:0.145821 13:-1.666734 14:-0.331974 15:-2.040326 16:0.445285 17:-0.553864 18:0.512385 19:0.172321 20:1.302162 21:0.154781 22:0.354090 23:-0.279344 24:-0.854817 25:-1.292365 26:-1.536042 27:-0.777272 28:0.222041 29:0.004862 30:-0.475939 31:2.175059 32:0.647778 33:1.370783 34:-1.741574 35:0.607004 36:0.223217 37:1.509883 38:-1.288447 39:0.475554 40:0.429502 41:-0.903213 42:0.682961 43:0.584304 44:0.036403 45:1.017092 46:1.341903 47:-1.453123 48:-0.189378 49:-0.668933 50:-1.130209 51:-1.591530 52:1.825781 53:-2.507410 54:-0.633526 55:-0.310700 56:-1.067880 57:-0.558521 58:-0.355396 59:0.032104 60:-0.624753 61:0.857157 62:-0.702641 63:1.329466 64:-0.527261 65:0.896322 66:1.255263 67:-1.442660 68:0.595915 69:-0.229998 70:0.090685
-1 1:-1.161063 2:-0.069875 3:0.614217 4:-1.698844 5:1.022644 6:1.708711 7:0.810654 8:0.706272 9:0.614993 10:-0.255980 11:-0.190202 12:-2.330466 13:2.674146 14:-0.385969 15:-0.596260 16:-1.725573 17:1.768381 18:0.750189 19:-0.398516 20:-0.883564 21:0.391422 22:0.692793 23:-2.041858 24:0.680699 25:0.984497 26:-0.530405 27:3.454208 28:0.828514 29:-0.663450 30:-0.927496 31:0.308440 32:0.498058 33:0.869715 34:-1.005683 35:0.165551 36:1.396105 37:0.342331 38:-1.155409 39:0.207126 40:1.352125 41:0.928940 42:1.662499 43:1.530890 44:-0.117175 45:0.132792 46:-0.313086 47:-1.859360 48:-1.163679 49:0.791951 50:0.528506 51:0.000437 52:-1.634125 53:-1.636928 54:1.473646 55:1.641743 56:1.386541 57:-0.619045 58:0.076280 59:-0.735175 60:-0.040819 61:1.786215 62:-1.242196 63:-0.097223 64:-1.543847 65:0.664202 66:-0.050351 67:0.774734 68:0.794748 69:-0.284141 70:0.458532
-1 1:-0.221115 2:0.335065 3:-0.996209 4:0.104441 5:0.200457 6:-1.060082 7:1.341754 8:-0.114116 9:-1.092769 10:-0.375401 11:0.398331 12:-0.114416 13:-2.309228 14:-1.046318 15:-0.936272 16:-0.947704 17:-1.154238 18:1.098887 19:0.745459 20:1.143706 21:0.511049 22:0.370172 23:-0.798341 24:-1.782468 25:0.685549 26:1.246382 27:-0.586946 28:-0.081481 29:0.794466 30:0.669588 31:0.104176 32:-0.626823 33:-0.809499 34:-0.194382 35:1.796396 36:1.785761 37:1.282740 38:-0.026020 39:0.094512 40:0.922848 41:1.166010 42:-0.786957 43:0.975371 44:-0.116729 45:0.630200 46:-1.488888 47:-0.116061 48:-0.475148 49:-0.034592 50:-1.737132 51:-0.219907 52:0.083661 53:0.483218 54:0.290323 55:1.137413 56:-0.095652 57:-0.383540 58:-0.986085 59:-0.057307 60:-0.093164 61:0.494787 62:-0.890175 63:-0.866020 64:0.478386 65:-0.187928 66:0.859946 67:-0.781466 68:-0.298094 69:0.585168 70:0.619463
-1 1:1.068069 2:0.967375 3:-1.543544 4:-0.202143 5:-1.290936 6:0.187348 7:-1.858331 8:1.992428 9:0.967291 10:-0.201354 11:-0.461575 12:-1.081060 13:0.221523 14:-1.442118 15:-0.163313 16:-0.429243 17:0.258092 18:0.544325 19:1.087957 20:-1.190447 21:1.005463 22:-0.164087 23:1.312140 24:0.762154 25:0.936916 26:-0.496654 27:0.555344 28:-0.544270 29:-0.237946 30:-0.129665 31:0.861962 32:0.542503 33:-0.156471 34:-1.066260 35:-0.548490 36:1.435543 37:1.415336 38:-1.199182 39:-1.679843 40:-0.092871 41:-0.782337 42:-0.141613 43:-1.637720 44:0.140629 45:0.493719 46:-0.190360 47:-1.143370 48:-1.556775 49:-0.250544 50:1.806774 51:-1.129324 52:-0.935241 53:-0.056292 54:-1.799997 55:0.313766 56:-0.885693 57:-0.145536 58:0.732113 59:0.801382 60:1.517290 61:-0.186728 62:-0.627229 63:-0.607363 64:0.492866 65:0.923656 66:1.752043 67:1.097165 68:-0.387899 69:-0.668770 70:0.952071
-1 1:0.272737 2:0.835656 3:-1.536365 4:1.082097 5:-0.209331 6:2.022057 7:-0.881515 8:-0.193925 9:0.887441 10:0.069562 11:-0.117650 12:0.314461 13:0.755014 14:-0.936200 15:0.703317 16:-0.544940 17:0.755443 18:-0.041149 19:0.974553 20:2.205962 21:1.520651 22:0.410365 23:-1.922108 24:0.092740 25:0.780801 26:-0.388080 27:0.643979 28:-0.322405 29:-0.243972 30:-0.849653 31:1.205331 32:0.951566 33:1.642768 34:-0.170473 35:0.154155 36:-1.440118 37:0.250353 38:0.521921 39:0.174073 40:-0.646653 41:0.146874 42:0.558553 43:-0.341469 44:-1.417844 45:0.945116 46:0.208285 47:0.063305 48:1.182497 49:-0.179252 50:0.139531 51:0.936548 52:-0.874331 53:-1.049564 54:1.665462 55:-0.100357 56:-0.894274 57:-1.198545 58:-1.055459 59:0.082860 60:1.523264 61:-1.417581 62:-1.076951 63:-1.388631 64:-1.426523 65:0.814881 66:-3.151971 67:0.270952 68:-0.644081 69:0.526200 70:0.526356
-1 1:-1.053654 2:-1.200896 3:1.804002 4:0.882172 5:-0.012604 6:0.964879 7:-0.267784 8:-3.007354 9:-1.298323 10:1.604673 11:-0.447919 12:0.195077 13:0.128768 14:-1.015692 15:-0.888199 16:-0.315108 17:0.323676 18:-2.194286 19:0.479455 20:-0.152144 21:1.554919 22:-0.665050 23:0.488094 24:1.041265 25:1.061531 26:0.077853 27:-0.040089 28:-1.572314 29:0.119821 30:0.154996 31:-0.973025 32:-0.201929 33:1.313847 34:-1.893514 35:-0.889440 36:1.015622 37:-0.404421 38:-0.581632 39:-0.337914 40:0.428049 41:0.102188 42:1.471078 43:-1.905952 44:-1.613281 45:-1.365075 46:-0.581748 47:1.216103 48:-1.190364 49:0.173055 50:0.140273 51:-0.694295 52:1.997895 53:-1.114531 54:-0.750466 55:0.840754 56:1.022628 57:-1.182178 58:-0.930479 59:-0.155045 60:0.311414 61:0.352763 62:-0.168698 63:1.663802 64:1.926041 65:-0.088556 66:-2.182476 67:-0.974834 68:1.615718 69:-0.255628 70:0.315875
-1 1:-0.846438 2:-0.337330 3:-1.555222 4:-1.370359 5:-1.525838 6:-0.978958 7:-0.651375 8:0.166957 9:0.463468 10:1.671658 11:-0.977766 12:-0.381330 13:-1.624884 14:1.004653 15:-0.436395 16:0.657920 17:-1.652517 18:1.013279 19:0.926595 20:-0.322286 21:-0.319617 22:0.021660 23:2.015275 24:-0.628558 25:-0.275341 26:-0.316314 27:-1.756711 28:0.503550 29:-1.493219 30:0.824083 31:-0.824663 32:0.572046 33:0.037361 34:1.347682 35:-0.870137 36:-0.701070 37:0.905188 38:1.895167 39:0.380800 40:-0.779531 41:2.574740 42:1.101516 43:-0.409627 44:-0.556910 45:0.197588 46:-0.625860 47:-0.470711 48:0.239638 49:-0.088256 50:0.575780 51:-0.116557 52:0.585706 53:-2.067400 54:-0.888500 55:1.016719 56:-0.422138 57:-0.279976 58:0.213198 59:-0.202139 60:-0.393483 61:0.083631 62:0.414467 63:-0.755240 64:1.138953 65:-0.438194 66:-0.991227 67:-0.783397 68:-1.199487 69:0.440874 70:0.723935
-1 1:-0.827539 2:-0.765199 3:-0.106590 4:-0.460877 5:1.029167 6:-0.803099 7:2.114574 8:-2.106340 9:1.223630 10:-1.139551 11:-0.912730 12:1.724085 13:0.463554 14:1.495582 15:-0.784995 16:0.103006 17:0.637103 18:0.194379 19:0.613910 20:1.024230 21:-0.544471 22:0.430266 23:-0.602191 24:-1.508552 25:0.133520 26:-1.215225 27:-0.602482 28:0.142142 29:-0.774817 30:0.562880 31:1.055107 32:-1.163706 33:-0.763680 34:0.967620 35:0.191940 36:0.370678 37:-0.600985 38:-0.407682 39:-0.531705 40:1.152397 41:0.854824 42:1.463311 43:0.843275 44:-1.396599 45:-0.313434 46:-0.530915 47:2.116897 48:1.214356 49:-2.025315 50:-1.379134 51:0.724016 52:0.325134 53:0.156201 54:1.090230 55:0.093859 56:1.279760 57:-2.036918 58:0.492905 59:-1.573957 60:-1.047947 61:0.516154 62:-0.421007 63:-1.721790 64:-0.637824 65:0.854496 66:-0.467716 67:0.280786 68:-0.404742 69:-0.857317 70:-0.384663
-1 1:-0.727947 2:-0.276400 3:0.648993 4:0.160623 5:-0.833177 6:2.096314 7:-0.626735 8:1.134158 9:-0.737611 10:1.212353 11:0.449657 12:-0.413544 13:0.537620 14:0.073082 15:2.202221 16:0.342367 17:-0.999103 18:-0.077458 19:0.802052 20:-1.418857 21:-0.021739 22:-0.874412 23:-0.671523 24:-0.246061 25:-0.842302 26:-0.460655 27:1.857513 28:-1.211712 29:1.005900 30:-0.687424 31:-1.064396 32:1.967820 33:0.211534 34:-0.039308 35:-0.109680 36:1.047753 37:-0.033089 38:-0.160128 39:1.158045 40:0.246366 41:-0.223796 42:-1.287774 43:-0.504380 44:1.018869 45:-0.021909 46:-1.354398 47:-0.584398 48:-0.685669 49:-1.070268 50:-1.154441 51:-0.224165 52:0.759953 53:0.677410 54:0.464038 55:-0.383950 56:-0.688322 57:0.107198 58:-1.907255 59:1.090161 60:-1.617606 61:0.496881 62:-0.427393 63:0.683979 64:-0.311282 65:-1.631888 66:1.732175 67:-0.922067 68:-0.981088 69:1.067281 70:1.268313
-1 1:-1.061519 2:-1.490767 3:-0.289891 4:0.303062 5:0.840877 6:-0.043810 7:1.073056 8:0.326490 9:-0.137495 10:0.672583 11:-0.064708 12:1.241150 13:-0.645687 14:-0.701011 15:-1.099750 16:-0.022448 17:0.248025 18:0.240600 19:1.567504 20:2.706250 21:0.100281 22:0.700291 23:-0.780403 24:0.178208 25:1.422278 26:-0.101004 27:-1.528462 28:-0.582567 29:0.816118 30:-0.461904 31:-1.034266 32:-1.551193 33:-0.817829 34:1.197357 35:-2.023837 36:-0.211637 37:1.628858 38:0.982231 39:-0.245607 40:-0.462557 41:0.497454 42:-0.443744 43:1.379487 44:0.849591 45:1.341095 46:-1.404855 47:-1.857275 48:0.603639 49:-0.701374 50:-0.597436 51:0.522388 52:0.276429 53:0.031446 54:-0.227878 55:-1.852322 56:1.083994 57:-0.019747 58:0.846229 59:-1.193395 60:0.975025 61:0.026476 62:-0.975353 63:0.610871 64:-0.050468 65:-0.655033 66:-0.005881 67:0.410593 68:-1.390009 69:0.278266 70:0.685669
-1 1:1.381090 2:1.401754 3:-0.142488 4:-1.409241 5:1.372730 6:0.417162 7:0.172286 8:-0.213764 9:0.842382 10:-1.280849 11:-0.939691 12:0.191156 13:-0.139639 14:-1.406120 15:1.010232 16:0.177731 17:-0.050408 18:1.214514 19:-0.542993 20:-0.228838 21:0.352748 22:1.513621 23:1.021869 24:0.549085 25:0.492819 26:1.196991 27:-0.388204 28:-0.497143 29:0.722962 30:-0.670231 31:1.136918 32:1.103684 33:-0.286502 34:0.606432 35:0.412812 36:0.014489 37:-0.307626 38:0.287315 39:-0.373674 40:-1.202848 41:0.251744 42:0.102034 43:-0.151973 44:-1.220047 45:-0.649838 46:-0.829417 47:0.080401 48:-0.248067 49:0.462950 50:-1.107170 51:0.075634 52:1.596625 53:-0.571945 54:-1.605510 55:0.322355 56:-1.321185 57:-0.450653 58:-1.954927 59:-0.123749 60:0.489416 61:-0.328008 62:2.423046 63:0.494325 64:0.663975 65:0.607072 66:-0.020916 67:-0.672294 68:0.906633 69:0.603312 70:0.848738
-1 1:-0.590913 2:0.177471 3:-1.578279 4:0.037171 5:0.185495 6:1.034470 7:0.308214 8:1.565311 9:-0.231181 10:1.254312 11:0.896878 12:-0.072050 13:-0.906647 14:-1.363363 15:-0.809687 16:-1.097575 17:-1.123370 18:-0.098607 19:0.068349 20:0.088734 21:-0.375137 22:0.511740 23:0.788934 24:-0.763597 25:-1.428266 26:0.434050 27:0.114936 28:-0.153983 29:-0.641263 30:-1.746233 31:-1.376716 32:-1.144786 33:2.492000 34:0.288744 35:1.451752 36:0.680322 37:-1.190013 38:0.445987 39:1.038275 40:-0.166107 41:-1.845596 42:0.216065 43:-0.857508 44:-0.095814 45:0.778081 46:0.280422 47:-0.660394 48:-0.183901 49:0.302331 50:0.517988 51:-0.964273 52:0.570363 53:-0.039601 54:-0.260231 55:2.330747 56:0.943371 57:0.505380 58:-0.366916 59:1.370148 60:0.614165 61:-1.199406 62:1.840094 63:-0.482058 64:-0.735538 65:0.115666 66:2.584318 67:-1.906946 68:-0.120504 69:0.372187 70:1.000439
-1 1:0.868299 2:-1.583085 3:-0.574998 4:1.804306 5:-0.378039 6:-0.543895 7:-1.144310 8:-0.627482 9:0.141837 10:-0.039588 11:0.634279 12:-0.392686 13:1.007072 14:-0.423469 15:0.008854 16:1.013622 17:-0.948528 18:0.819733 19:-1.604328 20:-0.257862 21:2.497681 22:0.053438 23:-2.309730 24:-1.546503 25:0.425050 26:-1.140178 27:-0.760501 28:-1.017197 29:-0.687467 30:0.746865 31:1.859754 32:0.337924 33:2.261696 34:1.499770 35:1.675406 36:0.308175 37:0.586161 38:0.620498 39:0.473956 40:-0.003049 41:-1.340460 42:-1.217038 43:-0.126122 44:-0.829985 45:1.267571 46:0.672618 47:-0.867411 48:-0.557635 49:1.326147 50:0.500673 51:-1.114037 52:0.134458 53:0.000854 54:-0.809454 55:0.257469 56:1.355348 57:0.412368 58:-0.725074 59:0.638923 60:2.233267 61:-0.058998 62:-0.259555 63:-0.828496 64:-1.265508 65:1.361686 66:0.533079 67:-2.815556 68:0.382684 69:0.973501 70:-1.245620
-1 1:0.354026 2:2.549046 3:0.767286 4:-0.258298 5:0.825285 6:-1.017648 7:0.840390 8:0.743963 9:0.073827 10:0.544436 11:-0.579410 12:1.965084 13:0.964413 14:1.496368 15:-0.767912 16:-0.635027 17:-0.674894 18:-2.447076 19:-0.351637 20:0.076039 21:1.262180 22:-2.092232 23:-1.853429 24:-0.525402 25:-0.525554 26:-0.295195 27:-1.245167 28:-0.166906 29:1.534675 30:-0.067739 31:0.390329 32:-0.580754 33:0.338125 34:-1.511921 35:-0.230358 36:-1.564721 37:0.646992 38:0.412341 39:-1.606324 40:0.417160 41:1.017478 42:0.343366 43:-0.116583 44:-0.215762 45:-0.452762 46:-0.175217 47:-0.517886 48:0.811462 49:-0.725029 50:0.377936 51:1.516452 52:-0.993372 53:0.434297 54:0.624279 55:1.695449 56:-1.785702 57:0.362674 58:0.092692 59:1.346217 60:-0.077185 61:-0.323244 62:-1.895967 63:-1.521018 64:-1.672481 65:0.147013 66:0.562096 67:-0.509547 68:1.245491 69:-0.161668 70:-0.039293
-1 1:1.044050 2:-0.201321 3:-1.465494 4:-0.086407 5:0.724171 6:-0.637463 7:0.058004 8:1.684534 9:-0.794254 10:-0.536954 11:2.102926 12:-1.029477 13:0.642021 14:0.323912 15:0.617003 16:-0.332789 17:1.275888 18:1.526680 19:1.530453 20:-0.433294 21:-0.780011 22:0.470679 23:0.930080 24:-0.481200 25:1.636286 26:1.260766 27:-0.033047 28:0.149335 29:-1.349148 30:-1.066243 31:0.669277 32:-0.343555 33:-0.451013 34:0.534884 35:0.145803 36:-1.558200 37:0.489176 38:0.891694 39:0.148241 40:-0.437380 41:0.874147 42:0.150118 43:0.386485 44:-0.516850 45:0.534215 46:0.504163 47:-1.331503 48:-0.773128 49:-0.204892 50:0.919630 51:1.419754 52:0.437013 53:-0.420756 54:-0.488757 55:-0.016905 56:-0.159639 57:-1.600270 58:0.482022 59:-0.752850 60:-0.006121 61:-0.992836 62:0.905871 63:-0.315733 64:1.430185 65:-1.916448 66:0.514706 67:-1.430504 68:3.066308 69:-0.695669 70:0.265600
-1 1:-0.956068 2:2.181431 3:-0.012128 4:0.101845 5:1.288535 6:0.998852 7:-0.324131 8:0.010751 9:-0.264809 10:-0.399391 11:-0.381439 12:1.807462 13:1.558736 14:0.234449 15:1.530953 16:1.925121 17:0.576099 18:-1.360987 19:-0.904939 20:0.251724 21:1.675527 22:0.984221 23:-1.811784 24:-0.627431 25:1.185732 26:0.620002 27:0.257746 28:0.098181 29:-0.542458 30:-0.205700 31:-1.908047 32:-1.137076 33:-0.019230 34:1.054865 35:0.244289 36:1.166279 37:-0.072974 38:-0.171848 39:-1.073918 40:-1.992931 41:0.626133 42:-0.262924 43:-1.991911 44:0.348176 45:0.971093 46:-2.082708 47:-0.515132 48:0.647151 49:1.489184 50:0.880461 51:1.478292 52:1.497067 53:1.592027 54:1.093065 55:1.566755 56:-1.427710 57:-0.727453 58:-0.335184 59:0.412110 60:3.797791 61:-0.664977 62:0.389787 63:0.489251 64:-0.803365 65:0.740689 66:-0.540640 67:1.100175 68:-1.111765 69:0.428121 70:-0.713277
-1 1:0.587934 2:-1.342228 3:0.496093 4:-0.395079 5:0.818364 6:-1.379292 7:-0.983654 8:0.619997 9:-0.967764 10:-0.182535 11:0.834503 12:1.915478 13:0.620313 14:-0.310134 15:0.094571 16:0.261148 17:1.458212 18:1.031829 19:-0.467001 20:0.009595 21:0.059140 22:0.616213 23:-0.104824 24:-0.655984 25:-0.519720 26:1.671868 27:-0.728420 28:0.770650 29:0.822487 30:1.444074 31:1.422527 32:-0.909858 33:1.362577 34:1.458523 35:0.427076 36:0.134936 37:0.022601 38:0.625071 39:-0.228415 40:1.868239 41:1.340898 42:0.512424 43:-0.725099 44:-0.485431 45:1.266269 46:-0.848557 47:0.400701 48:1.209573 49:0.270449 50:-0.249244 51:0.282830 52:-0.734942 53:-1.585572 54:1.267427 55:-0.299973 56:0.334179 57:0.653076 58:0.272801 59:1.220829 60:-1.319351 61:-0.909395 62:-2.324341 63:0.010301 64:-1.090097 65:-1.001897 66:-0.046052 67:-1.705476 68:0.082334 69:2.632148 70:0.455499
-1 1:-2.047801 2:-0.061800 3:-0.703874 4:0.373106 5:0.437218 6:1.431527 7:-0.107520 8:0.386507 9:2.135304 10:0.483205 11:-0.341776 12:0.297346 13:-0.031776 14:-0.419152 15:-0.421692 16:-1.427407 17:-1.158356 18:0.320597 19:1.482942 20:-0.186738 21:-0.074992 22:-2.029767 23:-1.846153 24:0.398690 25:-1.445965 26:0.290213 27:-0.490404 28:2.153801 29:-0.211503 30:-0.966874 31:-0.512556 32:1.387814 33:-1.394168 34:0.495290 35:0.574089 36:0.646661 37:-0.047204 38:0.380716 39:1.261478 40:1.225222 41:-1.166559 42:0.235158 43:-0.926109 44:-0.016419 45:1.660754 46:-0.575675 47:-0.342842 48:1.023412 49:0.992714 50:0.967357 51:-0.558515 52:-0.096313 53:-0.304361 54:1.243390 55:0.729740 56:0.077058 57:0.605888 58:0.708471 59:1.506091 60:0.285619 61:0.299659 62:-0.319152 63:-1.882462 64:-0.151195 65:0.187930 66:-0.125106 67:0.537893 68:0.479168 69:0.910849 70:-1.951807
-1 1:-1.914496 2:0.418881 3:1.896948 4:1.449144 5:0.030704 6:1.119092 7:-0.899145 8:-1.832101 9:0.191977 10:0.429073 11:-0.252067 12:-0.104769 13:-1.374856 14:0.214242 15:-0.653726 16:-0.692449 17:0.424461 18:0.711367 19:-0.023868 20:0.823426 21:0.614207 22:-0.511343 23:1.660716 24:0.163417 25:-0.597043 26:-0.000376 27:1.591648 28:-0.879426 29:1.087915 30:0.360041 31:-0.065982 32:1.361447 33:-1.144839 34:1.217120 35:-0.477199 36:-0.629167 37:-0.567413 38:1.714678 39:-0.224008 40:2.423593 41:1.964273 42:1.284794 43:-0.309107 44:0.085009 45:-1.343696 46:1.793779 47:0.805945 48:0.452585 49:-0.944321 50:-0.484364 51:-0.915253 52:-2.302907 53:0.718154 54:-0.449393 55:0.840463 56:-1.146030 57:1.116255 58:-0.157898 59:-1.454469 60:1.294103 61:1.275255 62:1.181217 63:1.953457 64:0.217967 65:-1.051472 66:-0.193799 67:-0.808343 68:1.020773 69:-1.361117 70:-1.055528
-1 1:0.414464 2:-2.344850 3:1.371427 4:-0.791432 5:0.239368 6:1.019619 7:0.739932 8:-0.083415 9:1.389076 10:-1.081572 11:0.447950 12:1.021775 13:-0.754376 14:1.078631 15:1.776010 16:0.299106 17:0.341592 18:-0.505048 19:0.854613 20:-1.409660 21:0.558783 22:-0.659102 23:0.137522 24:0.476831 25:0.410913 26:0.986973 27:-0.219799 28:0.319827 29:-1.767137 30:1.005339 31:0.250571 32:1.235626 33:-0.379704 34:1.829856 35:1.920664 36:0.124696 37:1.807010 38:0.659479 39:-1.501103 40:-0.078049 41:-1.326489 42:-0.963745 43:0.144360 44:-0.992183 45:2.421793 46:-0.752578 47:0.387628 48:0.684356 49:1.300330 50:0.618930 51:0.157631 52:-0.676001 53:-0.303420 54:0.214752 55:0.578938 56:0.378991 57:0.040480 58:-0.961977 59:0.617834 60:-0.446315 61:-0.177000 62:0.260637 63:1.082892 64:-1.541322 65:0.067414 66:-0.670881 67:1.914412 68:-0.992795 69:1.008958 70:-0.369846
-1 1:0.091016 2:0.189322 3:-0.718324 4:0.219488 5:-1.132865 6:0.628113 7:1.342712 8:-1.116719 9:-0.105887 10:0.007725 11:0.906072 12:0.217297 13:0.980741 14:1.613837 15:0.560437 16:0.362268 17:1.584178 18:0.472212 19:-0.313470 20:0.471857 21:0.388270 22:0.296032 23:-0.491349 24:-0.225560 25:0.570283 26:-0.298075 27:0.020793 28:-0.462270 29:-0.839525 30:-0.801337 31:-1.139202 32:-1.824733 33:0.920323 34:0.384923 35:1.061473 36:0.630059 37:-1.306783 38:2.339184 39:1.462950 40:1.111746 41:-0.241577 42:-0.951063 43:-1.376035 44:-0.243680 45:-0.974320 46:1.860816 47:-0.936129 48:0.173223 49:2.144785 50:0.898544 51:0.599945 52:-0.311921 53:0.239577 54:1.054860 55:-0.944846 56:-1.366351 57:-0.490474 58:-0.693518 59:1.107504 60:0.791908 61:0.513961 62:-0.537574 63:0.428306 64:0.281170 65:-1.035400 66:0.134157 67:-1.102239 68:0.617332 69:0.797523 70:-0.185934
-1 1:1.301417 2:-1.508998 3:-0.114567 4:0.694286 5:0.599794 6:-0.462515 7:-1.103836 8:-0.896017 9:0.649078 10:1.991337 11:-0.770070 12:-0.477832 13:-0.648897 14:-0.522308 15:0.385369 16:0.487437 17:0.094822 18:0.416810 19:0.981400 20:0.595768 21:0.916615 22:0.294431 23:2.338859 24:-0.170257 25:0.221309 26:1.973637 27:-0.687055 28:-0.048659 29:1.588509 30:0.431721 31:-0.643180 32:1.207242 33:0.064819 34:-0.960547 35:0.810667 36:-0.755819 37:-1.090920 38:-0.368003 39:-1.426514 40:-0.514639 41:-1.528130 42:0.802169 43:1.969888 44:2.031302 45:-0.147206 46:-0.663109 47:1.084234 48:-0.471102 49:-0.012047 50:-0.231657 51:0.721444 52:-0.231708 53:-0.872932 54:0.037969 55:-0.948851 56:1.157231 57:-0.233320 58:0.305220 59:0.628917 60:-0.552206 61:1.060718 62:1.833801 63:-0.610282 64:-0.291754 65:-0.804217 66:0.295582 67:-1.376717 68:0.336608 69:0.883684 70:0.231163
-1 1:-0.609686 2:-0.964962 3:-0.722653 4:-1.631991 5:0.344239 6:1.383398 7:-0.861789 8:-1.829984 9:-0.509500 10:-0.526813 11:-0.490366 12:0.081608 13:0.983086 14:-0.254545 15:-0.401139 16:0.066674 17:1.289728 18:0.747137 19:-0.808351 20:-0.372898 21:-1.814882 22:0.233374 23:0.367087 24:-0.807444 25:0.312376 26:1.384944 27:-0.865293 28:1.366550 29:-0.391138 30:0.711640 31:1.382582 32:0.238168 33:-0.703499 34:-0.938953 35:-0.251057 36:-0.541279 37:0.907757 38:-0.420281 39:-0.455068 40:-0.336701 41:0.253238 42:0.507972 43:1.307680 44:-1.884596 45:1.010169 46:-1.295562 47:1.250630 48:-0.802825 49:0.372364 50:-0.031954 51:-0.258745 52:0.330173 53:-0.041600 54:0.498637 55:1.268964 56:0.416306 57:0.965395 58:-0.244900 59:-0.604678 60:-1.008924 61:-1.826925 62:-0.961313 63:0.661956 64:-0.045040 65:-0.200581 66:0.384006 67:-0.462893 68:0.440914 69:-1.101111 70:-1.099144
-1 1:-0.117446 2:2.832175 3:-1.019226 4:0.415011 5:0.349655 6:-1.329096 7:-1.200450 8:0.589374 9:-1.470876 10:-0.228089 11:-0.406523 12:0.646717 13:0.943470 14:0.542955 15:0.351301 16:-1.011935 17:0.454330 18:-1.305459 19:-1.153028 20:-0.368936 21:0.629966 22:0.042497 23:1.524006 24:-0.607886 25:0.490526 26:0.149646 27:0.134340 28:-1.042029 29:1.891713 30:-0.946863 31:-0.542727 32:0.803953 33:0.211232 34:-0.359000 35:-0.713050 36:-1.073199 37:-1.026364 38:-1.167295 39:-0.742176 40:0.186330 41:-0.116437 42:-0.981808 43:2.658364 44:-1.255066 45:-0.158431 46:-1.462754 47:0.271834 48:-0.157612 49:1.382712 50:0.731147 51:0.093637 52:-1.123222 53:1.127794 54:-1.504199 55:-1.395275 56:1.763931 57:-0.435533 58:-0.774777 59:0.730585 60:-0.240759 61:0.448029 62:-2.746850 63:0.128483 64:2.125808 65:0.383997 66:-2.067465 67:-1.154884 68:1.222591 69:-0.158584 70:0.936095
-1 1:-0.663968 2:0.179915 3:1.267057 4:-1.172871 5:0.476684 6:-1.142042 7:2.349267 8:1.478487 9:-0.149937 10:0.648077 11:1.771074 12:-1.643492 13:-0.047378 14:0.389754 15:0.830302 16:-1.051450 17:0.277420 18:1.263429 19:-0.484015 20:-0.339193 21:-0.093405 22:-1.059232 23:-1.355904 24:-1.376025 25:-0.568790 26:0.733210 27:0.248175 28:0.648003 29:-0.230467 30:0.125678 31:-0.577781 32:-0.146798 33:0.999287 34:-0.605008 35:1.529353 36:-0.475553 37:-1.286058 38:1.161015 39:1.400853 40:-0.104062 41:1.788783 42:0.070817 43:0.982824 44:0.710375 45:-1.280711 46:0.552002 47:-0.460390 48:-1.226323 49:0.070484 50:-0.505862 51:2.056443 52:-0.065744 53:0.129622 54:-0.354173 55:-0.455734 56:-1.138989 57:-0.272683 58:0.766330 59:-1.394688 60:-0.136306 61:0.176404 62:0.227830 63:0.569961 64:-0.380837 65:-0.213253 66:1.001740 67:0.670348 68:1.478144 69:-1.445080 70:-0.489264
-1 1:1.347937 2:0.204967 3:0.133428 4:-1.022512 5:1.347878 6:-1.566794 7:1.003618 8:-0.320147 9:-1.110390 10:-0.475960 11:1.413421 12:0.755208 13:-0.952540 14:-0.128973 15:-0.391028 16:-1.388243 17:-0.023379 18:-1.145013 19:-0.052959 20:1.517623 21:0.164540 22:1.399027 23:-0.255484 24:-0.127273 25:-1.630557 26:1.926785 27:-0.407177 28:-0.127557 29:0.122197 30:1.515051 31:-0.586149 32:-1.987067 33:-1.397531 34:-0.959020 35:0.786282 36:0.897804 37:-0.947497 38:-0.727500 39:-0.170709 40:1.240797 41:0.573374 42:-0.080314 43:0.491910 44:0.473281 45:-1.300311 46:1.534102 47:-0.920962 48:1.696183 49:-0.367514 50:0.976942 51:0.202901 52:1.231607 53:0.760327 54:-0.350013 55:0.110933 56:0.574738 57:0.316295 58:0.140842 59:-0.010771 60:1.083583 61:-0.418787 62:0.409383 63:0.060610 64:1.188434 65:-0.493550 66:-1.740320 67:-0.857287 68:1.300814 69:0.452876 70:0.386723
-1 1:1.677088 2:-0.104341 3:-1.596401 4:-0.808908 5:-0.004980 6:-0.454584 7:-1.013049 8:0.364116 9:0.923105 10:-0.920357 11:0.544883 12:-0.135029 13:-0.681261 14:0.604600 15:-0.199670 16:-0.373484 17:0.557033 18:-0.408935 19:1.135467 20:1.063338 21:0.213991 22:0.470623 23:1.188561 24:1.364700 25:-2.745842 26:-1.769279 27:-0.292529 28:0.709784 29:0.017672 30:1.297190 31:-1.242590 32:-0.363700 33:-1.144564 34:-1.043064 35:-1.281619 36:-0.882901 37:-1.147191 38:-1.976937 39:-1.237234 40:0.077005 41:1.112069 42:-2.396846 43:0.719352 44:-0.401238 45:-1.677979 46:-0.178530 47:1.317639 48:-0.396404 49:-0.544262 50:0.311251 51:0.542596 52:-1.409450 53:-0.371101 54:0.497733 55:-1.285179 56:-0.623098 57:-0.319971 58:-1.337106 59:-1.011541 60:1.936381 61:-0.935941 62:-2.049903 63:2.018088 64:1.399162 65:-0.544278 66:0.049361 67:0.666892 68:0.069090 69:0.675825 70:-0.351870
-1 1:-1.026083 2:-0.745277 3:-0.342525 4:0.471533 5:-1.434833 6:0.476789 7:-1.795480 8:-0.094357 9:-2.010112 10:-0.332609 11:-1.596670 12:-0.998183 13:1.366614 14:0.431673 15:0.770446 16:0.498727 17:-0.518701 18:0.528437 19:0.303729 20:1.077675 21:0.606544 22:-1.210659 23:0.407717 24:-1.744860 25:0.657711 26:0.561142 27:-0.045359 28:-0.492687 29:-0.197870 30:-1.350107 31:0.361004 32:0.796546 33:-0.714189 34:-0.328905 35:-0.562887 36:0.266204 37:-1.671860 38:0.928708 39:-1.711653 40:-1.880482 41:-0.757409 42:-2.190828 43:0.048346 44:-0.109725 45:0.713932 46:-0.012828 47:-0.824136 48:-0.073704 49:1.208085 50:-0.354026 51:-0.653654 52:1.098370 53:1.235242 54:0.548444 55:-0.383843 56:-0.814773 57:-1.337858 58:0.694043 59:-0.337738 60:1.217601 61:-0.952755 62:-0.598225 63:-0.485100 64:0.259193 65:-0.442607 66:-0.620762 67:-1.938220 68:0.308432 69:-0.800008 70:0.223786
-1 1:-1.368381 2:0.876187 3:-1.717932 4:0.581541 5:-1.104993 6:-0.303457 7:1.067625 8:-0.097926 9:0.909011 10:-0.059041 11:-0.853067 12:0.023568 13:-0.410094 14:-0.278499 15:0.829135 16:0.542433 17:-1.375642 18:-0.206941 19:0.943846 20:1.495050 21:-0.375323 22:1.723644 23:0.240333 24:-0.788756 25:1.401472 26:-0.488288 27:-0.232125 28:0.827662 29:0.466953 30:-0.022459 31:0.703278 32:0.948615 33:0.410060 34:0.601779 35:-1.461029 36:-0.720925 37:0.493939 38:1.080054 39:0.387850 40:-1.519687 41:0.347456 42:-0.739086 43:-0.675043 44:0.546526 45:1.835166 46:-1.519309 47:-0.844810 48:0.555205 49:-0.609343 50:-0.799579 51:-0.664990 52:-0.247910 53:0.868541 54:0.241224 55:0.569934 56:0.375234 57:-1.068568 58:0.722458 59:-0.810547 60:-1.743553 61:0.163184 62:1.200718 63:-1.238728 64:-1.491629 65:-0.202509 66:-0.832631 67:0.771501 68:-1.311182 69:-0.483008 70:-0.108904
-1 1:-1.134277 2:1.619284 3:1.407384 4:-0.440848 5:-1.468711 6:0.518549 7:0.566556 8:0.217865 9:-1.167410 10:-1.581819 11:-0.212438 12:-1.082556 13:0.640127 14:-1.135920 15:0.181839 16:2.086991 17:-1.888289 18:-0.389081 19:-0.462628 20:-0.856959 21:-1.110818 22:0.614865 23:-0.794440 24:-0.317042 25:-0.389575 26:-0.665690 27:-0.349539 28:2.071969 29:0.219906 30:-0.678228 31:0.458394 32:0.236379 33:-0.397913 34:-0.868030 35:0.915664 36:0.151969 37:-0.264442 38:-1.131586 39:1.656067 40:-0.400900 41:-0.646267 42:1.971910 43:-0.035041 44:-1.224112 45:-0.630143 46:0.020733 47:0.313242 48:-1.311030 49:-1.193972 50:-0.772783 51:-0.204671 52:-1.264745 53:0.304762 54:1.018498 55:-2.181570 56:-0.108100 57:-0.273913 58:1.220329 59:0.220725 60:1.441475 61:-1.169008 62:1.103967 63:-1.335272 64:-1.128002 65:-0.710411 66:-0.447162 67:-0.956384 68:0.554816 69:0.143978 70:-1.248519
-1 1:-1.417957 2:1.797086 3:1.338491 4:1.041702 5:0.055305 6:0.137876 7:-0.472602 8:1.953871 9:1.392701 10:0.143623 11:-0.080428 12:1.692735 13:1.165662 14:0.799203 15:-0.624470 16:-1.034501 17:-0.258839 18:-2.047285 19:-0.304507 20:0.168605 21:-0.800986 22:-1.706327 23:0.837095 24:-1.260652 25:0.474478 26:-2.943145 27:-0.887067 28:-0.319444 29:-0.204598 30:-0.143281 31:-1.278082 32:-0.510642 33:0.038362 34:0.518852 35:0.105548 36:-0.646911 37:-0.345623 38:-0.968085 39:-0.777894 40:-0.051299 41:-0.397739 42:-0.604475 43:0.490860 44:-0.857852 45:-1.847593 46:0.868221 47:-1.295171 48:0.781244 49:0.689282 50:-0.565664 51:-1.056083 52:0.765416 53:-1.750974 54:1.965366 55:-0.514303 56:0.409023 57:0.081855 58:-0.966204 59:1.401199 60:1.228954 61:-1.646381 62:-1.421807 63:3.170887 64:-1.246849 65:-0.407476 66:-0.263199 67:-1.105933 68:0.255188 69:-1.686670 70:0.717035
-1 1:-1.367410 2:0.483767 3:-1.095054 4:0.122620 5:2.873698 6:-1.094461 7:-0.307833 8:0.904688 9:0.292912 10:0.348609 11:-0.174061 12:-0.533384 13:1.445975 14:0.651797 15:1.720048 16:-0.645435 17:-0.037279 18:-1.042503 19:1.285848 20:0.398517 21:-0.591657 22:0.426452 23:0.585153 24:-0.855102 25:-0.580507 26:0.676391 27:0.176553 28:1.950874 29:-1.003227 30:-0.768869 31:-0.185227 32:0.956722 33:-1.465432 34:-1.310040 35:-0.564724 36:-1.105585 37:1.172408 38:2.405098 39:1.793907 40:-0.637092 41:-0.601363 42:0.760987 43:0.687982 44:0.212507 45:-1.084354 46:0.948845 47:0.686319 48:0.804340 49:-0.439295 50:0.437130 51:0.382915 52:-1.649516 53:0.614644 54:-0.635372 55:-0.044118 56:-1.013072 57:-1.812745 58:-1.710045 59:-0.624150 60:-2.972039 61:0.928004 62:-0.042936 63:-1.357324 64:-1.743713 65:-0.004604 66:0.772713 67:-0.307969 68:0.355621 69:0.028853 70:0.293720
-1 1:-0.521569 2:0.839900 3:-0.089977 4:0.324290 5:0.345996 6:-1.083531 7:0.830732 8:0.205175 9:1.027069 10:-1.308205 11:-0.888067 12:0.062400 13:0.269918 14:0.234708 15:1.023965 16:1.138876 17:0.915088 18:0.426495 19:-1.444835 20:0.425445 21:-1.139745 22:0.401219 23:0.680073 24:-0.791000 25:-1.585132 26:0.687323 27:0.521378 28:-2.213323 29:0.313117 30:-0.522043 31:-0.703088 32:-2.342063 33:-1.610998 34:1.869510 35:1.094794 36:-0.350517 37:-1.135690 38:-0.933811 39:2.085816 40:-0.372497 41:0.534188 42:2.194095 43:-1.273568 44:1.673358 45:1.058907 46:1.894474 47:-0.110563 48:-1.393958 49:0.699329 50:-1.038431 51:-1.334839 52:1.604249 53:1.660871 54:-2.012837 55:1.447565 56:-1.776864 57:1.047772 58:0.877894 59:0.229740 60:0.158926 61:-0.440329 62:-1.850928 63:-1.488713 64:-1.341343 65:0.000794 66:0.958573 67:-0.307406 68:0.728067 69:0.668651 70:-1.099341
-1 1:0.808108 2:0.774977 3:0.067916 4:-0.662403 5:1.865704 6:1.104311 7:-0.756472 8:1.200273 9:0.034383 10:-0.352968 11:-0.699694 12:-1.197545 13:-0.241368 14:0.719908 15:0.667543 16:0.696804 17:-0.694769 18:0.935694 19:-0.786833 20:-0.016323 21:0.556547 22:0.085214 23:-0.830245 24:-0.325418 25:-1.578713 26:0.118105 27:0.703576 28:-0.474255 29:0.174924 30:-1.115190 31:0.713068 32:0.464195 33:-0.693015 34:-1.076946 35:0.552274 36:1.187665 37:-1.604102 38:0.456011 39:0.856907 40:-1.153418 41:1.940284 42:-0.285693 43:-0.379346 44:-0.731121 45:-1.048939 46:0.029081 47:-0.585071 48:0.263540 49:0.309179 50:0.629676 51:1.535804 52:-0.068949 53:-0.009171 54:0.204441 55:0.225922 56:0.166757 57:1.465614 58:-0.646049 59:0.012827 60:0.401594 61:0.265566 62:2.596047 63:-2.129428 64:-0.420058 65:1.527293 66:1.788661 67:0.899783 68:0.867169 69:-0.868752 70:0.015282
-1 1:-0.911800 2:-0.203979 3:0.808099 4:2.099781 5:-1.389085 6:-0.219209 7:-0.300508 8:0.170683 9:0.348109 10:0.062565 11:3.120333 12:1.907869 13:-1.378485 14:0.563047 15:1.283748 16:-0.420114 17:-1.009917 18:-0.476513 19:-1.259713 20:-0.506828 21:-0.810083 22:0.495616 23:0.469651 24:1.753070 25:0.590403 26:0.266686 27:1.234306 28:0.652816 29:0.917234 30:0.363150 31:0.550526 32:-0.899962 33:1.118305 34:-0.291255 35:0.633545 36:-0.537948 37:0.521946 38:-0.233156 39:0.151146 40:0.342120 41:1.119668 42:-0.220660 43:-0.659976 44:0.558653 45:-0.106978 46:-1.195413 47:0.744969 48:0.982238 49:0.510239 50:-1.534763 51:0.644890 52:0.715320 53:-0.281228 54:1.448536 55:0.257761 56:-0.298091 57:-0.425861 58:1.361492 59:-0.923270 60:-0.834702 61:-0.213836 62:0.209269 63:0.536372 64:0.270077 65:-0.894035 66:-0.119066 67:-0.525702 68:0.608189 69:1.498496 70:-0.292493
-1 1:-1.084389 2:1.172248 3:-0.230402 4:0.298785 5:-0.416722 6:0.951690 7:0.520914 8:-0.491343 9:2.303027 10:0.860526 11:0.585706 12:1.851046 13:-0.165679 14:0.658514 15:-0.751139 16:-0.250639 17:1.080879 18:1.226675 19:0.561798 20:-1.725309 21:-1.340578 22:0.530706 23:-2.338131 24:2.024306 25:0.410033 26:0.458875 27:1.434057 28:0.915163 29:1.168290 30:0.195222 31:-0.244874 32:-0.449252 33:-0.355399 34:-1.471406 35:-0.534656 36:-0.099957 37:-0.681710 38:0.601952 39:1.915682 40:0.490321 41:0.111796 42:-1.893346 43:1.008610 44:1.766648 45:-0.446078 46:-0.653861 47:-1.486851 48:-0.025720 49:0.545457 50:-0.545446 51:-2.224915 52:-1.338333 53:0.186181 54:0.787614 55:1.132472 56:-1.564912 57:-0.288613 58:-0.252054 59:-1.487304 60:-0.907415 61:0.838100 62:1.779104 63:0.879978 64:-1.102304 65:0.000608 66:0.864387 67:0.290757 68:1.424213 69:0.203238 70:-0.365616
-1 1:0.159522 2:-0.394869 3:-0.392420 4:2.024130 5:-0.965384 6:-0.223771 7:0.095763 8:-1.084016 9:-1.408559 10:-1.179105 11:1.993470 12:-0.960374 13:0.372805 14:0.031936 15:-0.727269 16:1.077068 17:-0.424544 18:0.291540 19:-0.067807 20:-0.345954 21:0.768474 22:-1.094649 23:-1.757757 24:-1.671220 25:0.527446 26:-0.129942 27:-1.041157 28:0.749472 29:-0.990412 30:1.051820 31:1.362576 32:0.326010 33:1.704292 34:1.805977 35:-1.360674 36:-0.025871 37:-0.095459 38:-1.070332 39:-0.322104 40:-0.956900 41:2.381580 42:-0.552739 43:0.472250 44:-0.455279 45:0.059390 46:0.374147 47:0.641085 48:0.737462 49:0.535640 50:1.148467 51:-0.213294 52:-2.016981 53:-0.866881 54:-1.120712 55:-0.130442 56:0.783842 57:-0.125330 58:-0.126790 59:1.355587 60:-0.310528 61:0.712991 62:0.901159 63:-0.736200 64:1.750987 65:-0.465598 66:1.110067 67:1.295019 68:-2.068255 69:0.348358 70:0.250889
-1 1:0.499398 2:1.117322 3:1.073406 4:1.181802 5:0.875960 6:0.137495 7:-0.098038 8:1.340705 9:1.650494 10:0.407914 11:1.190806 12:-0.688802 13:-2.032290 14:-0.005594 15:-0.969732 16:-1.203350 17:0.737536 18:-0.399719 19:1.151693 20:-0.615602 21:-1.729158 22:-1.298219 23:0.216902 24:1.141870 25:-1.225936 26:0.311151 27:-1.846895 28:0.570037 29:0.088084 30:1.869150 31:-1.002692 32:-0.352421 33:-0.845452 34:-0.448759 35:-0.911237 36:-1.510686 37:0.354254 38:2.104902 39:-1.688201 40:-0.683875 41:-0.504395 42:-0.604096 43:0.940560 44:-0.891670 45:0.240404 46:0.613248 47:-1.037677 48:0.430177 49:0.033073 50:-0.754424 51:0.913379 52:-0.336917 53:-0.360384 54:0.329543 55:-1.189226 56:-0.444997 57:-1.004837 58:-0.026174 59:-1.700848 60:0.692923 61:-0.153846 62:1.247951 63:-0.557922 64:1.660623 65:-1.304617 66:1.474781 67:0.409072 68:2.059627 69:0.264260 70:-1.407041
-1 1:-0.192569 2:0.197591 3:1.359315 4:-1.030859 5:1.589713 6:0.060252 7:-2.754316 8:-0.410166 9:-0.354177 10:-1.067766 11:0.827344 12:-0.549642 13:0.566749 14:0.853335 15:-0.824894 16:-0.054143 17:1.211585 18:-2.120813 19:-1.012719 20:0.681735 21:0.983359 22:-0.430811 23:0.159154 24:-0.713506 25:-0.209798 26:0.018030 27:0.496798 28:-0.346024 29:-0.041160 30:0.095528 31:1.590901 32:-1.755741 33:-0.107926 34:2.177816 35:-1.238616 36:-1.286900 37:-1.206142 38:0.037019 39:-0.661388 40:1.360519 41:2.780391 42:-0.524365 43:0.908611 44:-0.788566 45:1.709258 46:-0.490354 47:1.695959 48:-1.129290 49:0.199255 50:-0.023382 51:-0.533680 52:-0.803020 53:-1.529557 54:2.060900 55:-1.008539 56:-1.237005 57:0.319780 58:-1.263276 59:0.173432 60:-0.198180 61:-0.974563 62:-0.614138 63:-0.687044 64:0.876176 65:-2.941101 66:-0.523372 67:-1.541856 68:0.685008 69:0.369331 70:0.877497
-1 1:-0.648443 2:-0.137547 3:0.824330 4:0.939254 5:1.244062 6:0.894264 7:1.867855 8:-1.007716 9:1.139632 10:0.331696 11:-0.166520 12:1.448884 13:-0.502362 14:-0.756610 15:1.165753 16:0.075168 17:-0.868387 18:-1.449689 19:1.996899 20:-0.347895 21:0.420059 22:0.429827 23:0.007631 24:0.098003 25:-0.138718 26:-0.140245 27:-0.974026 28:-0.473485 29:-0.574004 30:-0.776765 31:-0.874706 32:-0.006533 33:0.167284 34:0.287660 35:1.791466 36:-0.945257 37:0.205961 38:0.177235 39:-1.130196 40:-0.977159 41:0.013759 42:0.079730 43:-0.154729 44:0.764161 45:-0.337259 46:-0.959533 47:0.392829 48:-1.863824 49:0.286111 50:0.281438 51:0.793626 52:1.411924 53:-0.613603 54:0.367327 55:-0.683195 56:0.897522 57:-0.390043 58:-0.436338 59:-0.559704 60:-0.322608 61:0.136419 62:-0.658568 63:0.881026 64:-1.306695 65:-0.044860 66:1.878243 67:-0.153430 68:-0.808460 69:0.967120 70:-1.802812
-1 1:-0.553185 2:0.309104 3:-0.832036 4:-0.538797 5:0.063268 6:0.033138 7:1.554200 8:-0.912082 9:-0.132112 10:-1.963310 11:-0.035968 12:-0.935032 13:0.011774 14:0.950893 15:0.175220 16:0.960077 17:-0.701944 18:-0.207312 19:0.565798 20:-1.659196 21:-0.350227 22:1.068909 23:-0.552236 24:-0.736880 25:0.899870 26:1.199026 27:-0.100586 28:-1.559702 29:0.126991 30:0.427981 31:-0.270341 32:0.348119 33:0.150368 34:0.557828 35:-0.538491 36:-1.233443 37:0.486038 38:0.486359 39:-0.895780 40:2.023923 41:1.077307 42:0.443977 43:-0.327519 44:-0.709821 45:-0.686414 46:-0.337748 47:0.326087 48:-0.930274 49:-2.239566 50:-2.659628 51:0.386734 52:-0.311180 53:1.588570 54:-0.382772 55:-0.347853 56:-0.229658 57:0.581720 58:0.540723 59:0.113664 60:-0.826337 61:-0.431388 62:0.173049 63:0.362283 64:-1.131829 65:0.691696 66:-0.022610 67:-0.313159 68:1.198180 69:1.014572 70:0.319168
-1 1:1.641791 2:1.003372 3:1.132331 4:1.929462 5:-1.366707 6:0.340114 7:1.367613 8:-0.463975 9:-1.574500 10:-0.304904 11:-0.089699 12:-1.191738 13:-0.240432 14:-0.290196 15:0.184931 16:-0.596659 17:0.491347 18:-2.246559 19:-0.179654 20:-1.143676 21:-0.407400 22:-1.274792 23:0.005960 24:-0.382116 25:0.489639 26:-0.398999 27:-0.806208 28:1.351174 29:-0.310276 30:-0.434562 31:-0.362423 32:0.398617 33:-2.326498 34:-0.299574 35:-0.773681 36:1.551075 37:-1.183790 38:0.936897 39:-2.559587 40:0.537471 41:-1.935756 42:1.273297 43:0.537092 44:-0.049103 45:-0.032363 46:0.458116 47:-1.666380 48:1.365671 49:-1.265044 50:0.956620 51:1.126390 52:2.654693 53:0.297845 54:0.066282 55:0.127680 56:-1.173736 57:0.413752 58:-0.393343 59:0.618718 60:0.720781 61:0.818867 62:-0.545670 63:-1.099667 64:0.137567 65:0.074943 66:0.474423 67:0.156116 68:0.127209 69:1.274335 70:0.806601
-1 1:-1.036426 2:1.244488 3:-1.735500 4:-0.479944 5:-1.823973 6:-0.098028 7:1.451364 8:-0.801367 9:-0.257638 10:-2.127107 11:0.037983 12:1.482006 13:0.221595 14:1.189711 15:-0.571902 16:-1.144777 17:0.356164 18:0.794754 19:0.368638 20:1.614579 21:1.000608 22:0.108731 23:0.784228 24:0.476592 25:0.633672 26:0.145389 27:-0.500389 28:0.764724 29:1.204482 30:-1.432517 31:-0.591120 32:0.073067 33:0.378379 34:0.670162 35:0.061921 36:-0.068402 37:0.100615 38:-1.217220 39:1.355019 40:1.943051 41:-0.943157 42:-2.192293 43:0.128230 44:1.719058 45:-1.506571 46:-0.111482 47:-0.208281 48:0.159015 49:0.501847 50:0.213613 51:-0.213788 52:-0.527905 53:0.535721 54:0.589785 55:-0.544880 56:0.759099 57:0.806099 58:-0.711102 59:0.279332 60:2.276656 61:-0.326473 62:2.105139 63:0.079198 64:1.807916 65:0.679630 66:-0.180494 67:0.965153 68:0.671013 69:1.444684 70:-0.095702
-1 1:-0.943404 2:-0.537774 3:-0.294772 4:0.640615 5:-0.740687 6:1.315210 7:0.903328 8:-0.388182 9:0.537335 10:-0.208013 11:-0.064734 12:-0.720843 13:-0.189040 14:-0.515482 15:-1.191094 16:-0.715266 17:-0.813944 18:1.051664 19:-0.414863 20:0.496251 21:2.536092 22:0.556992 23:-1.338559 24:-1.333869 25:-0.466952 26:-1.683754 27:0.901777 28:1.297728 29:0.378143 30:-1.200902 31:-0.205494 32:-1.379372 33:1.919131 34:-0.416333 35:-1.778378 36:1.852198 37:-0.247619 38:-0.461110 39:2.106021 40:-1.713446 41:0.122296 42:-1.091780 43:-1.330629 44:0.609610 45:0.142841 46:1.082344 47:0.129412 48:-0.658554 49:1.119385 50:0.150335 51:-0.811587 52:-0.278964 53:0.567329 54:1.024388 55:-2.326407 56:-0.472042 57:1.554487 58:-0.692057 59:-1.750557 60:-0.142684 61:0.132990 62:-0.548748 63:-0.607216 64:0.017499 65:-2.515951 66:1.128869 67:0.116388 68:0.082364 69:0.154815 70:-1.358614
-1 1:-0.064966 2:1.127062 3:-0.278621 4:1.391149 5:-0.395831 6:-1.870477 7:2.617391 8:-0.736911 9:-0.353518 10:0.458958 11:-0.035772 12:0.520975 13:-0.610505 14:-0.251061 15:1.740213 16:-1.591583 17:-0.173003 18:0.773671 19:-0.691000 20:-1.649116 21:0.176693 22:-1.185031 23:1.876361 24:-1.351621 25:0.511467 26:0.126367 27:1.072047 28:-0.747670 29:-0.512156 30:0.579341 31:1.098327 32:0.652147 33:-0.167383 34:-0.615677 35:1.905436 36:0.282767 37:-0.390579 38:0.862001 39:1.731626 40:1.638203 41:-1.582809 42:-1.299675 43:-1.851250 44:-0.094275 45:-1.079012 46:-0.953139 47:-2.303429 48:0.941693 49:-0.821932 50:-1.030236 51:0.424946 52:0.396787 53:0.012227 54:-0.868105 55:0.056375 56:-1.494527 57:-0.629594 58:0.628116 59:-0.587292 60:-0.100785 61:0.716478 62:-0.030352 63:-0.143011 64:-0.789258 65:0.031774 66:0.431648 67:1.674945 68:1.338140 69:-1.316304 70:0.475780
-1 1:-0.807327 2:-1.305064 3:-1.259191 4:-0.788188 5:0.760004 6:-1.454639 7:0.671402 8:1.484075 9:-0.790615 10:-0.953491 11:0.819671 12:0.195080 13:-0.343142 14:-0.491918 15:-0.439138 16:-0.254504 17:-0.221327 18:1.008994 19:-0.953920 20:-1.758331 21:-1.293758 22:-0.629492 23:0.803784 24:0.018684 25:0.004014 26:-0.080565 27:-0.743376 28:-0.670400 29:1.686193 30:0.137902 31:-1.110644 32:-0.217898 33:0.129443 34:1.257515 35:0.061269 36:0.544558 37:-0.940029 38:-1.717919 39:0.000976 40:-0.321632 41:-0.384148 42:-0.206033 43:0.441325 44:1.412902 45:-0.927601 46:-0.449880 47:-0.164723 48:0.192247 49:-0.119915 50:-1.191015 51:-0.088044 52:-0.039304 53:2.498656 54:1.017722 55:0.863181 56:-0.659059 57:-0.644797 58:-1.556258 59:0.367277 60:0.682909 61:-1.374976 62:-0.024142 63:0.446188 64:-0.030271 65:-0.115381 66:-1.903894 67:0.143944 68:0.160546 69:-0.592807 70:0.140399
-1 1:-1.273460 2:0.724933 3:-0.786418 4:-0.017319 5:0.555109 6:-0.172384 7:-0.739957 8:0.967010 9:0.238725 10:-1.201240 11:-0.719696 12:-0.213872 13:0.597145 14:-0.746770 15:-0.331757 16:-0.249060 17:-0.058563 18:0.623043 19:0.154481 20:0.260255 21:-0.712192 22:0.274102 23:1.287227 24:-0.602944 25:1.041812 26:-2.227112 27:-1.048333 28:0.453783 29:1.986052 30:0.937293 31:-0.162670 32:0.586281 33:1.354125 34:1.102069 35:-0.249437 36:1.231334 37:0.562181 38:1.507277 39:-1.884782 40:1.072419 41:1.700797 42:-0.355517 43:-0.564021 44:-0.215398 45:0.140008 46:0.841034 47:-0.737361 48:0.654073 49:1.069516 50:1.064814 51:0.951564 52:-0.138174 53:-0.916984 54:-0.050195 55:-1.808620 56:-0.914232 57:0.061083 58:1.169128 59:1.045572 60:-0.606419 61:-0.315129 62:0.770131 63:0.045213 64:1.841525 65:-0.344129 66:0.754544 67:0.459452 68:-0.885016 69:0.822550 70:1.581114
-1 1:-0.013566 2:0.753704 3:-0.384779 4:1.084640 5:2.318910 6:1.966279 7:0.346927 8:0.738012 9:-1.267455 10:0.003920 11:0.368045 12:0.862387 13:0.932922 14:2.019571 15:0.546422 16:-0.012679 17:3.111161 18:1.297836 19:0.089526 20:1.170418 21:0.973518 22:-0.875430 23:0.551859 24:-0.345316 25:1.161702 26:0.195027 27:1.704855 28:-0.382240 29:-0.318301 30:1.023012 31:0.319801 32:-1.434513 33:-1.843434 34:1.119698 35:0.331503 36:-0.491599 37:-1.176571 38:-0.714611 39:-0.158206 40:-1.692403 41:0.247658 42:0.953023 43:-2.065610 44:-0.233161 45:-1.070448 46:1.289800 47:-0.000726 48:-1.047493 49:-0.840092 50:-0.366608 51:0.209654 52:0.260198 53:1.462512 54:-1.437915 55:0.229387 56:1.328037 57:1.156430 58:-1.135150 59:-0.373381 60:1.219405 61:-0.413960 62:-1.006535 63:-0.827121 64:-1.574214 65:1.243670 66:2.125838 67:-1.522520 68:1.045748 69:-0.966108 70:-0.454062
-1 1:0.233898 2:-0.769559 3:-0.586180 4:-1.606062 5:-0.578499 6:0.960718 7:-1.658730 8:0.611897 9:0.793981 10:0.706129 11:1.622411 12:-0.734454 13:-0.070296 14:-0.358064 15:-1.087661 16:-1.222760 17:-0.663842 18:-0.346412 19:-1.029207 20:0.935294 21:-0.145590 22:0.262573 23:1.188313 24:0.016041 25:-0.715497 26:-0.434585 27:2.555857 28:2.581450 29:-0.094277 30:0.218928 31:-0.754676 32:0.669405 33:0.544754 34:1.737464 35:-0.499029 36:1.198645 37:-1.506899 38:1.478190 39:-0.258063 40:-0.479352 41:0.271228 42:1.253094 43:-0.420822 44:-0.048225 45:1.081392 46:0.575302 47:0.703628 48:0.531271 49:0.704038 50:-0.231602 51:0.534916 52:0.818705 53:-0.215887 54:-1.344811 55:0.447322 56:-0.525957 57:-0.092992 58:-0.537632 59:-1.664783 60:2.051174 61:-0.427121 62:0.129922 63:0.801886 64:0.354054 65:1.621084 66:-1.106819 67:-0.573523 68:-1.084391 69:-0.389699 70:-1.744654
-1 1:-1.260513 2:0.772401 3:-0.777348 4:-0.729324 5:1.648681 6:-0.393787 7:-0.141766 8:0.792511 9:0.705282 10:0.371045 11:0.809409 12:1.001890 13:-0.393859 14:0.090863 15:1.255781 16:-1.038223 17:-2.616030 18:-0.501678 19:-0.749344 20:0.148791 21:0.845784 22:0.836099 23:-1.485312 24:-0.639716 25:-0.896472 26:0.315810 27:-0.751221 28:-0.236966 29:0.158800 30:-1.991490 31:-0.445745 32:0.689651 33:2.155025 34:-0.974668 35:1.859176 36:-0.460971 37:0.367584 38:-1.168624 39:1.458737 40:1.280739 41:0.094592 42:-0.125874 43:-1.898805 44:-1.959396 45:0.336764 46:-2.209979 47:1.422693 48:-0.431225 49:1.358909 50:-0.521777 51:-1.295324 52:-0.358187 53:0.016139 54:-1.342430 55:-0.507236 56:-0.047064 57:-0.883742 58:0.385771 59:-0.720903 60:1.049969 61:0.718716 62:-0.405360 63:0.851729 64:-0.320836 65:1.938532 66:0.928641 67:1.619128 68:-0.078680 69:0.082063 70:0.962087
-1 1:0.562435 2:-0.794855 3:0.984971 4:-0.072590 5:0.704815 6:-0.806983 7:0.670281 8:-1.480320 9:-0.795411 10:-0.352005 11:0.254187 12:-0.901461 13:0.840101 14:-0.444558 15:0.629013 16:-1.441592 17:-1.332996 18:-0.852884 19:0.545083 20:0.514150 21:-1.209294 22:-0.539927 23:0.071907 24:0.110813 25:0.385212 26:-0.608850 27:0.723574 28:-0.988050 29:1.414662 30:0.742816 31:0.573422 32:1.394805 33:1.084643 34:0.202862 35:0.559334 36:-0.625626 37:-0.012857 38:-0.416190 39:1.261718 40:-1.287128 41:-0.412431 42:-1.754997 43:-0.492250 44:-1.458821 45:3.202137 46:0.523569 47:-2.102605 48:0.844146 49:-0.506192 50:0.518272 51:0.396180 52:0.740944 53:-0.027925 54:0.264885 55:0.043209 56:0.362370 57:0.048226 58:0.151900 59:-2.048829 60:-1.464564 61:-0.451566 62:0.212508 63:0.521474 64:0.727180 65:-0.056870 66:-0.125221 67:-0.000697 68:-1.356073 69:0.965059 70:2.422662
-1 1:0.362736 2:-0.016543 3:-1.098151 4:-1.164165 5:-2.653611 6:-0.808310 7:-0.025913 8:0.444401 9:1.708668 10:0.176314 11:-0.848098 12:-1.119596 13:-0.903363 14:-0.753551 15:0.283533 16:-1.253263 17:1.863052 18:-0.290353 19:-0.478009 20:-1.660447 21:0.411834 22:0.756587 23:-0.198440 24:-1.244858 25:0.832145 26:0.090836 27:1.221783 28:0.286370 29:0.266130 30:-0.641192 31:0.602770 32:-1.710848 33:-0.231233 34:2.039676 35:-0.159445 36:0.626653 37:1.116919 38:-0.220595 39:-0.109376 40:-0.278760 41:0.064763 42:-0.087855 43:-0.850371 44:-0.716289 45:0.213324 46:1.012600 47:-2.036736 48:-0.189251 49:0.435396 50:1.893293 51:0.678559 52:-0.819748 53:0.897861 54:0.882655 55:0.429567 56:0.734534 57:-1.480282 58:0.789217 59:-0.433919 60:-0.090188 61:-0.185342 62:0.423059 63:1.660820 64:-0.013271 65:0.508027 66:1.336474 67:-0.690223 68:-0.513778 69:-0.592257 70:0.721505
-1 1:0.377209 2:1.126407 3:-0.698624 4:-1.803205 5:0.022740 6:-0.593524 7:-1.011642 8:0.980415 9:-0.412940 10:0.098697 11:-0.791865 12:0.143103 13:0.535897 14:0.361775 15:-0.373003 16:0.538981 17:-0.330084 18:0.525959 19:-1.289349 20:-1.611139 21:-0.852010 22:-1.356893 23:0.335695 24:-0.515136 25:0.493769 26:1.463282 27:-0.654394 28:0.761060 29:1.819678 30:1.223537 31:-0.318167 32:0.361436 33:-1.707833 34:-0.668386 35:0.248989 36:-0.230344 37:-0.186103 38:0.045011 39:0.573769 40:-1.001747 41:-1.679097 42:-1.152529 43:-0.762973 44:-1.232541 45:0.989615 46:-0.598853 47:0.677126 48:0.599449 49:-0.431048 50:-0.355708 51:-1.036323 52:1.084004 53:1.038126 54:0.556517 55:-0.245594 56:-0.071582 57:-1.066880 58:0.671415 59:0.270833 60:-2.210457 61:-0.785204 62:-0.085103 63:-1.334898 64:-0.320758 65:0.667699 66:-0.775869 67:-0.800613 68:-0.305386 69:-0.145286 70:1.040625
-1 1:2.071822 2:-0.039069 3:0.284199 4:-1.299706 5:0.692446 6:-0.668623 7:-0.277771 8:-0.113965 9:0.883689 10:-0.561920 11:0.198171 12:0.293318 13:-0.897836 14:-0.295651 15:0.784209 16:-2.151590 17:0.098437 18:0.155500 19:-0.352702 20:-0.038922 21:-1.082136 22:0.423893 23:1.005284 24:-0.650400 25:1.108014 26:-0.808793 27:0.107040 28:-0.086748 29:-1.526957 30:0.009153 31:0.009086 32:0.886235 33:1.170907 34:-0.221388 35:1.613492 36:-0.799825 37:-0.618751 38:0.628884 39:-0.379493 40:0.627216 41:-0.246785 42:-0.347198 43:-0.921596 44:0.886825 45:0.755771 46:0.732097 47:-0.952959 48:0.294116 49:-0.380318 50:1.060970 51:-0.924664 52:0.487683 53:-1.445100 54:-0.287262 55:0.786878 56:-1.743075 57:0.229616 58:1.920622 59:-1.715272 60:1.849390 61:0.745806 62:0.096041 63:1.566936 64:1.268395 65:0.333375 66:0.508300 67:-0.153829 68:-1.092312 69:0.588998 70:0.203903
-1 1:0.163714 2:0.992468 3:-0.488448 4:1.214191 5:0.299218 6:0.265441 7:-0.214770 8:-1.954250 9:0.111376 10:-0.918858 11:-0.837081 12:-0.967913 13:0.173803 14:-0.085145 15:0.889767 16:0.548937 17:-2.961341 18:-0.061121 19:-1.770559 20:0.845936 21:-1.120538 22:-2.365572 23:-0.035053 24:-0.160241 25:0.727126 26:-0.302821 27:-0.932985 28:0.596087 29:0.315975 30:-0.647030 31:0.944766 32:0.955517 33:0.690713 34:-0.516228 35:-0.230239 36:0.574236 37:0.807324 38:-0.309042 39:-1.305922 40:-1.018064 41:1.202611 42:-0.890998 43:-1.004472 44:-0.651462 45:0.934060 46:0.359811 47:1.493840 48:-0.041644 49:0.284141 50:1.163784 51:-0.599221 52:-0.274865 53:-2.250810 54:-0.310271 55:-0.834268 56:0.773119 57:-0.507183 58:0.138962 59:-0.005975 60:0.546633 61:0.906529 62:1.636152 63:-0.400641 64:1.772009 65:-0.479536 66:0.041828 67:-1.548758 68:-0.864885 69:-0.402046 70:1.076508
-1 1:-0.459806 2:0.772174 3:-0.005272 4:-1.628289 5:-1.370319 6:1.079326 7:-1.304730 8:0.699325 9:-1.967555 10:1.475611 11:-0.480823 12:1.669006 13:1.091089 14:-0.571096 15:-0.697112 16:-0.547367 17:1.069218 18:0.703718 19:0.198795 20:0.103638 21:0.699828 22:0.343814 23:-0.004509 24:0.518163 25:0.254655 26:0.247535 27:-1.323888 28:-0.331687 29:0.115095 30:0.529407 31:0.288829 32:-0.719190 33:0.622338 34:-0.906101 35:-0.079130 36:1.601801 37:-0.023228 38:1.716592 39:1.122009 40:0.347672 41:0.181321 42:-0.359362 43:1.832445 44:-0.838248 45:-0.851274 46:-1.169167 47:0.791006 48:0.688878 49:-1.598405 50:-1.280773 51:-0.292488 52:0.321055 53:0.361733 54:1.057848 55:-0.801375 56:-0.060087 57:-0.618896 58:-0.217197 59:0.627515 60:0.134928 61:-0.421525 62:-0.241741 63:-1.381008 64:-0.205662 65:0.403329 66:-0.049412 67:0.220658 68:0.567228 69:-0.502843 70:0.286491
-1 1:-1.280752 2:-0.687542 3:-0.519674 4:1.783342 5:1.445131 6:0.315322 7:0.217671 8:0.108950 9:0.019091 10:-0.346393 11:-1.168633 12:-0.599255 13:0.789787 14:0.855012 15:1.853159 16:0.050524 17:-0.359386 18:-0.641506 19:-0.121646 20:-0.832508 21:0.233958 22:1.392159 23:0.205555 24:-0.060790 25:-0.209211 26:1.641681 27:0.231667 28:0.237873 29:0.089494 30:-0.516841 31:0.099709 32:1.259411 33:-0.558721 34:0.710652 35:1.894068 36:0.749224 37:1.398361 38:-0.020469 39:2.233822 40:1.501485 41:0.434738 42:-1.209524 43:1.283607 44:-0.577839 45:-1.408622 46:-0.302590 47:0.638501 48:1.370590 49:-0.768331 50:0.799485 51:0.560871 52:0.126250 53:-1.136623 54:3.071050 55:-0.173831 56:0.600486 57:-0.535283 58:-0.399084 59:0.927721 60:1.395287 61:1.924815 62:-0.790166 63:-1.392059 64:-1.795153 65:-0.832575 66:-1.489826 67:-0.127851 68:-0.831668 69:1.015112 70:-0.266080
-1 1:-0.826103 2:1.370282 3:1.082278 4:-2.143370 5:0.335645 6:-2.332605 7:2.161439 8:-2.070000 9:1.751600 10:0.465740 11:0.479367 12:-0.040550 13:1.310771 14:-1.201291 15:0.234013 16:-0.645455 17:0.193690 18:0.442990 19:0.162464 20:-1.362948 21:0.436597 22:-0.499427 23:-1.038934 24:2.216388 25:-1.050298 26:0.875206 27:1.244277 28:0.032314 29:-0.867834 30:-1.388467 31:-0.530962 32:0.228787 33:0.147747 34:-0.217778 35:0.258201 36:0.292032 37:-0.633572 38:1.947665 39:2.481591 40:-1.099103 41:-0.565857 42:-1.212069 43:0.197837 44:0.095127 45:-0.884269 46:-0.128006 47:0.569912 48:0.629485 49:0.192732 50:-1.199388 51:-0.118208 52:0.479048 53:0.764695 54:0.677848 55:-0.351648 56:2.168771 57:0.196048 58:-1.562647 59:-0.379094 60:0.137537 61:-0.251099 62:-0.580433 63:-0.768391 64:-0.751319 65:-1.426652 66:-0.077173 67:0.058322 68:-0.738458 69:2.169993 70:-0.901271
-1 1:-0.542219 2:-0.663444 3:-1.047703 4:-0.841999 5:0.971732 6:-0.283783 7:1.126330 8:-0.099533 9:-2.514763 10:-1.171910 11:0.465889 12:-2.241478 13:2.784226 14:-1.077931 15:1.067735 16:0.708897 17:0.061164 18:0.773892 19:0.693350 20:0.402774 21:-1.575657 22:1.069998 23:0.316221 24:0.291658 25:-0.140790 26:0.072698 27:1.366987 28:-0.752186 29:-2.136175 30:-0.669744 31:-0.362145 32:2.807665 33:-0.112672 34:-0.661647 35:1.220075 36:-1.328602 37:0.307008 38:1.139165 39:-1.120289 40:1.186008 41:0.882044 42:-1.505048 43:-0.353224 44:-1.327635 45:-0.190439 46:0.094413 47:-1.057600 48:-0.310871 49:0.934164 50:-0.142787 51:-0.984181 52:0.001972 53:0.744265 54:-0.055804 55:1.624083 56:0.288537 57:-0.636556 58:1.702256 59:0.372880 60:0.213996 61:-0.038348 62:-0.759097 63:-1.198049 64:-1.528315 65:-1.105329 66:1.602718 67:-0.505989 68:-0.456740 69:-0.379677 70:-0.424069
-1 1:-1.602565 2:0.513012 3:1.351338 4:0.613213 5:1.665808 6:-0.943079 7:-0.052068 8:-0.774265 9:0.560040 10:1.487158 11:0.579855 12:-1.933214 13:-0.100215 14:-2.024504 15:-0.510429 16:1.008031 17:0.675848 18:-0.927095 19:1.196999 20:-1.210124 21:0.563846 22:-0.619679 23:0.455109 24:-1.672935 25:-0.275203 26:0.947318 27:0.947995 28:0.727437 29:0.308691 30:-0.577563 31:0.721849 32:0.005604 33:0.215266 34:-0.159472 35:-0.410752 36:-0.199137 37:-1.138583 38:0.566013 39:0.958127 40:1.572411 41:1.512279 42:-0.302697 43:-1.893059 44:-1.638651 45:0.481029 46:-1.309534 47:0.970947 48:0.005767 49:-1.592573 50:0.450298 51:-1.398985 52:-0.704316 53:-1.391175 54:-1.461221 55:0.102323 56:0.451076 57:0.790093 58:-0.779936 59:0.937129 60:-0.379720 61:1.490198 62:0.963436 63:-1.874775 64:0.336860 65:-0.733641 66:-0.451976 67:-1.169205 68:1.089724 69:0.372871 70:0.184198
-1 1:0.572538 2:0.172830 3:-0.923259 4:-0.799489 5:-1.535711 6:-1.259609 7:-1.856328 8:0.249469 9:0.820519 10:-0.258060 11:-0.007608 12:0.335998 13:-1.049238 14:-0.813214 15:1.501428 16:0.436980 17:0.012347 18:-0.876819 19:-1.122762 20:0.195616 21:0.823837 22:-0.096253 23:-0.188928 24:0.227677 25:-1.317656 26:0.134554 27:-0.449140 28:0.551538 29:-0.926121 30:1.956421 31:-0.360397 32:0.941654 33:-1.470874 34:-0.123114 35:-1.440247 36:-0.419807 37:-0.280608 38:-1.009878 39:-0.160904 40:-0.373926 41:1.175171 42:-0.736647 43:-0.511947 44:0.552860 45:-0.930227 46:-1.172413 47:-0.668822 48:1.010422 49:1.116025 50:2.015871 51:0.535005 52:-0.363079 53:-0.986458 54:1.851216 55:1.175890 56:0.234913 57:0.227767 58:-0.977082 59:0.021251 60:-2.048668 61:-1.129815 62:-0.053920 63:-0.882599 64:0.391590 65:0.857774 66:0.213266 67:-0.416943 68:0.154505 69:1.552112 70:-0.998418
-1 1:2.381366 2:0.309558 3:2.047330 4:-0.122526 5:0.762170 6:0.021353 7:-1.947393 8:-2.467896 9:-0.222061 10:-0.833979 11:-1.003471 12:-0.980534 13:-0.944173 14:-0.206888 15:-0.760558 16:0.253424 17:-0.354684 18:0.242782 19:1.804876 20:-0.334452 21:-0.295936 22:1.894814 23:-0.148497 24:-0.062007 25:0.131502 26:0.895791 27:-0.754854 28:-0.406166 29:-0.082281 30:-0.323914 31:-0.305294 32:0.372130 33:-0.261965 34:0.296600 35:0.291890 36:0.380725 37:-0.932995 38:-1.692754 39:-0.490466 40:1.140682 41:0.540687 42:-0.542072 43:1.043971 44:-0.946757 45:0.042743 46:-0.292912 47:-0.310494 48:1.405346 49:0.681903 50:1.290857 51:-0.676026 52:1.475930 53:-0.684952 54:1.459250 55:2.366060 56:1.526380 57:-0.769673 58:0.389919 59:1.984099 60:-0.829182 61:1.485084 62:-0.192936 63:-0.875166 64:-1.274347 65:0.795292 66:1.341700 67:-1.119078 68:-1.294388 69:0.252427 70:1.319097
-1 1:0.378685 2:-1.055581 3:0.567151 4:-1.809562 5:-0.071696 6:0.451970 7:0.646107 8:-0.872267 9:-0.404119 10:-1.159924 11:-0.005759 12:-0.284763 13:0.573383 14:0.599389 15:-0.140341 16:-0.431129 17:-0.748641 18:0.117114 19:-0.657389 20:-0.753278 21:-0.535029 22:-0.856682 23:0.158140 24:0.595784 25:0.857128 26:0.227850 27:0.538144 28:1.151977 29:-1.178747 30:-0.069145 31:-0.875833 32:0.651717 33:-0.512292 34:-0.986251 35:-1.397382 36:-0.331479 37:-0.258764 38:2.088075 39:0.685585 40:-1.126479 41:-0.549073 42:1.291731 43:0.448318 44:-2.094926 45:0.860340 46:0.760593 47:-0.054516 48:-0.002744 49:-0.690795 50:1.536837 51:-0.615962 52:-0.923060 53:0.944792 54:-1.897954 55:0.226521 56:2.063887 57:1.422535 58:0.103902 59:3.018564 60:-0.327936 61:0.657346 62:-0.820374 63:0.792716 64:-1.286928 65:-1.278440 66:-1.996952 67:-0.292352 68:-1.480743 69:-0.945353 70:-0.080850
-1 1:-0.148417 2:1.010867 3:-0.696394 4:-1.564512 5:-1.060411 6:-0.141351 7:-0.180242 8:-0.455671 9:-1.292072 10:-0.888687 11:-2.056901 12:-0.931590 13:-1.376678 14:0.554315 15:0.747387 16:-0.019774 17:-0.132632 18:0.547108 19:0.825561 20:-0.063544 21:-1.196585 22:-0.066753 23:-0.849289 24:-0.793421 25:-1.659706 26:0.206582 27:0.025348 28:-1.052703 29:0.010764 30:-0.527656 31:-0.157729 32:0.556730 33:-1.741773 34:-1.068316 35:-0.067556 36:-0.693316 37:0.108101 38:-0.975313 39:0.364799 40:1.988943 41:0.406095 42:1.022718 43:1.421523 44:0.925417 45:-0.490821 46:0.869028 47:-1.147372 48:0.858202 49:-0.647378 50:-1.542737 51:0.783985 52:-1.109835 53:-0.013744 54:1.370936 55:1.570737 56:2.582975 57:-0.732030 58:-0.576303 59:-2.694210 60:-2.600986 61:0.315414 62:-0.021591 63:-0.434483 64:-0.853250 65:-0.408177 66:-0.285292 67:0.415571 68:0.555907 69:-0.188257 70:-0.619633
-1 1:-0.460142 2:0.363850 3:0.732392 4:-0.444523 5:0.145577 6:-0.907818 7:-0.374756 8:0.325416 9:-1.271109 10:-0.515899 11:0.004417 12:-1.330524 13:-0.804003 14:0.369890 15:-0.150919 16:-0.820202 17:-0.880635 18:0.427649 19:2.146742 20:0.084461 21:-0.566885 22:1.323289 23:-0.370454 24:-1.188541 25:0.179278 26:-0.388419 27:0.266554 28:-1.126121 29:-0.401767 30:-0.262553 31:0.655785 32:0.029258 33:-0.154015 34:-1.324967 35:-1.580354 36:-1.842573 37:0.866436 38:1.176425 39:1.334118 40:0.407426 41:-0.388692 42:-0.130005 43:0.928467 44:-1.910058 45:1.608778 46:-0.284586 47:-1.289447 48:-0.109269 49:-0.198807 50:0.064553 51:0.795569 52:1.729718 53:-1.005307 54:-0.103610 55:0.006247 56:0.351891 57:-0.858199 58:1.115620 59:-0.467249 60:-0.905403 61:-0.432889 62:0.523549 63:-1.361820 64:0.165846 65:0.708926 66:0.288163 67:-2.984725 68:0.113503 69:0.035952 70:0.078132
-1 1:-2.856735 2:0.639484 3:-2.715571 4:-1.356856 5:0.074245 6:0.052623 7:-1.389821 8:-1.062195 9:-1.352610 10:1.895205 11:0.697408 12:0.206084 13:0.372868 14:-0.362154 15:0.418588 16:-0.803803 17:-0.401953 18:1.544268 19:0.623019 20:-2.507686 21:0.745985 22:2.621092 23:-1.721637 24:-0.822552 25:0.206303 26:-1.256779 27:-0.556414 28:-0.731844 29:-0.317348 30:1.207093 31:0.149389 32:1.196831 33:0.965405 34:0.955638 35:0.302536 36:-0.628974 37:0.429012 38:0.260396 39:-2.309355 40:0.653333 41:0.001842 42:1.371261 43:-0.605023 44:0.240346 45:0.505310 46:0.105445 47:0.875451 48:0.249404 49:0.095174 50:-0.497523 51:-0.264842 52:1.357612 53:-0.467449 54:0.103858 55:-1.002940 56:-1.039403 57:-0.268768 58:0.748479 59:-1.081904 60:-0.938151 61:-2.671841 62:-0.396450 63:-0.971562 64:2.379583 65:-0.610239 66:0.883714 67:0.417518 68:-0.541403 69:0.712492 70:0.268279
-1 1:-2.134704 2:-0.273047 3:0.049928 4:-0.570342 5:1.535665 6:0.046593 7:-0.025358 8:1.112953 9:-0.776932 10:1.732500 11:-0.633831 12:1.847931 13:0.316417 14:-0.307898 15:-1.315802 16:-0.589250 17:-1.293672 18:-0.305352 19:-1.415932 20:0.045315 21:-1.386175 22:0.312449 23:2.148883 24:-0.035708 25:1.364848 26:1.340076 27:0.231948 28:-0.206769 29:-0.992292 30:0.472253 31:1.160630 32:-0.443294 33:0.497777 34:-1.232189 35:-0.550042 36:0.077179 37:-0.682695 38:-0.174646 39:0.108823 40:-0.648771 41:-0.463486 42:-1.438872 43:-0.997592 44:0.822247 45:-0.766440 46:0.075882 47:-0.403850 48:-0.440954 49:-0.333939 50:-0.193345 51:-0.088544 52:0.291256 53:0.995284 54:0.099625 55:0.965583 56:0.082121 57:1.188917 58:-0.393000 59:0.189877 60:0.953402 61:0.970072 62:-0.129159 63:0.683195 64:-0.997559 65:0.172920 66:-0.086681 67:-0.281428 68:1.346006 69:0.107466 70:-0.208724
-1 1:-0.695130 2:-0.591598 3:-0.251507 4:0.608747 5:-0.997167 6:1.869096 7:0.474355 8:-0.390834 9:-0.259552 10:-0.353623 11:0.252424 12:0.372458 13:-0.738763 14:-0.892997 15:-0.990269 16:0.188844 17:-0.834198 18:-0.216880 19:0.021852 20:-0.333381 21:0.184994 22:-1.380785 23:-1.302181 24:1.217555 25:1.665282 26:0.216913 27:0.637434 28:-0.200441 29:0.698456 30:-1.451024 31:-0.491593 32:-0.248809 33:-0.447514 34:-1.135325 35:-1.046782 36:-1.095755 37:-1.754275 38:-0.106713 39:-0.290690 40:-0.776963 41:2.741367 42:1.866021 43:0.206408 44:0.682948 45:0.101592 46:0.086606 47:0.150863 48:0.175506 49:0.431716 50:-0.071726 51:-0.927848 52:-0.696466 53:-0.859285 54:0.225509 55:0.793926 56:-0.254503 57:0.359404 58:1.128692 59:-0.621054 60:0.086166 61:1.409339 62:0.006444 63:-1.185785 64:-0.423328 65:1.050279 66:-1.819015 67:-0.396625 68:1.884855 69:0.312604 70:0.755100
-1 1:-0.477266 2:-0.708995 3:-0.456090 4:0.249323 5:-1.199186 6:-0.850538 7:1.980025 8:-1.374795 9:1.703199 10:-1.149329 11:-0.607940 12:-1.581918 13:1.182760 14:-0.983611 15:1.060563 16:1.430499 17:-0.980457 18:1.328843 19:0.470799 20:2.074486 21:2.283337 22:-0.148710 23:1.298859 24:-1.220799 25:-1.007396 26:0.382380 27:-0.512516 28:0.214781 29:-0.603738 30:-0.683701 31:0.277689 32:-0.758827 33:-0.321667 34:0.540728 35:0.629391 36:-0.197139 37:-0.175346 38:-0.318214 39:1.688886 40:-0.824873 41:0.156511 42:0.947529 43:-0.787861 44:-0.129244 45:1.057193 46:0.145724 47:0.754515 48:0.391600 49:0.928292 50:-1.027184 51:-1.607700 52:-0.652576 53:-0.307506 54:-1.587016 55:0.133553 56:0.063639 57:0.208347 58:0.386783 59:0.176701 60:2.318639 61:0.392940 62:-0.562680 63:-0.174972 64:1.876029 65:1.104441 66:-0.293447 67:1.808599 68:-0.156939 69:2.013724 70:0.528317
-1 1:-0.792386 2:0.278076 3:-1.286396 4:-0.035768 5:1.184173 6:-0.504726 7:0.623301 8:-0.970452 9:-1.530594 10:-0.733124 11:0.244726 12:0.840476 13:-0.527775 14:-0.056964 15:0.465135 16:-0.023161 17:-0.107919 18:0.761246 19:-0.780268 20:-0.330001 21:-0.432064 22:-0.197004 23:-0.145551 24:-0.642087 25:-0.597204 26:-0.014758 27:0.499338 28:0.742424 29:-0.087366 30:-0.045197 31:1.490784 32:0.541195 33:0.825021 34:0.659915 35:-0.094796 36:0.309953 37:-0.735749 38:0.040359 39:-0.556586 40:-1.013297 41:0.042825 42:1.672834 43:0.926583 44:1.264936 45:0.303765 46:0.214737 47:0.020071 48:-1.385448 49:-0.755032 50:-0.827446 51:-1.576093 52:-0.882965 53:-2.080804 54:0.955035 55:-0.161183 56:1.374067 57:-0.670925 58:-1.073368 59:0.472847 60:0.145463 61:0.011272 62:0.983752 63:-0.241220 64:-1.683732 65:-0.339677 66:0.470080 67:-1.145383 68:0.504183 69:-2.591307 70:-0.288540
-1 1:1.016156 2:1.202881 3:-0.031047 4:-0.305058 5:-0.090680 6:-0.575463 7:0.835764 8:0.197285 9:1.981216 10:0.133829 11:-0.846260 12:1.244139 13:0.631286 14:-0.032169 15:0.260040 16:0.762408 17:-0.390299 18:-0.151813 19:-0.028588 20:0.641500 21:-1.366594 22:0.834626 23:-0.756770 24:0.579701 25:-1.779866 26:0.693030 27:-1.046346 28:-0.070623 29:-1.596036 30:-1.201577 31:-0.932936 32:2.723491 33:-1.386776 34:0.355391 35:-1.497121 36:1.895449 37:-1.401864 38:-1.479870 39:-1.237998 40:0.417932 41:0.237128 42:3.107457 43:0.052724 44:1.384878 45:1.327927 46:0.647076 47:-1.188425 48:0.398511 49:-0.369461 50:-0.726232 51:0.727300 52:0.203900 53:-0.919579 54:-2.076207 55:-1.561463 56:-0.822514 57:-0.359105 58:-0.180903 59:1.103031 60:-0.906890 61:0.959474 62:-0.555010 63:0.199444 64:-0.178158 65:-0.562120 66:0.634361 67:-0.705949 68:-0.973472 69:-0.624027 70:-0.372089
-1 1:-0.065808 2:0.161040 3:-0.684549 4:1.234690 5:0.179636 6:1.080678 7:1.161341 8:-0.161267 9:-1.358290 10:1.089040 11:0.092813 12:-0.949577 13:0.387017 14:0.620161 15:1.696743 16:-0.942865 17:0.312913 18:0.344830 19:0.341424 20:0.619934 21:-0.082559 22:-0.150779 23:-1.742675 24:2.226480 25:-0.686933 26:0.015259 27:-1.473538 28:-0.616542 29:-0.234792 30:0.382850 31:-0.149159 32:-2.616591 33:-1.358487 34:2.047865 35:0.071450 36:0.066684 37:-2.845044 38:-1.937475 39:-2.154203 40:-1.372765 41:0.186686 42:-0.569416 43:-0.484067 44:1.608929 45:-0.088498 46:0.907237 47:-0.823209 48:-1.314921 49:2.177030 50:-0.586481 51:-0.266127 52:1.189859 53:0.023593 54:-0.669032 55:-1.203675 56:2.187228 57:1.386300 58:0.531478 59:-0.418579 60:-1.095542 61:1.253847 62:0.790681 63:-0.427552 64:-0.991757 65:-1.116730 66:1.034366 67:0.552163 68:0.891618 69:-1.174425 70:0.753248
-1 1:0.610043 2:0.152585 3:-1.406544 4:-0.148489 5:-0.427337 6:0.612743 7:0.191223 8:-1.365979 9:0.095825 10:-0.492038 11:-1.428190 12:-0.980166 13:0.388912 14:-1.210609 15:-0.200178 16:-0.025840 17:-1.283471 18:0.280993 19:0.339478 20:2.462076 21:-1.538341 22:-0.308546 23:-0.020923 24:0.276345 25:-0.251121 26:0.323645 27:-0.466796 28:-0.497653 29:-0.986311 30:1.236961 31:-2.017831 32:-0.242716 33:-0.182495 34:-1.172137 35:0.161513 36:-1.146877 37:-0.378041 38:-1.334624 39:0.011531 40:-0.139737 41:-0.170179 42:1.078460 43:-2.080312 44:0.434166 45:1.926133 46:0.100856 47:2.306824 48:0.135355 49:0.168278 50:0.628395 51:-0.562544 52:1.565036 53:-0.966059 54:0.158945 55:-0.106169 56:0.267549 57:0.946766 58:-1.393174 59:0.761524 60:-0.088998 61:-0.294375 62:0.143859 63:2.740819 64:0.375508 65:0.117427 66:0.247415 67:0.689463 68:-1.109946 69:0.249579 70:-0.005586
-1 1:-0.619981 2:-1.258345 3:-0.296321 4:0.517487 5:1.067501 6:-1.450910 7:0.543870 8:0.869100 9:-0.225808 10:-0.127773 11:-0.900915 12:0.795836 13:1.269670 14:-1.388767 15:-0.290821 16:-0.331186 17:0.032572 18:2.360307 19:-0.035793 20:-1.576729 21:-1.205755 22:1.893557 23:-0.276807 24:1.384163 25:-0.667653 26:-1.011560 27:-0.457395 28:-0.643532 29:0.241571 30:-0.151404 31:0.639656 32:-2.300845 33:0.540800 34:0.543410 35:-1.023867 36:-1.539095 37:-1.401691 38:0.153932 39:-0.405755 40:0.572288 41:1.209200 42:1.510416 43:-0.187217 44:-1.952619 45:0.214528 46:0.148923 47:-0.291224 48:-0.416953 49:1.027139 50:-0.625303 51:-0.566366 52:-1.772154 53:-0.705809 54:1.119112 55:0.747783 56:-0.566435 57:1.504223 58:0.413507 59:1.714861 60:-0.433666 61:-0.362408 62:0.588137 63:-0.628570 64:-0.079112 65:-1.611998 66:0.090429 67:0.737003 68:-1.269748 69:2.811342 70:1.435548
-1 1:0.062725 2:1.164920 3:-1.492085 4:0.298869 5:-0.634602 6:0.676758 7:1.640383 8:1.782262 9:-0.720010 10:0.064601 11:-0.100033 12:-0.501615 13:-0.001821 14:0.324848 15:-1.094927 16:-0.978273 17:-1.685895 18:-1.115716 19:-0.174031 20:0.977586 21:-0.983539 22:-0.315101 23:0.029554 24:-0.394413 25:1.508421 26:-0.174542 27:0.025663 28:0.053992 29:-0.138403 30:-0.710515 31:-0.145314 32:-0.667196 33:-0.619363 34:1.143932 35:-0.509298 36:-2.500218 37:-0.730145 38:-1.587681 39:-0.496607 40:1.697235 41:-0.046004 42:1.793371 43:0.732679 44:-0.946141 45:1.322395 46:1.658552 47:-0.779715 48:1.074874 49:-0.952370 50:0.622913 51:-0.228896 52:0.860623 53:-1.401400 54:-0.588179 55:-0.853718 56:-1.606494 57:1.107718 58:-0.451055 59:-0.291463 60:1.334295 61:2.395291 62:-0.439948 63:-0.774708 64:0.869108 65:-0.951585 66:0.320639 67:0.994686 68:-0.312743 69:1.455405 70:-0.457196
-1 1:0.349199 2:0.895641 3:-0.381211 4:-0.206681 5:1.409221 6:-0.433344 7:0.799152 8:-0.395997 9:1.878831 10:1.289579 11:-1.486689 12:-0.351050 13:-0.345817 14:-0.786070 15:0.343362 16:0.719114 17:-1.496412 18:0.062646 19:0.632128 20:0.050275 21:-0.058842 22:-0.342955 23:1.845519 24:0.585192 25:-0.119627 26:0.538472 27:-0.215333 28:2.371488 29:-0.469052 30:-1.935020 31:-0.121738 32:-1.447341 33:1.018774 34:0.325311 35:-0.760414 36:0.684072 37:1.108743 38:0.853883 39:-1.138150 40:-1.243497 41:0.449263 42:-0.025082 43:-1.197391 44:0.009873 45:0.738646 46:-0.513581 47:-0.529962 48:0.208690 49:-0.780508 50:0.276709 51:-0.136108 52:-0.059178 53:1.559632 54:-2.811662 55:-1.677013 56:-0.351990 57:-0.814281 58:-0.439431 59:0.993129 60:0.424509 61:-0.331446 62:0.254895 63:-0.313913 64:-0.003373 65:0.186389 66:0.662765 67:-1.483535 68:1.089781 69:0.087467 70:1.590771
-1 1:-0.431076 2:-0.731857 3:0.885113 4:-0.698696 5:1.564916 6:-0.758255 7:0.708932 8:-1.138949 9:1.595776 10:-2.050134 11:-0.405517 12:-0.696977 13:0.324990 14:1.070408 15:0.574705 16:-0.831160 17:-0.544445 18:-1.438387 19:-1.149132 20:0.449764 21:0.660009 22:0.580110 23:0.504484 24:1.031573 25:-2.420240 26:-1.301159 27:-0.510659 28:-0.407681 29:-1.636362 30:-0.874606 31:-0.560398 32:-0.770463 33:0.933221 34:0.286153 35:-1.104338 36:0.147664 37:0.764936 38:-1.357145 39:0.609285 40:-0.128702 41:-1.492781 42:0.928343 43:-0.622406 44:1.110266 45:-2.582149 46:-1.183894 47:0.641924 48:-1.990708 49:-1.642576 50:-0.064687 51:0.456644 52:0.434586 53:-1.267311 54:0.207131 55:0.792525 56:1.784600 57:1.002444 58:0.866598 59:1.504834 60:-1.448493 61:-0.425191 62:0.483174 63:1.032791 64:1.604624 65:-0.612738 66:0.260715 67:0.236635 68:-0.701695 69:-0.727827 70:0.083483
-1 1:-0.012317 2:-0.504661 3:-0.867991 4:-0.737891 5:1.185726 6:1.027517 7:0.319482 8:-1.209670 9:1.533817 10:0.389379 11:-1.633533 12:-0.217832 13:-0.527555 14:1.759929 15:0.128502 16:0.295417 17:-0.546040 18:-2.280895 19:-1.481644 20:-1.933854 21:-0.189556 22:-0.695188 23:0.885298 24:1.220026 25:0.929751 26:1.325956 27:-0.140873 28:0.288002 29:0.140469 30:-0.753812 31:2.370843 32:2.751236 33:1.155900 34:-0.376778 35:1.998474 36:0.135894 37:0.459923 38:1.546211 39:-0.485329 40:0.913622 41:-0.223647 42:-2.745254 43:-0.005497 44:-0.067772 45:0.305031 46:-0.280153 47:-1.471217 48:0.078333 49:0.672085 50:1.121725 51:0.626605 52:-1.649872 53:-0.915541 54:-0.806859 55:0.306500 56:-0.185843 57:0.318172 58:-1.091595 59:1.685620 60:-1.642174 61:-1.335087 62:-0.394748 63:-1.205634 64:-1.227443 65:-0.458989 66:0.855358 67:-1.207634 68:-0.853481 69:0.520600 70:1.574374
-1 1:-0.157163 2:-1.185048 3:-0.689486 4:0.374249 5:0.161861 6:1.189217 7:-0.269888 8:1.491982 9:-0.237034 10:0.624546 11:-0.972096 12:0.121585 13:-0.362063 14:0.316461 15:-0.037285 16:-0.355535 17:-0.926123 18:-0.530237 19:0.694867 20:0.475766 21:-0.229740 22:-0.961467 23:-0.471708 24:-1.340689 25:-1.331483 26:0.631018 27:0.210360 28:0.135302 29:0.884696 30:-0.035944 31:-1.090555 32:-0.303202 33:-0.995588 34:0.786625 35:-0.340861 36:1.096196 37:-1.630655 38:0.399993 39:-0.307394 40:-0.746201 41:-1.099452 42:-1.012146 43:1.666605 44:-0.652785 45:1.709751 46:0.075719 47:1.139113 48:0.738884 49:-0.362171 50:1.365332 51:0.390316 52:0.566171 53:-1.467683 54:0.205631 55:0.714809 56:-1.166258 57:0.712063 58:0.051294 59:-0.385529 60:0.880696 61:-1.639783 62:-0.529003 63:0.126525 64:-0.668804 65:0.425280 66:-0.042904 67:-1.396075 68:1.106658 69:1.619512 70:2.325070
-1 1:-1.606823 2:0.922380 3:-0.149819 4:-0.476093 5:-0.706110 6:-0.938843 7:0.891830 8:-0.169692 9:-0.632751 10:-0.229535 11:-0.466462 12:0.982322 13:-1.511211 14:1.472279 15:0.625135 16:0.577212 17:-0.892234 18:-1.305103 19:-0.744250 20:0.331352 21:0.466282 22:-0.138274 23:0.383158 24:-0.655513 25:-0.799341 26:1.854824 27:-0.163638 28:-1.298997 29:-1.164896 30:1.041205 31:0.708024 32:1.155159 33:-0.926011 34:-0.283552 35:-0.792938 36:0.213750 37:1.256224 38:-0.561342 39:1.110037 40:0.065065 41:0.977284 42:-0.788842 43:1.586703 44:-0.663991 45:-1.330046 46:0.178949 47:0.637294 48:-0.495525 49:-1.745264 50:-0.444660 51:0.814515 52:0.300621 53:0.918329 54:-0.317613 55:0.505034 56:-0.292260 57:-0.742389 58:-0.225117 59:-0.650525 60:-0.178763 61:0.599290 62:-0.242862 63:-1.278308 64:0.838289 65:1.088219 66:0.521551 67:0.273092 68:0.202783 69:1.055984 70:0.059281
-1 1:0.070758 2:-0.696106 3:1.380323 4:2.127865 5:-1.582511 6:-0.964840 7:0.208540 8:0.985212 9:0.997284 10:2.032719 11:1.057730 12:-0.470834 13:-0.545852 14:-0.571392 15:-0.276745 16:-0.213656 17:-0.257629 18:-0.903630 19:-0.131056 20:-0.014872 21:0.999660 22:-1.309324 23:-1.287405 24:-0.566225 25:0.472152 26:-1.156152 27:-0.627708 28:0.095970 29:-0.680134 30:-0.456855 31:-1.282423 32:0.165765 33:-0.132224 34:0.549893 35:-0.452398 36:0.331161 37:0.362814 38:-0.139598 39:-0.982102 40:-0.552117 41:0.867192 42:0.326152 43:1.716003 44:-1.109141 45:0.710223 46:-0.487612 47:-0.973987 48:-0.009491 49:1.230886 50:0.479442 51:0.575268 52:-0.886675 53:0.694453 54:0.104964 55:-0.222621 56:1.702323 57:-0.330475 58:0.604289 59:2.208025 60:-1.617573 61:1.333068 62:-0.799861 63:2.048743 64:-1.942481 65:-0.183067 66:-0.268145 67:0.985646 68:0.489889 69:-1.391672 70:-1.130453
-1 1:1.790083 2:-0.694771 3:-1.015819 4:1.346200 5:-1.043332 6:-0.646529 7:0.787705 8:0.207926 9:-1.559526 10:0.427846 11:-1.069492 12:1.339055 13:-0.371798 14:0.592796 15:0.662608 16:0.420032 17:-1.931729 18:-0.194546 19:-0.311476 20:0.170044 21:0.686082 22:-1.030555 23:1.052949 24:1.165243 25:1.058128 26:-1.778887 27:-0.479204 28:-0.054470 29:0.201632 30:-0.566309 31:-1.124154 32:-0.440621 33:2.169539 34:0.026696 35:-0.459883 36:-2.013269 37:0.836416 38:-0.264875 39:-0.601811 40:-0.153717 41:-0.022149 42:-0.632589 43:-1.407740 44:-1.222703 45:1.718521 46:0.062064 47:-0.433788 48:-1.211205 49:0.049914 50:-0.314613 51:0.365761 52:-0.923078 53:0.608026 54:-0.292622 55:1.652302 56:-0.066181 57:-0.719938 58:-1.406478 59:1.394477 60:-0.371624 61:-0.110262 62:0.392542 63:2.156075 64:-0.077477 65:1.252289 66:-0.642029 67:-0.040168 68:1.583183 69:-0.044623 70:-2.168884
-1 1:1.219964 2:1.107846 3:-0.653182 4:-0.171547 5:0.370285 6:-0.903230 7:-0.203980 8:-0.776120 9:0.216236 10:0.752359 11:0.959789 12:-0.293470 13:-1.502796 14:0.373711 15:0.816466 16:-1.405602 17:0.804391 18:0.447470 19:-1.052443 20:0.460044 21:0.834094 22:0.256298 23:-0.248691 24:-1.753843 25:-1.176945 26:0.125820 27:-1.033100 28:1.329135 29:0.214177 30:-0.385123 31:-0.390601 32:0.857284 33:-2.367536 34:-0.326851 35:0.386670 36:-0.753154 37:-0.782093 38:1.649910 39:-0.754387 40:-2.117026 41:-0.069345 42:0.274868 43:0.087607 44:-1.391100 45:0.597643 46:0.375746 47:-0.524054 48:2.512585 49:-1.008797 50:-0.383815 51:-1.580566 52:0.287718 53:0.528643 54:-0.698048 55:-0.503669 56:0.378992 57:-1.286425 58:-0.886861 59:-0.134692 60:0.753233 61:0.761097 62:1.414664 63:0.243920 64:-1.138239 65:2.262727 66:-0.259674 67:0.734488 68:-0.416217 69:-0.278226 70:-1.100117
-1 1:-0.111947 2:-0.861258 3:1.649628 4:-1.794495 5:0.558123 6:-1.746025 7:0.989037 8:0.677069 9:1.101345 10:1.091755 11:-0.382295 12:1.038146 13:-1.795376 14:-1.129092 15:0.898605 16:1.025773 17:0.767842 18:-0.114086 19:-2.686552 20:1.815692 21:0.226076 22:0.522055 23:-0.092193 24:-0.645091 25:0.314892 26:-0.392318 27:-0.296504 28:0.270561 29:1.242200 30:0.499660 31:-1.172639 32:-0.075386 33:1.478542 34:0.900598 35:1.656720 36:-0.627984 37:-0.179604 38:-0.307284 39:-0.356891 40:-0.229639 41:-0.845821 42:-0.262081 43:0.404652 44:-0.323210 45:-0.934180 46:1.078953 47:-0.781166 48:-0.168997 49:0.908573 50:-2.424641 51:-0.592128 52:-0.019218 53:-0.447748 54:-1.483437 55:-0.052845 56:0.725881 57:-2.049470 58:1.881470 59:-1.353191 60:-1.849238 61:-0.547549 62:-0.842363 63:0.737203 64:0.381257 65:-1.998186 66:-0.236464 67:0.365537 68:0.622505 69:-1.247071 70:-2.083081
-1 1:1.799915 2:-0.165028 3:-1.304209 4:-1.619343 5:-1.127961 6:0.432323 7:-0.897436 8:-0.344609 9:-0.033871 10:-0.439110 11:-0.517566 12:1.818658 13:-0.186966 14:1.935448 15:-1.151581 16:-0.591015 17:0.395962 18:-1.370648 19:1.494782 20:0.718588 21:0.223203 22:0.019759 23:1.304202 24:0.242322 25:0.286244 26:2.083129 27:-1.832845 28:1.402380 29:-0.411615 30:-0.448802 31:-0.931097 32:-0.106536 33:0.948286 34:-0.138446 35:0.958554 36:-1.146939 37:-0.638193 38:0.063759 39:1.101130 40:0.591838 41:0.587798 42:0.297337 43:2.714194 44:1.793444 45:1.138389 46:1.147321 47:-0.938662 48:-0.812250 49:-1.412134 50:-0.437654 51:-0.758856 52:0.183180 53:0.225315 54:0.604669 55:0.521667 56:-0.585618 57:0.349023 58:-0.850428 59:1.627095 60:0.781506 61:1.962232 62:-0.820007 63:0.625074 64:-0.595483 65:-1.649098 66:1.135110 67:0.147111 68:0.224006 69:2.088503 70:-1.027241
-1 1:0.507738 2:0.129684 3:0.011700 4:-0.648559 5:0.922545 6:-0.186694 7:-0.307842 8:0.143624 9:1.041636 10:1.926542 11:-0.990424 12:0.564569 13:0.165277 14:-0.117013 15:-1.256849 16:-0.916449 17:-1.436225 18:-0.760655 19:1.310119 20:0.873911 21:-0.582415 22:-0.393662 23:-0.795971 24:1.934666 25:-1.315940 26:1.235554 27:-0.674735 28:0.641745 29:0.549322 30:0.232771 31:0.788083 32:0.700796 33:0.087686 34:1.515255 35:-0.344891 36:0.302308 37:1.119968 38:2.234210 39:0.258442 40:1.538385 41:-1.982256 42:-1.293974 43:-0.176170 44:-0.964741 45:1.640214 46:-1.167784 47:-1.042134 48:0.791709 49:-0.442868 50:0.495767 51:-0.530957 52:-1.821187 53:-0.121953 54:0.177848 55:0.445584 56:1.509276 57:0.351936 58:-0.079736 59:-0.119596 60:0.881447 61:-0.945047 62:-0.733824 63:-0.098914 64:-0.217729 65:0.283566 66:2.105840 67:2.669357 68:0.207286 69:-0.210781 70:-0.786627
-1 1:-1.304555 2:-0.256394 3:0.076154 4:-1.912436 5:-0.360774 6:0.612218 7:0.536856 8:-0.884558 9:0.951489 10:-1.430251 11:-0.025863 12:-0.826493 13:-0.185654 14:0.509967 15:-1.083678 16:1.823665 17:0.350273 18:-0.284307 19:1.933241 20:1.247733 21:-0.273899 22:-0.457974 23:-1.427319 24:-1.042700 25:-1.210881 26:0.175299 27:-1.350547 28:-0.933573 29:0.679282 30:0.480626 31:-0.475661 32:-1.602502 33:1.074717 34:1.483458 35:-2.464043 36:-0.641457 37:0.521805 38:-1.052681 39:-1.219382 40:1.833651 41:1.410573 42:0.096754 43:1.206086 44:0.017101 45:-0.132435 46:-0.206786 47:0.537913 48:1.272826 49:1.518416 50:-1.591092 51:0.073494 52:0.450357 53:-1.406866 54:0.704049 55:0.770539 56:-1.693448 57:-1.120607 58:-0.344151 59:0.121987 60:0.800686 61:0.533554 62:-1.666330 63:0.551959 64:1.368142 65:-0.970823 66:1.589782 67:0.202054 68:0.969990 69:1.265664 70:0.458719
-1 1:-0.491805 2:1.876599 3:0.419360 4:-2.320873 5:0.256360 6:1.623586 7:-0.821269 8:1.791136 9:-0.741945 10:1.213261 11:-0.433531 12:0.985548 13:-1.496673 14:-0.488386 15:0.277690 16:-1.164912 17:-0.965385 18:1.888064 19:-0.550346 20:-0.930077 21:-1.348451 22:-1.051251 23:1.086882 24:-0.004230 25:1.041865 26:1.002261 27:0.791593 28:-1.277485 29:-0.947405 30:-1.271025 31:-0.239168 32:-0.239748 33:-0.282166 34:0.771579 35:-0.573078 36:-0.983741 37:0.131770 38:1.032989 39:0.375180 40:-0.326482 41:1.195015 42:1.010076 43:-0.037847 44:1.246841 45:0.247476 46:-0.453695 47:0.521718 48:1.383992 49:2.264184 50:-2.754892 51:1.268615 52:0.345165 53:0.718753 54:1.070349 55:0.515446 56:1.551779 57:1.338836 58:1.013881 59:-0.068556 60:-0.300059 61:0.129440 62:-0.880496 63:0.762967 64:-1.941006 65:-1.433835 66:-0.246210 67:0.645156 68:1.676238 69:0.086492 70:-0.204989
-1 1:1.202312 2:-0.440775 3:-1.316061 4:-0.431478 5:-0.139210 6:-0.258052 7:-1.106480 8:-0.265449 9:0.181576 10:-0.959019 11:-0.355569 12:-1.019325 13:-0.171229 14:1.855343 15:-0.146346 16:0.305643 17:0.753710 18:0.789266 19:-1.187813 20:1.322399 21:1.323844 22:0.183603 23:-0.506460 24:-0.825552 25:-0.670100 26:0.284748 27:-0.115391 28:-0.894037 29:-0.233618 30:-0.548713 31:1.307208 32:0.103103 33:3.049211 34:-1.015708 35:-0.297546 36:-1.256400 37:-1.109787 38:0.255559 39:-0.070419 40:2.899900 41:0.370964 42:1.329158 43:0.367326 44:0.153323 45:1.085343 46:-0.273807 47:0.326962 48:1.871876 49:-0.316283 50:-0.103746 51:1.416511 52:0.229189 53:0.036702 54:1.012823 55:-0.405065 56:-1.763849 57:-0.706178 58:2.335546 59:1.873151 60:-1.015137 61:0.177333 62:-0.817600 63:1.483314 64:-0.839284 65:0.469478 66:0.017321 67:-1.622855 68:2.518513 69:1.711640 70:0.102482
-1 1:0.539005 2:0.228537 3:0.746072 4:-1.412208 5:-0.989568 6:1.430095 7:-0.104557 8:-0.907495 9:1.537376 10:1.178556 11:-0.488904 12:0.533536 13:-0.827567 14:-1.120619 15:0.219429 16:1.574645 17:-0.132520 18:-0.202518 19:2.392709 20:0.561378 21:1.020819 22:-0.732252 23:-0.262173 24:-0.643716 25:1.774203 26:1.101111 27:-1.432937 28:0.363815 29:-0.298991 30:-1.400318 31:-0.502663 32:-0.384153 33:1.211234 34:1.571029 35:-0.631757 36:1.660221 37:0.309258 38:2.001329 39:-1.872303 40:1.016990 41:-0.309395 42:-1.117805 43:0.215229 44:0.096531 45:-0.850654 46:-0.057865 47:-1.311082 48:0.368135 49:-0.142575 50:-0.934931 51:0.756303 52:-0.694274 53:-0.425477 54:0.424647 55:-0.516118 56:-0.783228 57:-1.788113 58:0.935874 59:1.718256 60:0.664861 61:2.212351 62:-0.287049 63:0.414793 64:-1.942307 65:-0.513839 66:-0.055114 67:1.100561 68:-2.006584 69:-0.438070 70:-0.053146
-1 1:0.854943 2:-0.510617 3:-0.297809 4:1.070155 5:-0.960126 6:-1.973939 7:-0.578570 8:0.611064 9:2.013843 10:-1.048888 11:-1.045262 12:0.591308 13:0.209404 14:-0.535143 15:2.549094 16:-0.291848 17:-0.360475 18:0.287319 19:-0.686085 20:0.720165 21:-0.105847 22:-0.638858 23:1.182801 24:0.452618 25:0.150363 26:-0.866752 27:-0.347901 28:-1.356230 29:-0.575914 30:-0.532480 31:-0.347060 32:0.125207 33:-0.351915 34:1.054589 35:0.190431 36:-0.255379 37:-1.316113 38:0.794637 39:1.511748 40:-0.628345 41:0.514828 42:0.989447 43:0.090008 44:-2.067842 45:0.020746 46:-0.286611 47:-0.308917 48:0.017540 49:1.210087 50:-0.308998 51:0.622823 52:-1.529787 53:0.974669 54:-0.414219 55:-0.044073 56:0.638661 57:-0.548287 58:0.584284 59:-1.526063 60:0.306016 61:0.696519 62:0.513048 63:-0.539865 64:0.118398 65:-0.322190 66:-0.689760 67:-0.047146 68:0.522334 69:1.805040 70:-0.059440
-1 1:0.339046 2:0.059689 3:-0.000261 4:-0.122476 5:-0.644529 6:-0.198775 7:-0.071086 8:-2.057968 9:0.314188 10:0.899820 11:-0.200707 12:0.755466 13:0.646193 14:0.910815 15:-1.291966 16:0.313201 17:-0.788331 18:0.696548 19:-0.414585 20:0.558656 21:0.050831 22:-0.513648 23:-2.163033 24:0.332144 25:0.044966 26:0.007408 27:0.014995 28:-0.092853 29:0.742780 30:-0.169877 31:0.779736 32:-0.314741 33:-1.203726 34:0.640741 35:0.758224 36:0.729961 37:0.366848 38:0.520939 39:-0.345470 40:-1.212532 41:1.457322 42:0.389525 43:0.594104 44:-0.751073 45:-0.947417 46:0.441548 47:0.645685 48:0.531218 49:0.872916 50:0.507258 51:0.077694 52:-0.576140 53:-1.077406 54:-0.640424 55:0.278222 56:0.213864 57:2.189226 58:-0.378312 59:-1.856768 60:0.654472 61:-1.331192 62:0.133653 63:1.357813 64:1.437736 65:0.811803 66:-0.599420 67:1.919109 68:-0.408399 69:1.228191 70:0.451306
-1 1:-0.267689 2:-2.500909 3:-0.941733 4:-0.622724 5:-0.287839 6:-0.191777 7:0.355333 8:2.193358 9:0.057383 10:0.800195 11:-2.770114 12:-0.189768 13:-1.486826 14:-0.801582 15:-0.891139 16:2.975212 17:0.084153 18:-0.902174 19:-0.317820 20:-0.176294 21:1.164861 22:0.144152 23:0.767009 24:1.410241 25:-0.980255 26:-1.175822 27:-0.288796 28:0.357872 29:0.322613 30:0.810784 31:-0.197418 32:0.841777 33:1.206126 34:0.818742 35:0.094100 36:-0.036727 37:1.376926 38:0.300128 39:-0.492136 40:-2.583359 41:0.150502 42:0.437991 43:-0.608319 44:-0.336796 45:1.052299 46:-1.201269 47:-0.601433 48:0.302424 49:-1.244180 50:-0.185653 51:-0.392271 52:0.054009 53:0.781320 54:-0.384467 55:0.427794 56:-1.691084 57:-1.922189 58:0.217825 59:0.005597 60:1.058080 61:2.269582 62:0.123350 63:-1.199957 64:0.982860 65:-0.578910 66:-2.399700 67:-0.943169 68:-0.624214 69:0.598192 70:0.515357
-1 1:-0.810155 2:0.579103 3:-0.944738 4:-0.228720 5:0.145625 6:1.256912 7:1.579975 8:-0.123376 9:1.749374 10:-1.348699 11:-0.009613 12:-0.361620 13:-1.235263 14:-0.340546 15:-1.987508 16:2.548409 17:-0.188482 18:0.548100 19:-1.447777 20:0.134231 21:0.802201 22:2.087335 23:-0.065895 24:0.686302 25:-0.932238 26:0.607213 27:-0.586836 28:0.975985 29:-0.140508 30:-0.199494 31:-0.573666 32:-0.702403 33:-3.104638 34:-1.078423 35:0.255855 36:-0.080183 37:1.630747 38:1.339616 39:-1.466655 40:1.472598 41:-1.150117 42:0.260470 43:-0.314024 44:-0.189993 45:0.204269 46:0.611468 47:-0.381337 48:1.002198 49:0.167788 50:-0.957841 51:0.584940 52:-0.517065 53:0.231856 54:-0.286177 55:-0.320770 56:1.038426 57:0.683832 58:0.339935 59:2.126902 60:1.752253 61:-1.293424 62:-1.579912 63:1.231969 64:0.114020 65:-0.931634 66:-1.001077 67:-1.201816 68:-0.849857 69:-0.065348 70:0.907367
-1 1:0.508523 2:0.083785 3:-1.608727 4:-1.001515 5:0.187535 6:-0.796618 7:-0.688426 8:-1.356388 9:0.416836 10:0.801564 11:0.547037 12:0.961970 13:0.480154 14:-0.882048 15:1.381170 16:1.136068 17:-0.574830 18:1.547435 19:-0.436265 20:1.035085 21:-0.483812 22:-0.188563 23:-0.108940 24:-2.135712 25:-1.305511 26:0.858911 27:0.714163 28:0.578201 29:0.505150 30:0.012081 31:1.332695 32:0.167605 33:0.719447 34:-0.390546 35:0.927498 36:-0.561910 37:-0.015743 38:3.034225 39:1.238096 40:0.602442 41:1.338540 42:-0.997723 43:-0.216693 44:-0.264957 45:-0.126273 46:1.137663 47:-0.748021 48:0.019232 49:1.685472 50:0.795909 51:0.200269 52:-0.721672 53:0.397444 54:1.903348 55:-2.088999 56:-1.367480 57:-2.051633 58:-0.551275 59:-0.440862 60:1.654955 61:-0.024726 62:-2.352143 63:-0.189088 64:0.964834 65:0.220237 66:-0.404009 67:0.610948 68:-0.305751 69:0.331742 70:-0.065373
-1 1:0.489048 2:0.604226 3:-0.221937 4:0.714011 5:2.332856 6:1.174039 7:0.169304 8:1.788108 9:-2.479858 10:-0.272294 11:-0.589675 12:1.173253 13:-1.067133 14:-0.721455 15:-0.152132 16:1.278318 17:-0.594246 18:-1.145294 19:-0.567803 20:0.233937 21:-0.907547 22:0.927033 23:-0.372325 24:-0.305435 25:-1.244580 26:-1.279071 27:-0.587712 28:-0.600316 29:0.762163 30:0.743947 31:0.466330 32:-1.032684 33:-0.353820 34:0.628543 35:0.081876 36:0.535185 37:-0.213527 38:-0.322728 39:-1.230868 40:0.538091 41:0.780737 42:-0.412964 43:0.026146 44:0.520344 45:-0.088562 46:-1.768054 47:-0.041716 48:0.699042 49:-0.457322 50:1.445505 51:0.318050 52:-0.340655 53:-0.320271 54:0.415767 55:-0.810946 56:-0.055350 57:0.671045 58:0.620438 59:-1.179286 60:-0.068213 61:-1.447952 62:-0.300482 63:-0.102336 64:-2.342723 65:0.043747 66:1.390049 67:-2.034185 68:0.022914 69:0.365604 70:-1.232422
-1 1:-0.196917 2:-2.096059 3:0.469838 4:0.785190 5:-1.422398 6:0.032244 7:-1.473390 8:0.125681 9:0.105066 10:-0.428112 11:0.211445 12:0.396997 13:-0.242277 14:-0.442988 15:-0.848821 16:-1.383343 17:0.777270 18:0.335002 19:0.129517 20:0.072413 21:0.944939 22:-1.826501 23:0.464559 24:0.245445 25:-0.513415 26:0.412539 27:-0.397084 28:0.560008 29:-2.406095 30:-0.225354 31:0.713213 32:1.119384 33:-0.450014 34:0.690095 35:-0.683589 36:-0.912288 37:1.022833 38:-0.530622 39:0.606753 40:-1.322029 41:0.891839 42:0.815567 43:-0.585369 44:2.761709 45:-1.245839 46:-1.149124 47:-0.520905 48:0.276381 49:0.050305 50:1.405097 51:-0.477700 52:-0.643777 53:-0.911950 54:-0.263621 55:-0.116847 56:-0.245748 57:-0.869425 58:0.517772 59:-0.048039 60:-1.179755 61:0.182307 62:-3.016234 63:0.571278 64:0.424982 65:-0.010336 66:0.155026 67:-0.022361 68:-0.320297 69:0.714407 70:-1.355735
-1 1:0.042716 2:-0.314397 3:-0.646503 4:-0.205281 5:-1.546461 6:-0.215806 7:1.013480 8:2.188515 9:1.269893 10:-1.743077 11:-0.116150 12:-0.424210 13:-0.880959 14:1.090805 15:-1.934373 16:-0.204744 17:0.469786 18:0.600205 19:1.747790 20:0.781541 21:-1.443537 22:0.035403 23:2.028890 24:-0.050851 25:1.568354 26:1.091892 27:0.607067 28:-0.565897 29:1.529474 30:0.672458 31:1.266246 32:-0.901750 33:-0.984784 34:-0.340216 35:0.236955 36:-1.047039 37:-0.111843 38:-0.478815 39:-1.263998 40:-0.011813 41:-1.481916 42:-0.277198 43:-1.023127 44:-1.376862 45:-0.747667 46:-2.586721 47:-1.091433 48:-0.610378 49:-0.463538 50:0.004610 51:-1.803227 52:0.048190 53:-0.331256 54:-0.194846 55:-0.360404 56:-0.404969 57:-0.411668 58:1.302048 59:1.032423 60:-2.063773 61:1.446183 62:-1.664604 63:-0.482244 64:1.136192 65:-2.434095 66:1.287477 67:-1.680472 68:-1.271973 69:0.838311 70:1.446703
-1 1:0.218447 2:0.379682 3:-0.832108 4:0.412834 5:-2.064675 6:1.503932 7:1.203748 8:-0.223391 9:-0.864509 10:-0.090490 11:0.194426 12:0.412775 13:0.081690 14:1.195987 15:-0.384400 16:-0.711410 17:0.015252 18:0.196108 19:-1.596954 20:0.251685 21:-0.393593 22:-0.591155 23:-0.036118 24:-0.906421 25:-0.576926 26:0.363224 27:-0.167697 28:-0.115900 29:0.050790 30:-0.465141 31:-0.522525 32:-1.164631 33:-1.105925 34:0.792294 35:0.244723 36:0.816696 37:-1.121690 38:-0.505220 39:-0.686357 40:-0.139758 41:-0.313474 42:-0.576988 43:0.804774 44:-0.422101 45:-0.990774 46:0.720013 47:-0.744337 48:1.350918 49:-0.396740 50:0.680407 51:-0.769047 52:-0.229266 53:-0.124531 54:0.057080 55:0.075181 56:-0.935324 57:1.047793 58:0.837472 59:0.026275 60:1.470607 61:0.597075 62:-0.807851 63:1.310129 64:1.226503 65:-0.596341 66:-0.798337 67:0.487424 68:0.744356 69:1.364480 70:0.516693
-1 1:0.291908 2:-0.119988 3:-1.583991 4:0.299664 5:-0.449177 6:-1.275760 7:-0.713923 8:0.770016 9:-0.474523 10:-0.605351 11:-0.622846 12:0.335376 13:1.114290 14:0.590431 15:-0.139384 16:-0.930034 17:1.069227 18:0.111864 19:-1.388197 20:1.123987 21:0.058184 22:2.262887 23:0.705447 24:0.068372 25:0.589120 26:-1.668464 27:-1.246144 28:0.916008 29:-0.294113 30:-0.192023 31:-0.148578 32:1.600722 33:1.036239 34:-0.602669 35:1.426099 36:-0.539670 37:0.251595 38:1.853562 39:-0.110201 40:0.082385 41:-0.211306 42:1.289972 43:0.231420 44:-1.276493 45:-0.681757 46:0.308883 47:-0.937743 48:1.244127 49:0.002596 50:0.723592 51:-0.569366 52:-0.797054 53:2.069180 54:0.628875 55:-0.247616 56:-0.144892 57:-0.457613 58:1.438118 59:-0.308291 60:1.559582 61:0.429735 62:-0.701953 63:-0.138568 64:2.237998 65:-0.605843 66:-1.095807 67:0.819324 68:0.841803 69:-2.419850 70:-0.044334
-1 1:-1.247947 2:-0.352292 3:0.725262 4:-0.687625 5:-0.332171 6:-0.174883 7:1.673903 8:-0.177001 9:0.495680 10:0.141355 11:-1.392830 12:0.652344 13:-0.685429 14:0.632306 15:0.746620 16:0.169273 17:-0.559810 18:-2.256650 19:1.544936 20:-2.337366 21:0.209746 22:-0.358043 23:-0.135078 24:0.668628 25:0.038581 26:0.407103 27:-0.730550 28:-0.350470 29:-1.452203 30:0.021800 31:-1.014368 32:-0.023500 33:0.176487 34:-0.646431 35:-1.803599 36:-1.033044 37:1.819649 38:0.043654 39:-0.479144 40:0.387239 41:-0.298395 42:0.957904 43:-0.819972 44:-1.185637 45:-0.422013 46:1.015757 47:-0.038980 48:-0.368966 49:-0.572108 50:0.624596 51:0.602943 52:0.458192 53:-2.599668 54:0.624224 55:0.305362 56:1.419111 57:-0.392606 58:-0.277522 59:1.142805 60:1.239202 61:0.412461 62:0.784509 63:1.365492 64:1.808725 65:0.547206 66:0.360896 67:0.287001 68:-1.210409 69:0.048705 70:0.488897
-1 1:-1.566499 2:0.229357 3:-0.572171 4:0.193118 5:0.089393 6:2.326778 7:-0.289149 8:-0.672793 9:-1.726828 10:0.151528 11:-0.162845 12:1.125069 13:-0.523292 14:0.390718 15:-0.684435 16:-1.711365 17:-0.565987 18:-1.961087 19:0.829868 20:-0.974486 21:-0.173397 22:1.512626 23:0.222086 24:-0.832873 25:-0.014932 26:-1.549675 27:0.718253 28:0.569507 29:0.713321 30:-0.398852 31:0.792255 32:-0.733195 33:1.873528 34:0.576815 35:0.312139 36:0.634957 37:-1.023315 38:0.895713 39:1.904107 40:-0.414356 41:0.331260 42:0.049580 43:-1.512641 44:-1.562177 45:0.131201 46:-1.349278 47:0.828737 48:-0.116662 49:-0.254045 50:0.107473 51:-0.812365 52:-0.033708 53:1.575726 54:-0.004907 55:0.304324 56:-1.354595 57:-0.004344 58:0.170025 59:-0.106934 60:-0.605720 61:0.639931 62:-0.164082 63:1.991719 64:1.547661 65:0.000507 66:0.376135 67:-0.393077 68:-1.032963 69:-0.103698 70:-0.158552
-1 1:-1.363897 2:1.146447 3:-0.961352 4:1.391233 5:-1.085659 6:0.343607 7:0.135949 8:0.465194 9:0.793602 10:-0.354752 11:1.050699 12:0.348663 13:-2.172839 14:0.137715 15:-0.947215 16:0.623943 17:-0.954034 18:-0.063064 19:-1.197111 20:-0.685897 21:0.775358 22:0.043179 23:1.452695 24:1.454679 25:2.575398 26:-0.548138 27:-1.425802 28:-0.674747 29:-0.748816 30:-0.005942 31:0.803414 32:0.381006 33:-0.534251 34:1.020792 35:-0.753100 36:-2.178939 37:0.268313 38:0.710080 39:-0.576258 40:0.667526 41:0.282273 42:1.162600 43:1.296203 44:-0.579608 45:0.494304 46:1.166811 47:-0.599644 48:-0.229489 49:0.046186 50:-0.050445 51:0.008268 52:-0.497405 53:0.488834 54:0.650573 55:0.274916 56:1.327089 57:0.837452 58:-1.186242 59:2.182537 60:-0.079037 61:-1.301429 62:1.215452 63:-0.906320 64:-1.473079 65:1.676777 66:0.262875 67:0.141941 68:0.786832 69:0.900534 70:-1.090735
-1 1:-1.811481 2:-0.203862 3:-0.354809 4:-0.804282 5:1.108024 6:0.108516 7:-0.984820 8:-0.897259 9:-0.524156 10:-1.517256 11:0.724405 12:-1.004059 13:0.072807 14:0.436433 15:-2.252670 16:1.278568 17:1.304546 18:0.632946 19:-0.211500 20:0.343067 21:0.680824 22:0.390982 23:0.142074 24:0.073311 25:-1.112780 26:1.125162 27:-0.051089 28:0.436093 29:-1.081274 30:-1.876481 31:-0.387961 32:-0.079910 33:-0.401476 34:1.580024 35:-1.029524 36:1.170260 37:-0.127382 38:-2.640696 39:-0.821665 40:0.570174 41:-0.762819 42:-0.453723 43:0.541738 44:-1.310628 45:-0.871447 46:-1.710142 47:1.454232 48:-0.539312 49:0.667986 50:-0.287143 51:0.159839 52:-1.185465 53:-0.638260 54:0.035335 55:-1.568577 56:0.371744 57:-0.192432 58:-1.179931 59:0.000831 60:1.045600 61:-0.007613 62:-0.276957 63:-1.642774 64:-0.417228 65:1.966820 66:1.718205 67:-0.383459 68:-2.391572 69:0.690546 70:0.340215
-1 1:-0.696628 2:1.218713 3:-2.314085 4:0.134603 5:0.709125 6:-2.121721 7:0.006875 8:-0.541515 9:-1.066160 10:-1.092694 11:1.582581 12:-0.787572 13:-0.819162 14:0.531549 15:-0.080220 16:-0.360126 17:0.524273 18:0.387620 19:-0.503104 20:1.794951 21:-0.920119 22:-0.180084 23:0.605527 24:-1.005673 25:-0.437090 26:0.134980 27:0.374958 28:-0.230094 29:2.403901 30:0.601399 31:-0.714572 32:2.430712 33:1.469395 34:0.547974 35:1.097584 36:1.056023 37:0.151562 38:-1.746730 39:-0.665720 40:0.357661 41:-2.259888 42:-1.542893 43:0.343634 44:-2.545588 45:0.028781 46:1.008755 47:-0.291560 48:0.358334 49:1.117215 50:1.082540 51:1.094436 52:0.563095 53:1.255710 54:0.300122 55:1.180572 56:0.913183 57:1.484902 58:0.023548 59:1.622133 60:-0.662317 61:1.309015 62:-1.167236 63:0.259184 64:0.139192 65:-0.944892 66:0.550734 67:-0.964838 68:-1.467600 69:-0.040204 70:1.271660
-1 1:0.844047 2:1.078948 3:-0.445388 4:-1.520281 5:0.953988 6:-0.119815 7:1.412435 8:-0.505619 9:0.245904 10:-0.961397 11:-0.078485 12:-1.105901 13:0.949343 14:-1.666155 15:0.816471 16:-0.431975 17:2.002476 18:-0.821155 19:0.429767 20:-1.287195 21:1.196438 22:-1.070999 23:-1.616730 24:0.299331 25:1.461224 26:-0.086337 27:-0.905674 28:-0.367925 29:0.480069 30:-0.117726 31:0.916225 32:-0.299093 33:0.874626 34:-0.261964 35:0.422093 36:0.242798 37:0.839477 38:0.110220 39:1.460738 40:0.479211 41:0.400055 42:-0.211801 43:2.400287 44:0.576821 45:1.653820 46:-1.270881 47:-0.302420 48:1.126584 49:-1.718947 50:-0.535630 51:-0.337011 52:-0.818254 53:0.103151 54:-0.437960 55:0.291441 56:-2.324021 57:0.273767 58:1.091467 59:1.494041 60:-0.693723 61:0.076012 62:1.481789 63:-0.492309 64:-0.762611 65:-0.336374 66:0.456885 67:-0.097831 68:0.198026 69:-1.418386 70:1.931216
-1 1:0.618587 2:-0.800390 3:-0.734042 4:-0.492926 5:-0.673634 6:2.650863 7:0.816791 8:-1.146931 9:2.411583 10:1.018831 11:-0.960446 12:0.274680 13:0.971196 14:0.621581 15:-1.543455 16:0.898314 17:-1.901836 18:0.993228 19:-1.329510 20:0.538049 21:-0.310555 22:0.356597 23:-0.244062 24:0.283673 25:0.168428 26:-0.916329 27:-0.123703 28:1.221329 29:1.897213 30:-1.250579 31:0.389376 32:-0.038431 33:-0.012613 34:-0.177211 35:0.568924 36:0.223304 37:-0.750482 38:-0.691418 39:0.325451 40:-0.949117 41:-1.617129 42:-0.605062 43:-0.151104 44:0.754276 45:0.338165 46:0.385349 47:-0.325997 48:-1.465937 49:0.300035 50:-1.749737 51:0.207990 52:1.463620 53:2.712678 54:1.586731 55:0.440594 56:-0.426242 57:1.014778 58:-0.413818 59:0.578589 60:-0.209500 61:1.899574 62:-0.216935 63:-0.018997 64:0.813236 65:-0.039255 66:-0.054366 67:0.926918 68:-0.486987 69:0.396975 70:-0.628274
-1 1:0.034274 2:-0.303299 3:0.055594 4:0.175588 5:-0.929331 6:-0.609247 7:4.154934 8:0.684396 9:-1.084926 10:-1.007039 11:0.269286 12:1.079641 13:-0.760144 14:-1.150921 15:-0.245578 16:0.858818 17:0.168586 18:-1.208484 19:-1.141050 20:0.783768 21:0.380479 22:0.712976 23:-0.556926 24:2.006126 25:0.656043 26:-1.287519 27:-1.107449 28:0.169925 29:0.384520 30:0.954366 31:-2.290588 32:2.431859 33:0.756679 34:1.056272 35:-0.326261 36:-1.287823 37:-0.210115 38:-0.252602 39:0.622047 40:-0.189188 41:-0.757848 42:0.591426 43:-1.747506 44:-0.848431 45:1.790592 46:-1.537440 47:-0.800100 48:1.297692 49:1.522061 50:-0.141992 51:1.544398 52:-0.342730 53:0.547500 54:-0.123462 55:0.299987 56:0.700644 57:-0.143091 58:0.701893 59:0.365627 60:1.171261 61:-0.507808 62:-1.093072 63:-0.852807 64:0.354800 65:-0.578546 66:0.368552 67:1.749976 68:0.438194 69:0.380823 70:0.850239
-1 1:-1.077145 2:-0.368167 3:-1.785738 4:-0.661082 5:-1.242793 6:0.265980 7:0.376487 8:-0.658692 9:0.204837 10:-0.314444 11:-1.005448 12:0.521721 13:-1.380411 14:-0.735673 15:0.412042 16:-0.898372 17:0.204034 18:0.545367 19:0.374074 20:0.191348 21:-0.317930 22:0.972692 23:-0.313872 24:-1.262742 25:-1.020942 26:-0.872543 27:0.706650 28:0.679845 29:-0.387444 30:-0.301289 31:1.322536 32:-0.917502 33:-0.014509 34:-0.449733 35:-0.327463 36:-0.423312 37:0.418685 38:-0.221046 39:-0.377216 40:-0.453523 41:-0.771322 42:-0.147521 43:0.613026 44:2.148997 45:1.192416 46:0.442561 47:0.693808 48:0.309843 49:-0.077285 50:0.015134 51:-0.583398 52:0.364668 53:0.250771 54:0.933089 55:0.634462 56:1.277209 57:0.514742 58:0.382150 59:-0.382506 60:-1.178123 61:0.960988 62:0.620674 63:-1.612497 64:0.984872 65:1.241469 66:0.844325 67:0.920197 68:0.559804 69:-0.318924 70:1.257636
-1 1:-1.205145 2:-0.433645 3:-0.651280 4:-0.048760 5:-1.035712 6:-0.091710 7:-0.329112 8:0.574682 9:1.240782 10:-0.709944 11:0.957828 12:-0.464747 13:1.777750 14:-0.976467 15:0.162599 16:0.628405 17:-0.205822 18:0.885247 19:0.249954 20:-0.335470 21:-0.449838 22:0.268517 23:0.752869 24:-1.690565 25:0.665971 26:0.057111 27:-1.104095 28:-1.393271 29:1.938087 30:-2.363263 31:-1.517316 32:-0.134482 33:0.885048 34:0.372739 35:-1.389153 36:-0.181912 37:1.141069 38:-1.147518 39:-0.591617 40:-1.017533 41:-1.100060 42:-0.428947 43:-0.641428 44:-1.898438 45:0.372513 46:-1.748572 47:0.268640 48:-0.557381 49:-0.596674 50:0.871453 51:0.923870 52:3.067690 53:1.465780 54:0.015118 55:-1.681902 56:-0.168347 57:-1.396419 58:-0.545307 59:-0.317628 60:1.203505 61:-1.387501 62:-0.020505 63:0.770673 64:0.941556 65:-0.320568 66:-0.711654 67:0.846762 68:-0.600942 69:0.939034 70:-1.642928
-1 1:-0.824081 2:0.265666 3:1.407436 4:0.396326 5:-0.850659 6:-2.156136 7:-1.276161 8:0.961071 9:0.092528 10:-0.463764 11:-0.195906 12:0.127484 13:1.486126 14:-0.741409 15:1.761259 16:0.344240 17:-0.817785 18:-0.767665 19:-0.078810 20:-0.133735 21:-0.086543 22:-0.589469 23:-0.889793 24:0.474587 25:0.508725 26:1.008486 27:0.575034 28:1.129231 29:0.534980 30:1.692236 31:1.200154 32:1.077194 33:-0.207221 34:-1.659488 35:-0.444344 36:0.520102 37:2.357708 38:-1.961478 39:-0.232435 40:0.176874 41:-0.785812 42:0.095122 43:-0.475026 44:-0.917364 45:-1.126209 46:-1.298865 47:-0.201835 48:-0.656311 49:0.264029 50:1.304802 51:-0.123432 52:0.370565 53:0.500035 54:1.728609 55:0.312805 56:0.851855 57:0.009961 58:-1.005517 59:-0.396424 60:0.466514 61:0.107420 62:-1.198515 63:0.852207 64:0.560272 65:-0.957963 66:0.480986 67:0.778079 68:-1.394759 69:0.962422 70:-0.810987
-1 1:0.546601 2:-0.885535 3:-0.137648 4:-0.027256 5:-2.088075 6:0.466500 7:1.044799 8:0.812419 9:-0.585483 10:-0.176108 11:-0.322347 12:-0.615051 13:0.419137 14:-0.043507 15:1.021757 16:-1.002664 17:-0.009201 18:0.903439 19:-0.731804 20:-0.434970 21:1.919363 22:-1.369302 23:-0.365458 24:-1.386726 25:-0.535751 26:-0.979970 27:1.674477 28:-0.459348 29:0.141552 30:0.869479 31:-0.975703 32:1.506228 33:1.213049 34:0.256512 35:-0.003081 36:-1.091780 37:2.650606 38:0.652471 39:0.182369 40:0.619290 41:0.847650 42:-1.222809 43:0.148443 44:0.242650 45:-0.275686 46:0.373645 47:0.430888 48:-0.633496 49:-0.807161 50:-0.860066 51:-0.327148 52:-0.417329 53:-0.382182 54:0.596069 55:0.565784 56:0.539731 57:-0.015174 58:-0.169793 59:1.468633 60:-0.070009 61:-0.373179 62:-0.831623 63:0.374759 64:1.438253 65:0.818641 66:-1.145795 67:1.004201 68:1.170654 69:-2.101494 70:-0.842824
-1 1:1.352124 2:-0.003429 3:0.477695 4:0.243736 5:0.112888 6:1.132221 7:1.527177 8:0.175612 9:-0.770335 10:-1.708094 11:0.366934 12:0.222409 13:0.639069 14:0.856664 15:-2.011336 16:-1.730645 17:0.134542 18:0.911422 19:-1.092173 20:-0.656757 21:1.480333 22:-0.159906 23:-0.484182 24:-0.130776 25:1.479925 26:0.293703 27:0.778027 28:-0.523165 29:0.117925 30:-0.126071 31:-0.052431 32:-0.337472 33:-0.761148 34:-1.485298 35:1.134317 36:0.158101 37:-0.437050 38:-0.605253 39:0.105122 40:1.178958 41:-0.076380 42:-0.709935 43:-0.022762 44:-0.566027 45:0.246586 46:0.367005 47:-0.902342 48:-0.174295 49:0.310205 50:1.027413 51:1.176417 52:-0.413839 53:-0.171280 54:0.000988 55:-0.168295 56:-2.330293 57:-1.069067 58:1.101726 59:-0.331086 60:-0.551470 61:-0.803037 62:-0.181320 63:-0.015775 64:0.918773 65:-0.348425 66:0.244556 67:1.219702 68:-2.154992 69:-1.004995 70:0.309241
-1 1:-1.252776 2:0.068658 3:-0.787052 4:-1.368415 5:1.257402 6:-0.292195 7:0.313285 8:0.635876 9:-0.077378 10:-0.030844 11:1.056731 12:0.017137 13:0.186432 14:0.427262 15:0.506898 16:-0.564447 17:-0.789243 18:-0.554092 19:-0.286182 20:-0.338525 21:-1.039224 22:1.072862 23:0.306739 24:3.010911 25:-1.592394 26:0.719552 27:0.091415 28:-0.827324 29:-0.037455 30:-0.620614 31:-0.487048 32:1.706514 33:0.415667 34:-2.367988 35:-0.041348 36:0.146107 37:-0.508756 38:1.039483 39:-0.255122 40:-0.615793 41:0.229277 42:0.092886 43:-0.687626 44:0.387584 45:-0.437001 46:1.200387 47:-0.240664 48:0.251554 49:0.743656 50:-0.605152 51:0.003493 52:0.655394 53:0.297281 54:1.131691 55:-0.497634 56:1.058757 57:1.148817 58:0.000226 59:0.918004 60:1.263426 61:-2.257993 62:-0.903322 63:-2.435370 64:2.446258 65:-1.212984 66:-1.112103 67:-1.481547 68:0.906928 69:2.262454 70:0.552129
-1 1:0.464104 2:0.707983 3:-1.062480 4:-0.291237 5:0.056299 6:-0.382389 7:1.019453 8:0.433416 9:-0.140380 10:-0.525192 11:-2.181602 12:-0.557890 13:-0.444048 14:-0.997547 15:-0.157979 16:0.392117 17:0.557120 18:-0.591719 19:0.465889 20:-0.151834 21:-0.171784 22:1.306797 23:0.982051 24:-0.613163 25:-1.071357 26:0.304556 27:-1.583463 28:1.049216 29:-0.698656 30:0.089281 31:-0.802768 32:-0.293794 33:-0.701107 34:-0.575410 35:-1.204872 36:0.164045 37:-0.908256 38:-0.638996 39:0.743617 40:0.021031 41:1.035628 42:0.064501 43:0.151993 44:-2.181716 45:0.803485 46:0.014095 47:1.132787 48:1.823647 49:0.510601 50:0.142969 51:1.690412 52:1.926870 53:-0.084501 54:0.211924 55:1.237273 56:0.411876 57:-0.136916 58:0.914242 59:-1.305540 60:-0.144669 61:-0.114956 62:0.356096 63:0.102156 64:-0.730757 65:-1.332511 66:-0.416325 67:-0.036385 68:-0.595073 69:0.989195 70:-1.284567
-1 1:0.193641 2:0.564184 3:0.605393 4:-0.012216 5:-2.328302 6:1.947339 7:1.147468 8:-1.607981 9:-0.337023 10:0.002438 11:1.297588 12:-0.067980 13:-0.237750 14:0.777325 15:0.858988 16:-0.628971 17:1.408294 18:-0.660900 19:-1.472231 20:-0.356879 21:0.172861 22:-0.731370 23:-2.197547 24:0.266904 25:1.091099 26:0.052743 27:-0.193506 28:-0.382699 29:0.930443 30:-0.516723 31:0.526063 32:-1.192450 33:1.005670 34:-0.038357 35:-1.006090 36:-0.272906 37:1.046601 38:0.182810 39:-0.160097 40:-1.899267 41:0.438594 42:-0.966893 43:-1.263077 44:-0.478267 45:0.158416 46:-1.503881 47:-0.055614 48:-0.751333 49:-0.365058 50:1.238127 51:1.371988 52:-0.711524 53:0.838113 54:-1.069099 55:-1.820504 56:-0.614120 57:1.688753 58:-1.325077 59:0.323877 60:0.274678 61:-3.090318 62:1.014747 63:0.298880 64:0.144804 65:-0.229169 66:0.942194 67:0.564745 68:-1.599934 69:0.688795 70:-0.842484
-1 1:2.032943 2:0.339921 3:-0.340129 4:-1.680024 5:2.014401 6:0.677006 7:0.580401 8:-0.413543 9:-1.039819 10:1.285284 11:0.539478 12:-0.341799 13:0.251626 14:-1.173137 15:-0.900099 16:0.920454 17:0.888147 18:-1.595115 19:-0.333222 20:0.796991 21:0.128311 22:1.610561 23:-0.149442 24:1.033928 25:-0.264922 26:-0.481695 27:1.373201 28:0.667721 29:0.457421 30:0.708447 31:-1.054463 32:-1.595060 33:-1.689469 34:1.304681 35:0.105802 36:1.492843 37:1.619352 38:0.119943 39:1.756714 40:-0.643839 41:-0.029947 42:0.579361 43:0.421929 44:1.029107 45:-2.545413 46:0.153089 47:0.560716 48:0.093405 49:0.268701 50:-1.156898 51:-1.122376 52:-0.733702 53:-0.723621 54:-0.071219 55:-0.211961 56:-0.221263 57:1.706245 58:-1.116158 59:-0.010027 60:-1.243991 61:0.617318 62:1.015970 63:0.071710 64:-0.313384 65:1.910765 66:-0.036543 67:-0.128900 68:0.408351 69:0.386314 70:-1.454337
-1 1:-0.663819 2:0.378473 3:0.509163 4:-0.551906 5:1.552838 6:-0.654642 7:-0.438448 8:-0.216259 9:-1.345228 10:0.253667 11:-0.348845 12:-0.720284 13:2.126772 14:0.752148 15:-0.215719 16:0.131092 17:-0.332564 18:-0.404243 19:-0.032700 20:0.199594 21:0.975300 22:0.725039 23:0.121936 24:0.691377 25:-0.074862 26:-0.874773 27:0.547251 28:-0.991158 29:-0.958106 30:0.564192 31:-1.032808 32:-0.671083 33:0.614916 34:0.262807 35:-1.221111 36:0.265560 37:0.630305 38:-0.393992 39:-0.403813 40:1.943343 41:-0.775657 42:3.044877 43:0.053483 44:-0.641764 45:-0.543580 46:-1.568002 47:0.002570 48:-0.416510 49:0.131831 50:-0.665457 51:-0.832710 52:-0.909569 53:-1.089752 54:0.946554 55:1.536940 56:-0.003070 57:-0.555180 58:1.495031 59:-0.321654 60:0.031013 61:0.599682 62:0.016025 63:-0.786002 64:1.165606 65:1.454131 66:-0.487031 67:0.444383 68:-1.054202 69:0.024714 70:1.102654
-1 1:-0.294375 2:-0.565702 3:1.570378 4:0.093480 5:-1.579815 6:0.716770 7:-1.761856 8:-0.788075 9:0.406992 10:0.578737 11:1.189094 12:0.732218 13:-0.816682 14:-0.612581 15:0.313495 16:-1.404152 17:-0.715243 18:-0.218150 19:0.224542 20:-0.777833 21:-0.747361 22:-0.560191 23:-1.287562 24:-0.009645 25:-0.099796 26:0.335893 27:-0.372386 28:-0.665459 29:-0.428734 30:-0.492896 31:-1.168971 32:-0.063452 33:-0.322512 34:1.076909 35:-1.333147 36:1.070545 37:-1.804090 38:0.436781 39:-0.050293 40:-0.974693 41:-0.683404 42:0.761455 43:-0.780499 44:0.277507 45:0.808690 46:-2.102057 47:2.524612 48:0.354309 49:-2.358743 50:0.441932 51:0.813306 52:-0.535204 53:-1.132279 54:-0.245787 55:0.739968 56:-1.280340 57:1.515488 58:0.944740 59:0.036223 60:0.813171 61:0.104458 62:2.066211 63:0.070583 64:0.483346 65:-1.169182 66:1.317496 67:-1.428473 68:1.081221 69:-0.863587 70:0.690074
-1 1:-1.326709 2:0.579551 3:0.458090 4:-0.223878 5:0.818765 6:0.731533 7:0.407773 8:-0.030647 9:1.238388 10:0.267761 11:-0.726666 12:0.901461 13:-0.917648 14:-1.901973 15:0.119014 16:0.027593 17:1.398327 18:-2.557930 19:-0.939221 20:0.048876 21:0.535586 22:-0.963702 23:1.418624 24:-0.980902 25:0.549396 26:-0.175319 27:-0.595066 28:-1.614460 29:2.620504 30:-1.554928 31:0.088751 32:1.051913 33:1.962471 34:-0.615647 35:-1.482849 36:-0.537549 37:-0.357975 38:-0.801022 39:0.397680 40:1.847999 41:0.292456 42:-0.149176 43:0.219398 44:-2.211448 45:0.887904 46:-1.158765 47:0.874864 48:1.006142 49:-0.552947 50:1.617677 51:-0.202187 52:0.765821 53:-0.353138 54:-0.819898 55:0.093202 56:-2.134593 57:0.460723 58:0.245793 59:-0.263418 60:0.991922 61:-1.757155 62:0.139550 63:-0.184238 64:0.530703 65:0.766499 66:1.387648 67:1.391992 68:-0.703428 69:-0.982353 70:0.880324
-1 1:0.647176 2:1.364525 3:0.114070 4:0.931870 5:-0.448598 6:-1.298353 7:0.447682 8:-0.347868 9:0.282196 10:1.102307 11:-1.076256 12:-0.243653 13:-1.008691 14:0.669857 15:0.059793 16:0.526850 17:-0.974614 18:-0.986677 19:0.326159 20:-0.674339 21:-1.822239 22:-0.125464 23:0.115138 24:0.477292 25:2.121186 26:-0.727696 27:1.489780 28:0.628280 29:0.531877 30:1.809257 31:0.274918 32:-0.171197 33:-1.451846 34:0.684808 35:-0.059639 36:-0.556545 37:0.063223 38:-0.940813 39:-0.557024 40:0.303757 41:-2.087862 42:-1.355554 43:1.535030 44:-0.612356 45:-0.943657 46:0.561513 47:-1.168252 48:-0.164779 49:0.280364 50:-0.200588 51:-0.354258 52:-1.687212 53:-0.846532 54:-1.363756 55:-1.370882 56:0.501556 57:0.256324 58:0.847240 59:1.275229 60:0.480860 61:1.767036 62:-1.290680 63:0.572773 64:-0.077205 65:1.059202 66:0.262992 67:0.231148 68:-0.066413 69:0.127541 70:-0.148224
-1 1:0.701665 2:-1.323153 3:1.523661 4:-0.017876 5:-0.922710 6:-0.035187 7:-0.044139 8:1.525632 9:-0.246107 10:0.568747 11:-0.408949 12:1.663945 13:0.316177 14:-0.746849 15:-1.111140 16:-0.090835 17:-1.485173 18:1.491907 19:2.209529 20:-0.895611 21:0.431228 22:0.052597 23:-0.370994 24:-0.851990 25:0.814198 26:-0.451303 27:2.053502 28:-0.960294 29:0.713065 30:0.469168 31:-0.384691 32:-0.706440 33:0.271375 34:-0.914890 35:0.394631 36:2.045059 37:0.188583 38:-0.738072 39:0.457721 40:-1.645087 41:1.471157 42:-0.073937 43:1.437186 44:-1.084647 45:0.175179 46:0.912944 47:-0.386047 48:1.835868 49:0.128710 50:0.205209 51:-0.736010 52:-0.038271 53:0.605755 54:0.101558 55:0.670300 56:-0.511270 57:-0.155925 58:-1.203802 59:0.191310 60:-0.009996 61:-0.816296 62:-0.554394 63:-1.104099 64:-1.800891 65:-0.176190 66:-0.269592 67:1.604492 68:-1.428821 69:0.492947 70:0.348287
-1 1:-0.847206 2:-0.421327 3:-0.416446 4:0.885492 5:0.499571 6:0.143541 7:-0.172078 8:-1.234714 9:0.393428 10:0.913484 11:-0.464995 12:0.393521 13:-0.767127 14:-0.866241 15:-0.840024 16:-1.468344 17:-0.076362 18:0.127162 19:-0.349570 20:1.476619 21:-1.024193 22:0.387050 23:-0.093112 24:-0.691882 25:-0.709132 26:-0.883774 27:-0.751640 28:1.907630 29:-0.239706 30:-0.588746 31:0.245214 32:-0.204562 33:0.147799 34:-0.393770 35:-0.319302 36:-1.820959 37:-0.245479 38:-1.549058 39:1.518381 40:-0.744609 41:-1.228846 42:1.099382 43:-1.121980 44:1.819422 45:-0.922937 46:-0.011816 47:1.065597 48:-0.333946 49:1.181538 50:-1.565247 51:-1.301822 52:1.099230 53:1.362400 54:-0.960904 55:0.024635 56:-0.012927 57:0.559538 58:-0.595776 59:1.602186 60:-0.699075 61:-1.372201 62:-0.807649 63:1.336104 64:-1.009444 65:1.445933 66:0.099764 67:-1.129153 68:0.978768 69:0.043759 70:0.226010
-1 1:0.784891 2:1.540117 3:0.481992 4:-0.080997 5:-0.102524 6:-0.565982 7:1.464501 8:1.438211 9:0.818820 10:-2.313612 11:-0.448029 12:-0.347822 13:-1.021140 14:-1.575298 15:0.536761 16:-0.948910 17:1.608438 18:2.965769 19:0.405231 20:-1.301481 21:1.653813 22:1.073645 23:-0.098589 24:-0.914968 25:-0.705796 26:-0.611797 27:0.110254 28:0.609108 29:-1.150868 30:1.168614 31:-1.597678 32:0.370731 33:0.167623 34:1.434351 35:0.827084 36:0.073447 37:0.677426 38:0.229617 39:-1.339734 40:0.570055 41:0.374903 42:-1.185915 43:0.196603 44:-0.226784 45:-1.404023 46:0.695624 47:0.625101 48:-0.911922 49:1.998283 50:0.510971 51:-1.829903 52:-0.033849 53:-0.035336 54:0.769036 55:-0.481297 56:-0.964133 57:-0.297899 58:0.310905 59:1.297006 60:1.044193 61:1.815738 62:0.092165 63:1.071260 64:0.526071 65:-0.648482 66:0.446012 67:0.211941 68:-2.039967 69:-0.253220 70:0.686317
-1 1:-0.953683 2:0.852040 3:1.734769 4:1.524257 5:0.591414 6:2.142053 7:1.587113 8:-1.812381 9:0.236995 10:1.990297 11:0.536342 12:-1.010538 13:2.527566 14:-2.784016 15:1.979429 16:0.202153 17:0.756091 18:-0.610982 19:-0.606837 20:1.412114 21:1.443129 22:0.691735 23:-1.814047 24:-0.690761 25:-1.523141 26:0.365721 27:0.943507 28:-1.423937 29:3.507072 30:0.767588 31:0.844401 32:-1.219267 33:-1.093070 34:0.059608 35:0.070319 36:-0.601948 37:-0.952500 38:-1.071434 39:-0.203118 40:-0.385967 41:-0.054687 42:0.047437 43:0.670332 44:-1.245292 45:0.251069 46:-0.116291 47:-0.791244 48:0.177715 49:0.062353 50:-0.106211 51:1.401444 52:-0.753218 53:0.001673 54:-1.749821 55:-0.358128 56:0.870826 57:-0.186725 58:1.170525 59:0.693974 60:-0.624975 61:-0.246417 62:-0.423721 63:0.549110 64:-0.405976 65:0.404140 66:-1.144085 67:1.171547 68:-0.973806 69:-0.465027 70:0.594234
-1 1:0.637348 2:0.533066 3:1.152703 4:1.137709 5:-1.669080 6:1.978828 7:-0.086999 8:0.487861 9:1.287415 10:0.192881 11:-0.384443 12:-0.892411 13:-0.408462 14:-0.023636 15:0.652932 16:0.481314 17:-1.006611 18:0.066102 19:1.117563 20:0.565046 21:-0.900357 22:-0.570794 23:-1.655565 24:-0.326315 25:-0.089380 26:0.505574 27:1.025296 28:-0.245625 29:0.968539 30:1.099146 31:-0.480427 32:-1.546487 33:-0.347665 34:-0.050075 35:-1.790359 36:0.675580 37:1.260687 38:0.626299 39:0.076670 40:0.737295 41:-0.065666 42:0.459930 43:-1.871957 44:-1.666928 45:-0.624907 46:-1.377490 47:0.213996 48:0.019308 49:-0.212933 50:-0.190738 51:0.639778 52:-0.866795 53:-1.151481 54:-1.244608 55:-1.287471 56:0.902910 57:1.713732 58:0.865249 59:2.421351 60:-0.954329 61:-0.535140 62:0.277398 63:-0.625302 64:-0.881587 65:-0.567352 66:0.165916 67:0.043183 68:2.491205 69:1.753139 70:-2.143193
-1 1:0.545097 2:-0.057730 3:-0.194439 4:0.686548 5:0.004490 6:0.339969 7:-0.284866 8:-0.750588 9:0.673288 10:-0.985847 11:0.320336 12:1.166238 13:-0.395005 14:-0.728829 15:0.041501 16:-0.620073 17:1.000919 18:0.338537 19:-0.081306 20:-0.997787 21:1.360066 22:-0.241877 23:-2.428841 24:0.994298 25:-0.024579 26:0.232817 27:0.512173 28:-0.005998 29:-1.297108 30:-0.003480 31:1.521242 32:-0.504942 33:0.363007 34:0.834293 35:1.760521 36:0.612472 37:1.922028 38:0.773664 39:-0.390743 40:-0.109624 41:-0.408806 42:1.425844 43:-0.849820 44:-0.052897 45:-0.996285 46:1.164128 47:-2.521518 48:1.661742 49:0.396481 50:-1.090626 51:0.643528 52:-0.274249 53:0.277746 54:-1.635071 55:-0.959707 56:0.830243 57:-0.542662 58:-1.025430 59:1.776031 60:0.167632 61:-0.018582 62:-0.211788 63:0.688169 64:0.358715 65:-1.130826 66:0.135571 67:-1.847655 68:-0.091348 69:-0.687601 70:-0.881186
-1 1:-1.039997 2:0.364428 3:1.929039 4:-0.994632 5:-0.537116 6:-0.525906 7:-0.014928 8:-0.563527 9:-0.353873 10:-0.484232 11:1.105411 12:0.128550 13:-1.169656 14:1.878173 15:0.431067 16:0.984831 17:0.697230 18:0.020909 19:1.163451 20:-0.769656 21:0.338841 22:1.982678 23:0.641468 24:-0.516827 25:0.428878 26:-0.304332 27:-0.930636 28:-1.734581 29:-0.198692 30:-0.431993 31:1.080220 32:-0.769106 33:-1.734319 34:1.088960 35:0.700164 36:0.546537 37:0.805402 38:0.038196 39:-0.834032 40:-0.232108 41:0.577909 42:-0.407410 43:-0.892605 44:1.440345 45:-0.012274 46:-1.876829 47:0.254489 48:0.463148 49:0.781902 50:1.017548 51:0.681987 52:-1.179638 53:2.059349 54:0.529311 55:-0.956235 56:-0.708026 57:0.653934 58:1.305694 59:0.024420 60:1.664509 61:-0.624234 62:-1.103407 63:-0.232591 64:0.532424 65:1.535452 66:-1.253339 67:-0.213317 68:-0.348544 69:0.810925 70:-0.389958
-1 1:0.036617 2:0.110646 3:-0.781447 4:0.297890 5:1.039190 6:0.057501 7:0.174605 8:0.413094 9:-0.427627 10:0.623198 11:-0.612699 12:-0.604125 13:0.384954 14:0.852871 15:-1.827564 16:-0.979634 17:-0.495807 18:1.702368 19:1.667483 20:-0.792640 21:-0.201356 22:1.180011 23:0.986138 24:-0.839257 25:-0.802764 26:-0.917599 27:2.016835 28:-0.176981 29:1.198611 30:0.665053 31:1.138196 32:-2.063415 33:0.931400 34:0.292653 35:1.341898 36:0.068647 37:0.327026 38:-0.005496 39:-0.264050 40:-1.523529 41:1.430972 42:0.335106 43:1.383796 44:-0.093733 45:-0.026863 46:0.129537 47:-0.809108 48:-0.315576 49:1.696095 50:-0.352838 51:2.882578 52:2.155599 53:-0.659540 54:1.010870 55:1.008316 56:0.755538 57:-1.799332 58:1.410596 59:0.228119 60:0.171349 61:0.185851 62:-0.346341 63:0.897314 64:0.971277 65:-1.031883 66:-0.050660 67:1.095777 68:0.794719 69:-1.159379 70:-0.472515
-1 1:-0.198779 2:0.289145 3:0.828440 4:0.186619 5:-1.204470 6:-1.856856 7:-0.559697 8:-0.235789 9:-0.209823 10:-0.399605 11:0.603301 12:0.920047 13:-0.662120 14:-0.722294 15:-0.530578 16:1.842313 17:-2.036264 18:-0.440439 19:-0.461803 20:0.904233 21:0.035884 22:-0.193672 23:0.426920 24:-1.829822 25:-1.117707 26:0.472197 27:0.659778 28:0.178976 29:1.125674 30:0.428658 31:0.175666 32:-0.737260 33:0.940889 34:-1.582495 35:-1.681521 36:1.169288 37:0.136168 38:0.068256 39:0.010630 40:0.105143 41:-1.202130 42:1.146783 43:0.879062 44:-0.498564 45:0.322807 46:0.118359 47:-0.995549 48:-1.090459 49:-0.345083 50:-1.221669 51:-0.635134 52:-2.301516 53:-1.418564 54:-0.978216 55:0.643352 56:1.254128 57:-1.495993 58:0.539011 59:0.675137 60:1.409282 61:-1.650619 62:1.072366 63:2.085776 64:-0.713618 65:1.838754 66:0.693552 67:1.372632 68:-0.079325 69:1.351553 70:-0.939154
-1 1:0.843003 2:0.806595 3:-0.451434 4:0.980156 5:0.262663 6:-0.954279 7:-1.252644 8:0.579768 9:0.521940 10:-0.731667 11:-0.707827 12:0.401368 13:-0.683138 14:0.153872 15:1.508386 16:1.378442 17:-1.723601 18:0.539478 19:0.720645 20:0.904834 21:-0.660809 22:-1.864922 23:-0.623752 24:-0.275432 25:1.519673 26:-1.852607 27:1.054001 28:1.198844 29:-1.054427 30:-0.572014 31:0.395389 32:-0.657083 33:-0.652180 34:0.576934 35:-0.249796 36:-1.303332 37:0.122864 38:0.627601 39:-1.432110 40:0.662695 41:-1.440414 42:1.843846 43:-1.445393 44:1.210031 45:0.646151 46:1.300893 47:1.075362 48:0.658906 49:0.574847 50:0.517582 51:-0.260862 52:-0.419380 53:2.444483 54:-0.166379 55:-1.215424 56:0.069422 57:0.329254 58:-0.301465 59:1.646201 60:1.374846 61:0.666422 62:0.898162 63:-2.022866 64:-0.337521 65:0.621830 66:-1.759800 67:0.780877 68:-0.417676 69:0.794311 70:0.462527
-1 1:-1.628145 2:0.835745 3:0.572384 4:-0.668346 5:-0.464331 6:-0.786561 7:-0.375762 8:1.026679 9:1.216356 10:0.673495 11:1.846582 12:0.190512 13:0.039611 14:0.203877 15:2.431324 16:-0.588594 17:0.860757 18:-0.641114 19:-2.087548 20:-0.069326 21:0.281137 22:0.818273 23:-0.004043 24:0.089144 25:1.696868 26:-2.680773 27:0.061374 28:0.707651 29:-0.441057 30:-0.616953 31:0.499583 32:-1.298440 33:0.090364 34:0.835925 35:0.732180 36:0.239647 37:0.573727 38:-0.596075 39:1.064320 40:1.045307 41:-0.857985 42:-0.063282 43:-0.942244 44:-0.965433 45:0.226619 46:0.718750 47:-0.751057 48:1.254291 49:0.159672 50:0.390669 51:-1.026646 52:1.301820 53:-0.043354 54:0.705908 55:-0.553067 56:-0.677519 57:0.543928 58:-0.068471 59:-1.608736 60:0.385938 61:0.113059 62:-0.398527 63:-0.721955 64:0.214455 65:-2.195562 66:0.846157 67:-0.132158 68:-1.026321 69:-0.017430 70:-0.422846
-1 1:0.200660 2:0.877376 3:0.614270 4:-1.053011 5:0.745367 6:-1.535658 7:-0.545244 8:0.134607 9:-0.220513 10:1.257710 11:0.238700 12:-1.604600 13:2.644305 14:0.900840 15:-0.049297 16:-1.387038 17:-1.400591 18:1.636798 19:-1.177094 20:-0.855663 21:0.115168 22:0.269551 23:0.499037 24:-0.029203 25:-1.786806 26:1.051662 27:0.239143 28:-0.219909 29:0.519882 30:-1.790114 31:-1.764619 32:1.302358 33:2.409013 34:-0.614587 35:-0.091222 36:0.626759 37:3.007714 38:-1.323743 39:0.674855 40:-1.177585 41:2.086745 42:1.626575 43:0.983988 44:0.552130 45:1.318679 46:-1.828727 47:1.427518 48:0.086855 49:0.814425 50:-1.543910 51:0.136835 52:-0.910632 53:1.957349 54:-0.607349 55:-0.034770 56:0.377662 57:-0.545484 58:-0.934383 59:-1.537130 60:-0.198736 61:0.185099 62:0.164338 63:-0.069836 64:-0.156001 65:2.577567 66:-0.430948 67:0.456021 68:0.271917 69:-0.683318 70:-0.652246
-1 1:1.312359 2:0.631960 3:1.084190 4:1.202343 5:-0.242156 6:0.572343 7:-1.151436 8:-0.114473 9:0.026437 10:1.080753 11:1.087650 12:-2.863455 13:0.192395 14:0.041552 15:1.887694 16:1.053594 17:-0.175618 18:-0.408781 19:-0.503631 20:-0.941662 21:0.576472 22:0.014907 23:-0.342049 24:-0.060102 25:-0.392746 26:-0.588431 27:0.701715 28:-1.258605 29:-0.297022 30:0.509904 31:0.438851 32:0.858747 33:0.893051 34:-0.732344 35:1.520064 36:-1.251740 37:1.051482 38:-1.142003 39:-1.356002 40:-0.908310 41:0.024995 42:0.563383 43:0.276985 44:-0.690256 45:1.278178 46:1.184670 47:-0.622447 48:2.314578 49:0.258720 50:1.211691 51:0.632030 52:0.082770 53:0.151861 54:-1.266365 55:1.923825 56:1.956778 57:0.310076 58:-0.821804 59:-0.388318 60:0.956797 61:0.165417 62:-0.055269 63:-0.522331 64:-0.926306 65:-1.032093 66:-0.624187 67:-0.282698 68:-0.379519 69:1.005775 70:-0.086803
-1 1:0.006341 2:-0.264639 3:-1.674815 4:0.564862 5:0.357334 6:1.625932 7:-0.265435 8:-0.463263 9:1.186747 10:-2.076634 11:1.388229 12:0.968512 13:0.412587 14:0.165291 15:-1.900680 16:-0.883625 17:-0.278603 18:0.264636 19:-1.947362 20:-1.593089 21:-0.397986 22:-0.277494 23:0.943374 24:-2.338614 25:0.698935 26:0.236875 27:0.729108 28:-0.906880 29:0.460636 30:-0.222438 31:0.383232 32:-0.256165 33:-0.444935 34:0.780537 35:-0.015302 36:0.432472 37:0.000880 38:1.683824 39:1.854137 40:-0.369487 41:-1.360230 42:0.118658 43:1.021222 44:0.289772 45:-0.958930 46:-0.322956 47:0.174179 48:0.843590 49:-0.610071 50:-0.368799 51:-0.142797 52:0.997505 53:-0.676321 54:-0.826047 55:-0.926299 56:1.225082 57:0.310601 58:1.905360 59:0.282185 60:1.531178 61:-1.382691 62:-0.612953 63:0.594536 64:-0.353926 65:-1.451987 66:-1.084144 67:-0.372633 68:-0.650724 69:-0.904356 70:0.858132
-1 1:-1.051772 2:-0.676059 3:0.090187 4:-0.324605 5:0.164774 6:0.469539 7:-0.659733 8:0.269297 9:1.770076 10:-1.339307 11:0.498521 12:-1.336803 13:-0.463016 14:-0.188057 15:-0.097038 16:-1.645992 17:-0.942324 18:-1.599759 19:-0.127302 20:0.378544 21:1.262795 22:0.321279 23:-0.026246 24:1.307813 25:-1.232984 26:-0.007788 27:-0.255451 28:-0.293530 29:-0.253124 30:0.990057 31:-0.422493 32:-0.142687 33:1.628376 34:-0.493409 35:-0.530150 36:-0.508201 37:0.690107 38:0.168110 39:-0.502111 40:-1.108444 41:0.074324 42:-1.433968 43:-0.940268 44:-0.921091 45:-0.020853 46:-0.561410 47:1.207158 48:0.083827 49:0.637178 50:-0.734689 51:-0.207463 52:-0.913532 53:0.162547 54:-0.208724 55:0.201295 56:-0.550758 57:0.366043 58:1.545555 59:0.508812 60:-0.161367 61:0.031470 62:0.241299 63:2.083198 64:0.777975 65:0.552896 66:-0.437980 67:-0.263882 68:-2.280552 69:1.111648 70:1.312996
-1 1:-0.938089 2:0.147055 3:0.112056 4:0.852136 5:-1.958880 6:0.365109 7:-1.217794 8:0.731539 9:0.839785 10:0.793156 11:0.397370 12:2.117517 13:-0.430591 14:-0.299369 15:0.365637 16:-0.254861 17:0.071024 18:1.124787 19:0.933793 20:0.169165 21:1.129810 22:0.996258 23:0.298731 24:1.109455 25:-0.286878 26:-0.527056 27:0.136760 28:-2.372042 29:-0.403925 30:-0.176310 31:1.107312 32:-0.113856 33:0.040105 34:-0.070579 35:0.492369 36:0.403901 37:-0.503157 38:0.047181 39:-0.304916 40:0.830733 41:-1.049060 42:0.339413 43:0.037808 44:-0.748524 45:1.571156 46:0.963627 47:-1.279762 48:1.190166 49:-0.218877 50:0.868606 51:1.070568 52:0.804618 53:0.157663 54:-0.352404 55:-0.898732 56:1.248038 57:-0.063448 58:-0.543300 59:0.093957 60:-0.149967 61:0.395920 62:-0.624787 63:-0.000621 64:0.429011 65:1.986526 66:-1.351900 67:-0.608179 68:0.822264 69:-0.230216 70:1.097333
-1 1:-0.690424 2:-0.969979 3:2.076089 4:-1.345621 5:-0.393687 6:-0.367925 7:0.318664 8:-0.255292 9:-0.372957 10:-0.305505 11:0.409408 12:0.412404 13:-1.231087 14:0.124771 15:-0.117581 16:-0.009339 17:1.627926 18:-0.671098 19:-0.279081 20:-1.347708 21:-0.118467 22:0.037212 23:-0.152366 24:1.344549 25:0.462140 26:-2.752023 27:-1.425635 28:0.349357 29:-0.523936 30:-0.242099 31:-0.415079 32:0.353451 33:1.664836 34:-0.567823 35:-0.012781 36:-0.805882 37:-0.893197 38:-0.433105 39:-0.834484 40:-0.300526 41:-1.980246 42:1.515461 43:-1.284856 44:1.089664 45:-0.466296 46:-1.185489 47:0.924637 48:-0.334353 49:0.772765 50:0.000610 51:-0.239331 52:0.488424 53:-2.005270 54:-0.950015 55:0.437830 56:0.851220 57:2.385155 58:-0.697695 59:-1.126491 60:0.292588 61:1.420998 62:1.951286 63:-2.068823 64:0.078988 65:0.439518 66:-0.270166 67:0.120398 68:-0.658020 69:0.194315 70:1.360066
-1 1:-0.142092 2:1.166620 3:0.587318 4:0.016391 5:0.228941 6:-0.523467 7:-1.755236 8:0.803598 9:-2.343275 10:1.545681 11:-1.422059 12:-1.117946 13:-0.809736 14:-1.147261 15:1.153098 16:-0.181117 17:0.740136 18:2.167297 19:-1.214939 20:0.699456 21:0.447688 22:0.284292 23:0.418029 24:-0.941701 25:1.485203 26:-0.100252 27:0.616608 28:0.826812 29:0.169763 30:0.607641 31:0.795284 32:-0.473505 33:-0.183101 34:-0.020866 35:0.172810 36:1.219490 37:0.524886 38:-1.623782 39:-0.236289 40:-1.144711 41:0.954668 42:0.855861 43:0.265996 44:0.815197 45:0.859713 46:1.573833 47:1.284798 48:0.094431 49:-0.956546 50:-0.359988 51:-1.663944 52:-0.344908 53:-0.208115 54:0.555422 55:0.388359 56:-0.045880 57:0.887347 58:2.132749 59:-0.823211 60:0.687549 61:0.458964 62:0.813378 63:-0.913312 64:0.364257 65:1.100852 66:-1.777587 67:1.584412 68:1.600223 69:-1.579523 70:0.195838
-1 1:0.003674 2:-1.153834 3:0.817236 4:-1.144163 5:-0.246252 6:0.589720 7:-2.247739 8:0.828361 9:-0.231464 10:0.284109 11:-1.520789 12:-1.094794 13:-0.722481 14:-1.035296 15:-0.539922 16:0.064576 17:0.421809 18:0.481753 19:-2.820915 20:-0.679509 21:-0.314659 22:-1.928585 23:2.119423 24:-0.284056 25:0.768190 26:-0.737798 27:-1.859584 28:-0.191041 29:-0.229971 30:-0.475284 31:0.696029 32:0.853934 33:-0.508714 34:0.383694 35:-0.388225 36:-0.588397 37:-0.594480 38:0.571078 39:-1.295816 40:1.985514 41:-0.078678 42:1.374708 43:0.390250 44:-0.889520 45:-1.023518 46:-1.301811 47:0.368418 48:0.883656 49:0.324126 50:0.896400 51:1.066681 52:-0.179891 53:0.131718 54:-0.357829 55:-0.327299 56:-0.942034 57:0.809146 58:1.472085 59:0.219005 60:-0.810184 61:-0.413308 62:-0.463352 63:-0.530372 64:0.749698 65:-0.620388 66:0.329405 67:-0.143479 68:-0.824452 69:1.486256 70:-0.656482
-1 1:0.446604 2:0.181469 3:1.137704 4:0.785729 5:0.642348 6:-0.222015 7:0.124723 8:-0.175377 9:0.794293 10:1.779821 11:-0.265225 12:0.694794 13:-1.714774 14:0.279046 15:-2.422398 16:-1.228147 17:0.233026 18:-0.273582 19:0.742230 20:1.165125 21:-0.646345 22:-0.647009 23:-0.176221 24:-0.000459 25:0.143511 26:-3.486350 27:-0.537027 28:-0.038249 29:-1.505102 30:-0.035109 31:-0.297885 32:-1.646475 33:0.824645 34:0.507176 35:-0.149816 36:-0.281194 37:0.336489 38:-1.078037 39:0.160516 40:0.593358 41:2.192547 42:-0.086420 43:0.324827 44:-0.876893 45:0.352088 46:-0.770121 47:-0.195701 48:-2.005474 49:2.027616 50:0.570719 51:-0.965213 52:-0.025361 53:-1.517524 54:0.923841 55:1.810353 56:-0.688194 57:-1.977103 58:-0.067058 59:-0.662266 60:-0.495383 61:-0.586842 62:0.683653 63:1.138578 64:1.199873 65:0.158752 66:-1.746410 67:-0.640416 68:-0.692866 69:-0.558080 70:1.938138
-1 1:-0.619868 2:0.690605 3:0.001345 4:1.205578 5:-0.622589 6:-0.822730 7:0.756411 8:-0.509990 9:0.837029 10:-0.647955 11:0.982674 12:0.612394 13:0.279091 14:0.528799 15:-0.800806 16:0.234768 17:0.375279 18:-1.462845 19:-0.565313 20:0.444312 21:-0.106958 22:-1.553457 23:-0.114594 24:1.119106 25:-1.359052 26:0.179799 27:1.357100 28:0.985170 29:-1.564451 30:0.037252 31:1.149103 32:-0.975783 33:-0.203433 34:-0.029429 35:-0.485202 36:-0.071513 37:0.784065 38:0.342732 39:1.702160 40:-1.576310 41:0.162929 42:0.545485 43:1.181451 44:0.423587 45:-0.659815 46:-2.297996 47:0.280768 48:1.313677 49:-0.584955 50:0.813977 51:-1.613042 52:-0.099761 53:-0.413761 54:-0.803341 55:-2.204755 56:-1.834366 57:-0.651550 58:1.754484 59:1.843485 60:0.518945 61:-1.607731 62:0.115893 63:-1.440098 64:-0.640788 65:-0.697378 66:-0.241192 67:0.068310 68:1.075601 69:-0.124146 70:1.496070
-1 1:-0.715531 2:0.560164 3:1.337461 4:-0.964125 5:-0.791116 6:0.203989 7:-0.418212 8:-0.434289 9:-0.499509 10:1.312293 11:-0.947700 12:-0.414521 13:-1.751857 14:-0.525958 15:0.372446 16:0.916305 17:-0.846341 18:0.852511 19:2.612393 20:-2.348112 21:0.403443 22:-1.863725 23:-1.288489 24:-0.471372 25:0.808074 26:-0.839703 27:-0.896748 28:-0.399628 29:-0.866137 30:-0.158099 31:1.870236 32:-0.720496 33:0.212976 34:1.574307 35:-0.127163 36:0.405951 37:0.098651 38:-0.350705 39:0.731111 40:0.371970 41:0.011366 42:0.433212 43:-1.110528 44:0.533171 45:0.034401 46:-0.173931 47:0.979896 48:-0.202899 49:-0.198545 50:-1.541087 51:2.757774 52:-1.766933 53:-0.602892 54:2.544024 55:-0.960630 56:-0.413572 57:0.539603 58:0.138817 59:0.135541 60:0.023874 61:0.693048 62:1.572898 63:1.805808 64:-0.272870 65:-0.763871 66:-2.192346 67:0.646411 68:0.078406 69:1.072903 70:-0.129731
-1 1:-0.468201 2:-0.430599 3:1.454428 4:0.759583 5:0.163418 6:-0.377761 7:-0.478851 8:-0.191832 9:0.932241 10:-0.105819 11:0.711549 12:-0.456397 13:1.300803 14:-1.414548 15:0.155200 16:-3.017515 17:0.116255 18:-0.176513 19:-0.118488 20:1.981920 21:0.196447 22:0.823352 23:0.157855 24:-0.916347 25:-2.658576 26:1.322882 27:0.097398 28:-0.938928 29:-0.062752 30:2.358071 31:2.096948 32:-0.459552 33:-0.934521 34:-0.089910 35:-0.807933 36:1.656412 37:1.157744 38:0.632773 39:-1.105306 40:-0.925897 41:-0.862956 42:-1.508930 43:0.011546 44:0.446467 45:-0.322254 46:0.249881 47:2.279156 48:-0.693904 49:0.718135 50:-0.728734 51:1.339272 52:-0.040735 53:-1.150735 54:-0.196124 55:0.638914 56:0.433735 57:-1.290414 58:-1.440244 59:-2.597737 60:0.211460 61:0.541953 62:-0.304748 63:2.236150 64:0.565372 65:1.085947 66:0.356541 67:0.738114 68:0.244995 69:-1.387933 70:1.277787
-1 1:-0.512701 2:-0.978996 3:-1.961812 4:-2.032017 5:-1.603865 6:0.558680 7:-1.187516 8:-0.882561 9:-1.576174 10:-1.047579 11:-0.317034 12:1.363816 13:-0.630584 14:-0.602297 15:1.454989 16:0.430898 17:-0.395636 18:0.019067 19:0.229518 20:0.920491 21:-0.470613 22:-0.626496 23:0.473643 24:-0.857867 25:1.611230 26:-1.089666 27:-0.849611 28:-1.527105 29:-1.722987 30:3.362314 31:-1.082463 32:-0.159423 33:0.695440 34:-0.217232 35:0.079364 36:1.480089 37:1.790155 38:-0.234764 39:-0.153795 40:1.807601 41:0.981767 42:-0.791124 43:-0.366735 44:1.015432 45:-0.650699 46:0.651454 47:0.199904 48:-0.821479 49:-0.050454 50:-1.178866 51:1.104789 52:1.192897 53:-0.549738 54:0.772505 55:-1.066860 56:0.547966 57:-2.696253 58:-0.380229 59:0.624014 60:-0.041064 61:-0.799352 62:0.074629 63:0.822748 64:-1.364144 65:0.144308 66:-0.699783 67:0.614021 68:0.086846 69:-0.876204 70:0.640071
-1 1:-0.194468 2:-1.613792 3:-1.367537 4:-0.779055 5:1.170873 6:0.751798 7:1.265931 8:-0.171675 9:0.838198 10:-0.490347 11:-1.068688 12:-1.618590 13:1.100250 14:-0.963052 15:-0.340963 16:0.309758 17:1.410113 18:1.575169 19:-1.358744 20:-0.686327 21:-0.298199 22:-1.425457 23:-0.767969 24:-0.754471 25:-0.128464 26:0.802270 27:-0.250976 28:0.010206 29:-0.201596 30:-1.749196 31:2.081723 32:0.876171 33:-2.362192 34:-0.630427 35:-0.337742 36:2.191724 37:-0.353261 38:0.298528 39:-0.156907 40:0.331316 41:-0.398106 42:-2.042677 43:-0.722702 44:0.574657 45:-0.102739 46:-1.487973 47:-0.512814 48:0.212158 49:1.029638 50:-0.437727 51:1.716368 52:-0.903616 53:-2.659773 54:0.574196 55:-0.133435 56:-0.627414 57:0.501570 58:-0.171439 59:0.451380 60:-0.668305 61:-0.449060 62:0.934162 63:0.787071 64:0.059402 65:-0.312891 66:-0.402315 67:-1.012127 68:1.219720 69:0.196299 70:0.524829
-1 1:-1.333877 2:0.409192 3:0.119763 4:0.942766 5:-0.218347 6:-1.153252 7:-2.784961 8:1.455524 9:-0.099087 10:0.301280 11:-0.308740 12:0.156113 13:0.716732 14:-0.066256 15:-0.194305 16:1.441384 17:0.109855 18:0.413688 19:0.261094 20:-0.457709 21:0.383108 22:0.886208 23:0.152257 24:1.649889 25:0.234709 26:-1.192333 27:-0.431456 28:-2.010211 29:-0.304404 30:-1.093882 31:-0.152865 32:-0.769645 33:-0.419282 34:-0.814344 35:-0.138377 36:-0.233378 37:-0.969966 38:0.228360 39:0.599914 40:-2.868571 41:0.707473 42:0.648026 43:2.384175 44:2.407540 45:0.912422 46:-0.713684 47:0.101526 48:-0.640154 49:-1.007863 50:1.054440 51:-0.667550 52:-0.741510 53:0.430939 54:1.093793 55:-0.408049 56:1.754409 57:0.211552 58:-0.258017 59:-0.224927 60:3.195636 61:-0.484496 62:-0.366402 63:0.712537 64:0.995037 65:0.106282 66:0.608643 67:-1.126137 68:-0.506157 69:-0.091553 70:0.049557
-1 1:0.994633 2:-0.068839 3:0.603420 4:1.134878 5:1.770480 6:0.062433 7:0.673405 8:1.115819 9:0.743826 10:-0.431874 11:-0.442979 12:-0.629283 13:1.304485 14:-0.576991 15:-0.007135 16:1.005238 17:0.228518 18:-0.980238 19:-0.292007 20:-0.174057 21:-2.011302 22:-1.106555 23:0.988801 24:-0.641260 25:-0.488422 26:-0.604855 27:0.778918 28:-0.003337 29:2.084214 30:-0.977503 31:0.509924 32:-1.233698 33:-0.891868 34:-0.073814 35:0.694708 36:1.620609 37:-0.248913 38:0.496552 39:-1.778121 40:-0.119081 41:0.308439 42:1.666115 43:0.129257 44:-1.539976 45:-1.550159 46:-1.655084 47:0.250955 48:-2.115523 49:0.250923 50:-1.102955 51:0.162291 52:-0.492107 53:0.659144 54:-0.954078 55:0.707011 56:-0.085435 57:1.167417 58:-0.318652 59:-1.669847 60:-0.213013 61:0.494808 62:0.794456 63:2.022638 64:0.665050 65:1.727037 66:0.235363 67:0.181426 68:0.048928 69:1.383476 70:0.084988
-1 1:-0.798337 2:-1.352584 3:0.452389 4:-0.198115 5:-0.441966 6:-1.961276 7:-0.749231 8:0.879258 9:1.260797 10:0.593386 11:-0.895331 12:0.060438 13:0.875924 14:1.225924 15:-0.164679 16:-0.150091 17:0.732559 18:1.477931 19:1.351943 20:0.606887 21:-1.075404 22:0.866374 23:-0.258669 24:-0.152645 25:1.035866 26:0.752090 27:1.198410 28:-1.428360 29:-0.184066 30:-1.636638 31:-0.549828 32:0.270179 33:-0.020614 34:-0.367815 35:0.812339 36:1.566606 37:0.557048 38:1.788788 39:-0.924133 40:-0.864958 41:-1.437878 42:-1.618465 43:-2.217174 44:0.567070 45:-0.807166 46:-0.855561 47:-1.302621 48:0.379264 49:-1.922988 50:0.524214 51:0.337836 52:-1.605374 53:0.664603 54:0.278235 55:1.756904 56:0.161124 57:-0.327359 58:2.091190 59:0.286565 60:-1.070856 61:-0.312916 62:1.602043 63:-0.000454 64:0.472463 65:0.798626 66:-0.726914 67:0.841485 68:1.122625 69:-0.064206 70:-0.092619
-1 1:0.323898 2:-0.872627 3:-0.869768 4:0.512107 5:0.587688 6:-0.378216 7:1.396752 8:0.707277 9:-0.895276 10:1.195767 11:0.625653 12:-0.004783 13:-0.538701 14:-0.579659 15:-0.352687 16:-0.183943 17:0.204892 18:1.377967 19:-0.393261 20:-1.028500 21:-1.545917 22:-1.197313 23:-0.403061 24:1.382572 25:0.273607 26:0.411006 27:-1.031680 28:0.578321 29:-0.356038 30:0.003654 31:0.726725 32:-2.146723 33:-0.517483 34:0.857826 35:1.115491 36:1.020526 37:1.157121 38:0.396204 39:0.367552 40:-1.029914 41:-1.119053 42:-0.901262 43:0.808226 44:-0.419929 45:1.135096 46:0.193341 47:-1.028851 48:-1.830860 49:1.115310 50:1.271457 51:1.770878 52:-1.919025 53:0.728615 54:1.253391 55:-1.411476 56:0.367215 57:-0.757016 58:1.294609 59:-1.015277 60:1.635701 61:2.011537 62:-0.216474 63:-0.682496 64:0.618881 65:-0.370573 66:-0.923681 67:0.606324 68:1.482101 69:-0.905921 70:0.183130
-1 1:-0.360003 2:0.075928 3:0.721136 4:-0.674546 5:0.731025 6:0.097995 7:1.454766 8:0.003205 9:0.485538 10:0.092286 11:-0.329308 12:1.094073 13:-1.743692 14:-0.435088 15:0.597895 16:0.111690 17:0.612456 18:-1.489456 19:1.394770 20:-1.648698 21:0.881929 22:-0.702311 23:0.385488 24:-1.063398 25:-0.779073 26:0.653204 27:-0.278603 28:1.126964 29:-1.865774 30:0.677774 31:-0.598462 32:0.619933 33:1.017446 34:-1.716062 35:-0.416037 36:0.197853 37:-1.266281 38:-0.451859 39:2.306446 40:0.926717 41:0.976063 42:1.354256 43:-1.108900 44:-0.051841 45:1.877100 46:-0.005002 47:0.959194 48:-1.157994 49:1.110619 50:-1.319741 51:-0.206374 52:-0.622345 53:-0.368598 54:2.981984 55:-0.124214 56:-0.388755 57:-0.410539 58:0.736166 59:0.765629 60:-0.264404 61:-1.478185 62:-1.087453 63:-0.086085 64:0.856137 65:-0.054935 66:-0.105713 67:1.326093 68:0.833383 69:-0.401956 70:0.813284
-1 1:0.213169 2:1.223961 3:0.203502 4:0.201844 5:0.866292 6:1.242601 7:-0.386667 8:-0.965644 9:-0.997893 10:-0.869706 11:1.347209 12:0.591327 13:1.092504 14:0.885787 15:-2.913781 16:0.452145 17:-1.144653 18:0.381958 19:0.464899 20:1.227231 21:0.094476 22:0.456359 23:0.034139 24:2.343032 25:-0.360674 26:1.081128 27:-1.351808 28:0.820960 29:-1.810553 30:1.002193 31:0.069982 32:1.487807 33:-0.304802 34:0.039550 35:0.676042 36:-1.642091 37:-0.291718 38:0.182404 39:-0.378489 40:-1.846293 41:-1.166184 42:-0.710363 43:0.708573 44:-0.857938 45:0.006367 46:-1.772103 47:-1.065592 48:1.984787 49:-0.074733 50:-0.783887 51:0.305789 52:-0.482891 53:-0.854951 54:1.189178 55:1.538414 56:0.795398 57:-0.491928 58:-0.369683 59:-0.129920 60:0.853555 61:-0.129473 62:0.404043 63:1.171139 64:0.848189 65:1.254325 66:-1.205115 67:-1.357558 68:-0.098978 69:2.663964 70:0.749542
-1 1:1.773170 2:-0.467085 3:-1.132555 4:0.404364 5:-0.686935 6:-0.923990 7:-1.766164 8:0.162231 9:-1.049645 10:0.137340 11:-0.270772 12:-1.240509 13:1.684495 14:-0.760392 15:-2.039709 16:0.721958 17:-1.362272 18:0.953777 19:1.320969 20:0.343170 21:0.024844 22:-0.880961 23:-0.930920 24:-0.820696 25:1.830041 26:-0.743760 27:-1.512727 28:1.476736 29:-2.089793 30:-1.192345 31:-0.168863 32:-0.418942 33:0.876270 34:0.233881 35:-2.784192 36:1.626217 37:0.102986 38:-0.206593 39:-0.210962 40:-0.057345 41:0.530776 42:0.709009 43:0.620930 44:0.084287 45:1.988927 46:0.856146 47:0.990311 48:-1.046508 49:-0.936538 50:0.647317 51:-0.860379 52:1.863721 53:-2.250723 54:1.168666 55:-1.982308 56:-0.028462 57:1.976540 58:0.010304 59:-0.420655 60:1.412036 61:0.301742 62:0.027386 63:2.715863 64:-0.232158 65:-0.319233 66:0.248248 67:1.942995 68:0.679042 69:-1.143480 70:0.307134
-1 1:-0.118944 2:1.003014 3:-0.013384 4:-0.565076 5:2.402172 6:-0.422282 7:1.441248 8:0.718081 9:0.645798 10:0.042495 11:-0.273133 12:0.518933 13:1.026482 14:-0.522362 15:1.425107 16:-2.587667 17:0.493966 18:1.448260 19:-0.011701 20:1.189776 21:-1.267582 22:0.032836 23:-0.292319 24:0.058771 25:0.867662 26:-0.394087 27:-0.681068 28:0.455295 29:-0.190323 30:0.027732 31:0.386937 32:-2.191967 33:-0.085771 34:1.562912 35:0.182140 36:-2.195344 37:0.252845 38:0.506861 39:-0.337924 40:0.287882 41:0.883528 42:0.948091 43:-0.731503 44:0.637238 45:-0.409638 46:0.496094 47:0.855398 48:1.156020 49:0.610425 50:0.365531 51:-0.988299 52:-0.510422 53:0.547169 54:-0.935292 55:0.212523 56:-1.060098 57:-0.548460 58:-2.400140 59:0.673183 60:0.452459 61:2.212651 62:-0.705702 63:0.209602 64:2.199178 65:-1.197614 66:-0.760611 67:0.215414 68:0.937836 69:-1.153964 70:-1.214217
-1 1:0.478692 2:-1.314864 3:0.411460 4:1.004747 5:-0.503497 6:0.619037 7:0.071445 8:-0.207377 9:0.754869 10:-0.369034 11:-1.224598 12:1.056531 13:1.179444 14:0.883220 15:2.321107 16:-0.596325 17:-0.699615 18:1.907170 19:0.272087 20:0.996008 21:-1.213891 22:-0.422264 23:-2.861481 24:-0.186749 25:0.350115 26:0.635649 27:1.541763 28:-0.162561 29:-0.874055 30:0.510591 31:0.951559 32:0.400817 33:-0.202828 34:-0.268765 35:1.490773 36:-0.135898 37:0.286220 38:0.015783 39:-0.648059 40:-0.752171 41:1.693260 42:-1.646426 43:-0.811856 44:0.326329 45:-1.069915 46:0.567295 47:1.193622 48:0.909930 49:2.400329 50:0.481118 51:0.264274 52:0.665514 53:0.770358 54:-1.773163 55:1.224983 56:-0.241056 57:0.014040 58:-0.076805 59:-0.082342 60:-0.280695 61:0.924505 62:-1.838628 63:-2.501816 64:0.532303 65:1.915780 66:0.342183 67:0.215284 68:-0.598494 69:1.842014 70:-0.446713
-1 1:0.170966 2:0.598238 3:0.756347 4:0.394366 5:0.537258 6:-0.313042 7:1.141541 8:-1.295139 9:-0.728113 10:0.762302 11:-0.109572 12:-0.463375 13:-0.400137 14:-0.991163 15:0.442055 16:0.191725 17:0.939643 18:-1.010330 19:-3.164383 20:0.618807 21:-1.072202 22:-0.672560 23:1.621311 24:0.520153 25:0.026958 26:-0.144236 27:-0.024868 28:-0.165339 29:1.248022 30:-0.470735 31:-0.646886 32:0.733861 33:0.094317 34:0.526756 35:0.152904 36:1.444973 37:-2.074402 38:-0.290258 39:-0.178586 40:-0.079989 41:0.995371 42:0.444390 43:-1.552270 44:0.102730 45:0.655311 46:0.516453 47:0.038966 48:1.475847 49:-0.191923 50:-0.773068 51:1.430730 52:0.445006 53:0.573355 54:-0.350984 55:0.698217 56:0.275300 57:1.523374 58:1.123865 59:1.820739 60:-0.549635 61:0.264285 62:-1.032077 63:-0.845623 64:0.213609 65:-0.039208 66:-1.078856 67:0.476868 68:0.561566 69:-0.933125 70:-0.365778
-1 1:-0.387574 2:-0.013034 3:1.429093 4:-1.363915 5:-0.763672 6:1.271340 7:-0.467101 8:-0.162615 9:-1.069086 10:-1.387315 11:0.834181 12:0.434932 13:0.056542 14:-0.838880 15:-0.260585 16:-0.188637 17:0.082813 18:-0.196569 19:-0.669317 20:-0.961717 21:-0.714783 22:-0.445194 23:-0.164562 24:-1.540445 25:-0.498904 26:-0.116620 27:0.618689 28:0.022282 29:0.087952 30:0.353694 31:0.993230 32:-0.514774 33:-2.021388 34:-0.394221 35:-2.837695 36:-0.940814 37:0.402618 38:0.022342 39:1.781722 40:0.737757 41:-0.586220 42:-0.291516 43:-0.796014 44:0.256225 45:0.191260 46:1.001641 47:0.350239 48:0.599546 49:1.531506 50:-1.305960 51:1.556439 52:0.843177 53:0.650320 54:-0.129089 55:-1.147944 56:-0.781185 57:0.900751 58:0.433033 59:-0.471599 60:-0.503398 61:-1.244623 62:-0.464395 63:1.429498 64:0.200647 65:-1.120608 66:-0.218905 67:-1.465489 68:-0.172341 69:0.400479 70:-0.454977
-1 1:-1.689027 2:-0.281633 3:1.124034 4:0.997780 5:0.130266 6:0.405006 7:0.738680 8:-1.130186 9:1.190815 10:-1.844290 11:-1.291201 12:-1.168578 13:-1.131581 14:1.029344 15:1.094356 16:-0.371677 17:1.406126 18:1.101177 19:-0.977465 20:0.206329 21:1.163793 22:0.777432 23:1.270023 24:0.086756 25:0.964999 26:1.758785 27:-0.119315 28:-0.694358 29:-0.833120 30:0.274177 31:0.221756 32:-1.291676 33:1.545848 34:0.900550 35:-1.449379 36:0.453019 37:-0.616949 38:-0.608740 39:-0.473607 40:0.098402 41:-1.053987 42:0.938811 43:1.136048 44:-0.536970 45:2.062736 46:-1.287034 47:-1.055476 48:1.439813 49:0.045772 50:1.606848 51:-0.482806 52:0.798054 53:1.386760 54:-0.206290 55:0.219882 56:0.315379 57:-0.573538 58:0.519586 59:-0.460044 60:-0.374969 61:-1.551417 62:0.937746 63:-0.531935 64:0.625680 65:-0.375850 66:-0.035525 67:1.606026 68:2.151703 69:-2.218739 70:-0.612717
-1 1:0.273366 2:1.230808 3:0.108771 4:0.121825 5:0.062239 6:-1.670733 7:-1.260804 8:0.536109 9:1.554992 10:-0.305963 11:0.105443 12:0.269324 13:-0.874514 14:-0.102083 15:-0.399965 16:-0.330422 17:-0.899142 18:-1.403154 19:-0.126669 20:0.716245 21:0.727547 22:0.700118 23:-2.037609 24:0.370154 25:-1.905322 26:-0.783100 27:-1.199644 28:-0.912650 29:-0.013883 30:-1.556753 31:-1.028409 32:1.650618 33:-1.340934 34:-0.303834 35:0.704101 36:0.280333 37:-1.835617 38:1.749098 39:-0.549565 40:1.230989 41:0.081592 42:1.149212 43:-0.221650 44:-1.756234 45:-0.121170 46:-1.046188 47:1.132285 48:0.023937 49:-1.362797 50:-1.985723 51:-0.645911 52:2.865055 53:1.051975 54:0.571812 55:-0.828656 56:0.417182 57:0.628315 58:-0.282313 59:0.965894 60:3.098183 61:-0.095572 62:0.658052 63:0.343918 64:1.607790 65:1.555208 66:0.661755 67:0.162533 68:0.223247 69:1.069792 70:0.907436
-1 1:-0.932617 2:1.678967 3:0.438752 4:-0.945533 5:1.073013 6:-2.639490 7:0.442772 8:0.214333 9:-0.091416 10:1.027532 11:0.821000 12:-0.096564 13:0.768022 14:-0.173081 15:0.237093 16:-1.417224 17:-0.396188 18:-1.353696 19:0.473892 20:-1.181928 21:1.144300 22:-1.373105 23:-0.077352 24:-0.273126 25:-1.244003 26:-0.516598 27:-1.552633 28:0.377011 29:-1.141264 30:1.706517 31:-0.746589 32:-0.468693 33:0.602844 34:-1.014409 35:-0.565147 36:-0.673533 37:-0.714227 38:-0.184149 39:-0.013699 40:0.579120 41:-0.011271 42:-1.511703 43:-0.355880 44:-0.473629 45:-1.308086 46:0.266887 47:0.595907 48:-3.071358 49:-0.333259 50:2.523665 51:0.865583 52:-1.554303 53:0.845019 54:-0.489680 55:0.122791 56:0.463908 57:1.088257 58:-1.349907 59:-1.507092 60:-1.710235 61:-0.558846 62:1.388044 63:-0.320954 64:-0.218579 65:1.259702 66:-0.641643 67:-0.092904 68:-0.904067 69:0.496721 70:-0.416284
-1 1:-0.688273 2:0.548933 3:-2.236592 4:1.203015 5:1.701529 6:2.476901 7:-0.350021 8:-0.424741 9:0.364329 10:-0.889232 11:-1.286211 12:-1.100525 13:1.064918 14:-0.797780 15:-0.368892 16:0.148826 17:-1.397676 18:1.002683 19:0.931515 20:0.385441 21:0.340549 22:-0.249279 23:1.335624 24:-0.343725 25:-0.164559 26:1.027210 27:0.045329 28:-0.276940 29:1.665809 30:0.191286 31:-0.652601 32:-1.117967 33:0.414994 34:-1.090515 35:-0.796672 36:0.119048 37:0.212472 38:0.415170 39:-0.752055 40:-0.021556 41:1.581093 42:-1.849967 43:-0.518052 44:0.162684 45:0.531123 46:-0.389319 47:0.736324 48:1.881029 49:0.276477 50:-0.613847 51:-1.089465 52:1.566000 53:-2.347242 54:-0.616000 55:-2.057284 56:0.098639 57:0.874614 58:0.585450 59:0.002468 60:-1.558862 61:-1.435228 62:0.860184 63:-1.331414 64:-0.812908 65:-0.541036 66:1.627872 67:-0.241615 68:-0.618940 69:0.136238 70:-0.593721
-1 1:0.601216 2:0.374002 3:-1.897292 4:0.723051 5:1.191010 6:0.242886 7:-0.075141 8:1.259001 9:-1.726831 10:1.191604 11:-1.056204 12:2.069547 13:-1.047415 14:0.709213 15:0.199326 16:0.204182 17:2.595271 18:1.119072 19:0.455592 20:-0.662869 21:0.287047 22:-0.827450 23:0.561467 24:-0.202028 25:-0.925108 26:0.768462 27:0.192133 28:-0.861256 29:0.652963 30:1.784878 31:-0.174741 32:-0.035697 33:-0.755217 34:-0.788116 35:1.023540 36:-0.788905 37:-0.879673 38:-0.217406 39:0.520886 40:0.777047 41:-1.115597 42:0.590295 43:-0.336289 44:0.580964 45:-1.281549 46:1.082181 47:-1.446928 48:-0.550601 49:-0.810710 50:-1.382124 51:1.636313 52:-1.475493 53:0.003778 54:-0.590282 55:0.188647 56:0.980354 57:1.895137 58:-2.289885 59:2.822540 60:-0.558634 61:0.702663 62:0.322866 63:-0.195792 64:1.425985 65:-1.411674 66:0.349971 67:-1.608977 68:-0.419648 69:0.045018 70:-0.197740
-1 1:-0.295352 2:-0.663228 3:-0.828400 4:-0.877942 5:-0.410228 6:-0.117272 7:-0.228102 8:-0.986366 9:0.247720 10:1.021488 11:2.109556 12:0.878560 13:-0.695941 14:-0.316398 15:-2.267030 16:0.584519 17:0.443381 18:1.034339 19:0.383848 20:-0.497075 21:0.731900 22:-0.037394 23:0.692923 24:-1.028734 25:0.181628 26:-1.585236 27:0.395058 28:0.399520 29:0.614707 30:-0.033940 31:-1.013845 32:0.766980 33:-0.694943 34:2.329006 35:-1.543832 36:0.172032 37:2.058301 38:-0.084526 39:-0.717097 40:-0.465351 41:0.920414 42:-0.533265 43:-0.353274 44:0.480731 45:-1.291972 46:-2.351240 47:-0.697470 48:0.553152 49:-0.236902 50:-0.294474 51:0.116515 52:-0.208199 53:-0.582333 54:-0.156114 55:0.148729 56:-1.385588 57:1.118178 58:-2.567514 59:-1.172913 60:-0.667798 61:-1.480171 62:-0.102977 63:1.135458 64:0.102748 65:-0.790981 66:-0.432536 67:-1.421803 68:-0.130989 69:-0.315092 70:0.409902
-1 1:-0.179143 2:0.570148 3:-1.106761 4:-0.100021 5:1.034586 6:-0.905475 7:0.455819 8:0.232275 9:-1.980176 10:-1.020475 11:0.240477 12:-0.775397 13:-0.089635 14:-2.265906 15:2.029384 16:-2.339990 17:-0.706274 18:-1.682194 19:-0.318055 20:0.238478 21:0.543000 22:0.429909 23:0.789403 24:0.399004 25:2.278229 26:3.218088 27:-1.550500 28:-0.856732 29:-0.477253 30:1.966762 31:-1.457172 32:0.672876 33:-0.003838 34:-2.631368 35:0.015704 36:0.826186 37:1.608279 38:-0.387088 39:0.472628 40:-0.143577 41:-0.580700 42:0.970544 43:-0.450630 44:1.094495 45:-0.063072 46:0.905873 47:0.288893 48:0.927992 49:0.462940 50:-2.047976 51:0.393330 52:0.277351 53:0.608209 54:0.072313 55:0.276331 56:0.849095 57:1.194643 58:0.333405 59:-1.160489 60:0.095657 61:-0.253716 62:1.145751 63:-1.024002 64:-1.246724 65:0.487513 66:0.444995 67:1.239890 68:0.800496 69:1.278453 70:0.640723
-1 1:-0.441036 2:-1.549815 3:0.937528 4:-2.220366 5:-0.266144 6:0.529508 7:0.954819 8:1.746228 9:0.168011 10:-2.381248 11:-1.096035 12:-2.925599 13:0.484647 14:0.577557 15:1.113377 16:-1.552599 17:1.514782 18:-0.189013 19:-0.947969 20:0.299189 21:-1.598153 22:0.102166 23:-1.296631 24:1.554357 25:0.619770 26:0.908303 27:-0.540209 28:1.382159 29:1.505753 30:0.783882 31:-0.911974 32:-0.099088 33:0.261470 34:-0.205753 35:2.327449 36:1.551529 37:0.672880 38:0.872243 39:-0.678201 40:-0.298978 41:0.516303 42:1.563849 43:0.075407 44:2.235811 45:-0.028843 46:-0.731595 47:1.798064 48:0.289730 49:1.577926 50:-0.165374 51:-1.541238 52:0.092329 53:-0.505836 54:-0.119347 55:-0.191218 56:0.187552 57:2.006638 58:-1.740370 59:0.329903 60:1.063055 61:0.468192 62:0.293454 63:-0.144355 64:-1.027187 65:1.237754 66:-1.591856 67:0.261665 68:0.688710 69:-0.294405 70:1.173381
-1 1:-0.847655 2:-0.341395 3:-0.321412 4:-1.093630 5:0.087859 6:-1.590201 7:-1.604673 8:0.130693 9:-0.867382 10:0.400586 11:-0.288243 12:0.365281 13:-0.305721 14:0.749838 15:-0.131656 16:0.847906 17:-0.913358 18:0.389512 19:1.120851 20:0.121182 21:0.111062 22:0.968467 23:0.104503 24:0.176009 25:1.581264 26:0.051203 27:0.499979 28:1.211252 29:0.645393 30:-1.058958 31:0.329516 32:0.081265 33:-0.065994 34:-0.168259 35:-0.958819 36:0.837617 37:0.474928 38:0.015142 39:0.190959 40:-1.141977 41:0.748547 42:0.309761 43:-0.803985 44:-0.025177 45:-0.189625 46:-0.366213 47:0.788996 48:-1.053337 49:0.598193 50:0.370205 51:0.285284 52:0.226613 53:-0.024160 54:-0.455406 55:-1.733078 56:-0.171788 57:0.211099 58:-0.107361 59:-0.928167 60:-0.342090 61:-0.430201 62:0.618846 63:1.135366 64:0.465730 65:1.094383 66:-1.228624 67:0.711875 68:0.022944 69:0.499027 70:0.622246
-1 1:-0.978565 2:-0.462471 3:-0.641390 4:-1.404192 5:-0.906448 6:0.470215 7:-0.046202 8:0.717913 9:-0.436409 10:0.461350 11:-0.032989 12:0.498524 13:-1.424628 14:-1.427318 15:0.385336 16:-1.173930 17:0.869857 18:2.397173 19:-0.517815 20:1.577172 21:0.661419 22:-0.401793 23:1.281736 24:0.313931 25:0.465023 26:0.751919 27:-1.010016 28:-1.095100 29:-0.808546 30:-0.261836 31:-1.496389 32:-0.192449 33:-0.468137 34:-0.915088 35:1.142318 36:-2.220668 37:0.023620 38:-0.236508 39:0.162225 40:0.614476 41:-1.089268 42:1.530031 43:0.700829 44:0.342667 45:-0.286213 46:-1.061220 47:1.459043 48:1.686425 49:-0.956971 50:-0.263612 51:-1.146637 52:-0.507925 53:0.772373 54:0.224647 55:-0.523189 56:-0.206527 57:0.874772 58:0.579538 59:-1.288238 60:-2.231951 61:-1.046141 62:0.291460 63:0.047854 64:0.786970 65:-1.307348 66:-0.035601 67:-2.425682 68:-0.168719 69:1.285172 70:-0.143878
-1 1:-1.352725 2:0.608925 3:-0.977018 4:0.983587 5:-1.258795 6:-1.005537 7:-0.418310 8:0.052151 9:-0.503458 10:0.234527 11:2.093013 12:0.245615 13:-0.138868 14:-0.315229 15:0.288715 16:-1.362656 17:-0.058727 18:2.868161 19:0.513512 20:0.473078 21:-0.895966 22:-0.063901 23:-0.033915 24:0.460176 25:0.178985 26:0.284424 27:1.044758 28:-0.715387 29:1.397679 30:0.277551 31:2.221754 32:-2.268414 33:-0.079495 34:-1.446543 35:-0.691394 36:1.030862 37:-1.249088 38:0.743670 39:-1.497270 40:-0.813720 41:1.069994 42:-0.844542 43:0.300110 44:0.881283 45:0.804860 46:0.918523 47:-0.713824 48:1.235970 49:-0.663572 50:-0.025083 51:0.495457 52:-1.104788 53:-1.793043 54:0.013674 55:-1.310322 56:0.412723 57:1.309769 58:-1.004226 59:1.241656 60:0.701366 61:-0.061396 62:-0.547851 63:-1.900437 64:1.446597 65:-1.764485 66:-0.167943 67:2.266356 68:-0.052258 69:-0.036571 70:1.235149
-1 1:-0.004215 2:1.701817 3:1.658374 4:-0.905684 5:-2.135922 6:0.919779 7:-0.530296 8:-1.321540 9:0.728036 10:-0.736520 11:-2.940241 12:-0.213928 13:0.987452 14:1.069824 15:0.563463 16:-0.271716 17:0.711288 18:-0.073283 19:-0.504149 20:-1.647109 21:-0.220096 22:-0.289060 23:-0.024818 24:-1.335099 25:1.314320 26:-0.380127 27:0.394300 28:0.244021 29:0.941311 30:1.862028 31:-0.275368 32:0.404707 33:-0.599329 34:1.082145 35:-0.896203 36:0.166333 37:0.001242 38:1.131570 39:0.722275 40:-0.290391 41:1.096880 42:-0.361056 43:-0.284606 44:1.257122 45:0.188039 46:1.490104 47:0.372633 48:0.342011 49:-1.559585 50:-1.927548 51:-0.062366 52:0.854705 53:0.422126 54:2.316372 55:0.469990 56:-0.442054 57:-0.964985 58:0.387692 59:1.166526 60:-0.365439 61:-1.227116 62:-0.366538 63:-0.278288 64:-0.108192 65:-0.423499 66:0.227354 67:1.606995 68:0.527917 69:0.075215 70:-0.798340
-1 1:0.820399 2:-1.506845 3:-0.702501 4:0.377381 5:-0.017580 6:-0.132124 7:-0.351833 8:-0.226054 9:-0.640239 10:-1.370957 11:0.995245 12:-1.423113 13:-0.332908 14:-1.228324 15:0.598208 16:0.014507 17:0.641751 18:-0.541524 19:-0.142595 20:-0.003984 21:1.185875 22:0.059284 23:0.401848 24:-1.632510 25:2.275797 26:-0.182215 27:-0.863801 28:0.245255 29:-0.416566 30:1.244650 31:-0.446094 32:0.255533 33:0.451888 34:0.101156 35:1.573773 36:1.493850 37:1.661547 38:-1.429466 39:-0.421665 40:-0.653022 41:-0.178317 42:1.216668 43:-1.030721 44:-0.005035 45:-0.203046 46:1.034497 47:-0.584094 48:1.005193 49:-0.580903 50:-0.360781 51:0.101051 52:-0.777332 53:0.171831 54:1.085076 55:-0.218082 56:-0.185886 57:-0.624537 58:-0.875978 59:0.498176 60:0.485950 61:0.148292 62:-0.485148 63:0.952230 64:-1.988441 65:0.479681 66:-1.959112 67:-0.852705 68:-0.736545 69:1.476581 70:-0.007411
-1 1:0.010011 2:-0.927649 3:-0.230939 4:0.487942 5:-0.708791 6:0.388216 7:-1.122867 8:-0.917361 9:0.384448 10:0.341765 11:0.809253 12:-0.450527 13:-0.716201 14:0.295325 15:0.827649 16:0.715313 17:-1.022887 18:0.478417 19:0.538479 20:2.440309 21:1.024675 22:0.795700 23:0.348003 24:0.382958 25:-0.388729 26:-0.942352 27:-1.067994 28:-0.455622 29:1.356150 30:-0.352715 31:1.143549 32:-1.303101 33:0.198782 34:0.204618 35:1.979743 36:0.259830 37:-2.167686 38:-0.042963 39:0.136897 40:0.454447 41:0.920863 42:0.882784 43:-1.549892 44:-1.247046 45:1.142947 46:-0.976562 47:0.495996 48:-0.461817 49:0.586051 50:-0.555684 51:-0.694778 52:0.565789 53:-0.260420 54:-0.461493 55:0.872830 56:-1.842445 57:1.358028 58:0.098442 59:-0.561630 60:-0.867476 61:-1.058415 62:0.514744 63:-0.019426 64:0.763288 65:-0.199521 66:1.655259 67:-0.541272 68:-0.832205 69:-1.159319 70:0.302448
-1 1:-0.431227 2:-0.448580 3:-2.996745 4:-1.036058 5:0.169093 6:1.166744 7:0.234429 8:-0.802669 9:-0.387550 10:0.713940 11:0.957327 12:-0.077306 13:1.483115 14:0.457854 15:0.564609 16:-0.899749 17:0.410793 18:0.762755 19:1.648325 20:-0.405781 21:-1.036874 22:0.132765 23:-0.441737 24:-0.596451 25:-0.303584 26:-0.446846 27:0.229504 28:-0.622879 29:-0.476064 30:-0.570720 31:0.153854 32:-0.733431 33:-0.303198 34:0.369630 35:-1.191476 36:0.679871 37:0.639573 38:0.321863 39:-0.671682 40:0.661985 41:0.056617 42:-0.529652 43:-1.708098 44:-1.024440 45:1.141240 46:-0.070581 47:0.288714 48:-0.668159 49:-0.068486 50:0.321352 51:0.439611 52:1.798511 53:-1.168281 54:0.007268 55:-0.057178 56:-0.223108 57:-0.827519 58:1.142893 59:-0.152640 60:1.707447 61:-0.421180 62:0.583080 63:-0.258075 64:0.919503 65:0.972039 66:-0.162428 67:-0.031099 68:1.245845 69:-0.411113 70:0.761161
-1 1:1.438344 2:-1.511207 3:0.282610 4:0.296984 5:0.601062 6:0.834595 7:-0.283941 8:0.333242 9:-0.952551 10:0.988762 11:-0.809293 12:1.430209 13:1.192777 14:0.568533 15:-0.545604 16:-0.175891 17:0.025175 18:-1.311595 19:-0.945018 20:1.184914 21:0.330485 22:-0.658634 23:-0.576095 24:0.233309 25:-0.883381 26:-1.646154 27:-1.481048 28:-0.126920 29:-0.676306 30:1.037729 31:0.107755 32:-0.815668 33:0.444770 34:-0.361140 35:-0.295451 36:-0.105958 37:1.476922 38:-0.685537 39:-0.188692 40:0.488907 41:-0.080044 42:0.822221 43:1.432081 44:-0.105619 45:0.396945 46:-0.859217 47:0.213228 48:1.618154 49:-0.125377 50:0.375851 51:-1.634989 52:-1.908350 53:0.033096 54:0.528843 55:1.704654 56:-1.061935 57:0.801416 58:1.613236 59:0.336810 60:-0.595899 61:-1.845197 62:-0.453501 63:1.105261 64:-0.709875 65:0.588850 66:0.197041 67:-2.374155 68:-0.501720 69:0.414581 70:0.059768
-1 1:-0.833771 2:1.452283 3:-0.218174 4:-0.490439 5:0.754925 6:-0.404566 7:0.951137 8:-0.404851 9:1.460803 10:-0.054807 11:-0.082223 12:0.395494 13:0.333864 14:-0.389732 15:1.355479 16:0.912420 17:1.382683 18:0.841109 19:1.236753 20:-0.556262 21:0.206584 22:-0.253863 23:-0.569810 24:0.621501 25:1.085482 26:1.969100 27:0.019984 28:-0.859203 29:-0.218041 30:-0.334760 31:0.029933 32:1.482043 33:-1.597129 34:-0.224475 35:-0.742381 36:-0.152740 37:0.250621 38:-0.059574 39:-0.221300 40:1.175696 41:-0.837744 42:1.686986 43:-0.087407 44:-2.137178 45:1.649444 46:-1.050668 47:-0.696923 48:-0.823396 49:0.819271 50:-0.308789 51:0.873331 52:0.024625 53:-0.652783 54:0.907680 55:0.088558 56:1.366491 57:-0.557816 58:-0.397038 59:1.099895 60:0.032056 61:-0.456080 62:1.668392 63:1.222510 64:-0.747467 65:0.916129 66:-1.449805 67:-0.786866 68:-0.611182 69:-0.016242 70:0.139502
-1 1:-1.958879 2:-1.216934 3:-0.740987 4:-0.109315 5:-1.011454 6:-1.238779 7:1.082212 8:-0.947363 9:0.820452 10:-0.252080 11:0.131254 12:-0.921815 13:-1.276298 14:-0.399928 15:1.206838 16:1.406198 17:0.679306 18:-0.223672 19:-0.366394 20:0.353927 21:0.985788 22:-0.526928 23:-0.060022 24:1.940901 25:1.325812 26:1.192081 27:-0.034440 28:0.309982 29:-1.356477 30:0.546935 31:-0.199463 32:-0.327018 33:0.508077 34:-1.541806 35:-0.217838 36:-0.113917 37:-0.871793 38:0.997382 39:0.757814 40:0.904033 41:0.848055 42:-1.593888 43:0.404030 44:0.716485 45:-1.446156 46:1.422587 47:0.667190 48:-1.345302 49:0.987501 50:-1.039550 51:0.972067 52:0.857199 53:0.600385 54:1.316366 55:-0.157933 56:0.964548 57:0.169630 58:1.081245 59:0.201743 60:0.641184 61:-1.131497 62:1.158436 63:-0.380184 64:-0.517588 65:-1.311429 66:-2.040581 67:1.069200 68:0.586312 69:-1.295951 70:2.378554
-1 1:0.490109 2:-0.945199 3:1.163525 4:-0.654603 5:-1.240260 6:-2.102584 7:0.163605 8:-0.885634 9:-0.074909 10:-0.098656 11:0.090856 12:0.145713 13:-0.125400 14:0.415518 15:-0.177280 16:0.362779 17:-2.102660 18:-0.437013 19:0.543732 20:-0.255182 21:1.025009 22:0.725233 23:-0.883345 24:0.486684 25:-1.145713 26:-0.462561 27:-0.164093 28:0.998100 29:-0.735741 30:0.464099 31:0.023077 32:-0.652285 33:0.553477 34:0.561949 35:-0.843694 36:-0.893319 37:0.358752 38:0.571866 39:0.681708 40:-1.351421 41:-0.553147 42:0.012973 43:1.950666 44:0.087843 45:0.090889 46:-0.239514 47:-0.608575 48:0.424679 49:1.181276 50:-0.270684 51:0.309633 52:-0.636574 53:-1.069720 54:0.442069 55:0.438128 56:-0.571869 57:0.441391 58:0.386793 59:-2.645828 60:-0.774615 61:0.029424 62:-0.906800 63:-1.426315 64:1.873261 65:0.195348 66:0.596809 67:-0.233959 68:0.808840 69:0.411481 70:0.015331
-1 1:-0.404785 2:1.252910 3:-0.152569 4:-0.168494 5:-0.161033 6:-0.150919 7:0.108444 8:1.221586 9:0.770506 10:-2.009110 11:-0.758454 12:-1.189575 13:-1.117837 14:-1.807382 15:0.184045 16:0.358832 17:0.066936 18:0.736094 19:-1.375349 20:-1.993128 21:1.079103 22:0.560709 23:0.031856 24:0.401837 25:-0.314944 26:-1.941683 27:0.899914 28:-0.635364 29:-0.557316 30:-0.205238 31:0.374925 32:-0.358197 33:-0.223744 34:1.789214 35:-0.145182 36:0.674359 37:-0.722376 38:0.904493 39:0.116189 40:0.214403 41:0.204929 42:-1.041094 43:-0.977550 44:-0.274959 45:-0.513661 46:-0.414032 47:1.274361 48:-2.255800 49:-0.787237 50:0.359330 51:0.920864 52:1.689772 53:0.610936 54:-0.046080 55:-0.008013 56:-1.146515 57:-0.569600 58:0.202452 59:-0.267740 60:-0.618360 61:-0.983890 62:0.274926 63:-0.673561 64:-0.727229 65:0.613009 66:-1.698187 67:1.345220 68:-0.267751 69:0.057924 70:-0.814112
-1 1:-0.119273 2:-0.355023 3:1.677439 4:-0.588051 5:-0.413292 6:1.758109 7:-0.299745 8:0.338707 9:1.386859 10:-0.770064 11:-1.788847 12:1.430605 13:-1.199721 14:0.086957 15:-0.330815 16:-0.724549 17:-0.654692 18:0.450024 19:-0.441269 20:1.066359 21:0.132396 22:-1.646799 23:0.864577 24:-1.025325 25:0.186258 26:2.014710 27:-0.314654 28:-0.112560 29:-1.430264 30:0.400839 31:-0.708876 32:-0.460979 33:-1.242975 34:0.215700 35:0.330960 36:0.722074 37:-0.122917 38:1.471730 39:0.369834 40:-0.492517 41:-0.490043 42:0.369045 43:0.988263 44:0.161615 45:-1.065869 46:1.017302 47:0.344495 48:-0.050377 49:1.261907 50:1.189089 51:1.283514 52:0.589895 53:-0.733113 54:1.956023 55:0.303415 56:0.818843 57:-0.613359 58:-0.981128 59:0.752010 60:1.321717 61:-1.256132 62:-0.147862 63:0.186479 64:-0.998515 65:-0.209509 66:-0.745046 67:0.851742 68:-1.476406 69:-0.842483 70:-0.409784
-1 1:0.036894 2:-0.808731 3:0.051195 4:-1.615218 5:0.931058 6:-1.285388 7:1.700703 8:-0.586631 9:-2.272861 10:0.458883 11:-0.221663 12:-2.215951 13:2.213289 14:-0.325478 15:0.007544 16:1.065431 17:1.020404 18:0.105007 19:-1.559335 20:-1.197233 21:0.627092 22:-0.347545 23:-0.309825 24:-0.028252 25:-0.628971 26:-0.085676 27:1.419003 28:0.487661 29:0.244499 30:2.342132 31:-0.790280 32:-0.985499 33:-0.831602 34:1.116170 35:1.460853 36:-1.730583 37:-0.657580 38:0.044912 39:1.572249 40:-1.326732 41:-1.374531 42:0.693221 43:-0.010815 44:-1.812234 45:-0.617194 46:-0.845338 47:1.135844 48:-0.099134 49:-0.591672 50:-1.511328 51:-0.978615 52:2.979876 53:0.879761 54:0.474028 55:1.823714 56:1.167009 57:-1.208335 58:-0.821611 59:0.894678 60:1.238255 61:2.684827 62:-0.070598 63:0.366770 64:0.648329 65:0.297321 66:1.807349 67:-0.420253 68:-0.451125 69:1.030881 70:1.729452
-1 1:1.624654 2:-1.082922 3:1.655860 4:-0.381514 5:0.873844 6:0.092496 7:0.389709 8:0.654209 9:-1.330091 10:0.499961 11:0.840839 12:0.953613 13:0.402069 14:-1.323112 15:-0.261972 16:-0.061938 17:0.544994 18:-0.419624 19:-0.158606 20:-0.422365 21:0.156545 22:-0.238692 23:-0.789710 24:-2.449656 25:-1.102456 26:1.688821 27:-1.185185 28:-0.873199 29:1.582875 30:-1.213800 31:1.006573 32:0.026688 33:-1.288671 34:-1.720482 35:-1.494770 36:0.178972 37:0.344047 38:-0.922609 39:0.917230 40:0.712583 41:-0.224933 42:-0.520659 43:-0.166160 44:0.382834 45:-0.600483 46:-0.513624 47:1.198949 48:0.685597 49:-0.187694 50:-0.013147 51:-0.192635 52:-0.676672 53:0.174650 54:-2.477584 55:0.144084 56:-0.073819 57:-2.346228 58:-1.235301 59:-0.803978 60:1.651623 61:-2.307403 62:1.048116 63:0.228770 64:-0.181462 65:-0.562135 66:2.026974 67:-4.211923 68:-0.162418 69:-0.125718 70:0.542022
-1 1:-0.678406 2:1.252404 3:-2.016580 4:1.824865 5:2.406229 6:-1.690667 7:-0.288198 8:0.576439 9:-2.661277 10:1.051898 11:-0.576540 12:-1.283343 13:0.110428 14:-0.067388 15:0.197017 16:1.238807 17:-1.797482 18:-0.064502 19:1.187138 20:0.646110 21:0.196920 22:0.711146 23:0.372039 24:-0.181625 25:0.174757 26:0.968717 27:-0.330305 28:0.508808 29:-2.364982 30:0.812403 31:-0.988352 32:-0.995604 33:1.271838 34:-0.583799 35:-0.080370 36:-1.847025 37:1.053123 38:-0.307216 39:0.414042 40:-0.453883 41:-0.310349 42:-0.778934 43:-0.003133 44:-1.291561 45:0.760174 46:1.696113 47:1.636594 48:-0.602817 49:2.232526 50:-0.176973 51:-0.737579 52:0.001204 53:1.091140 54:-0.332342 55:0.731621 56:-0.638872 57:-1.269289 58:0.501910 59:0.596743 60:-0.354931 61:-1.143402 62:-0.983768 63:1.005603 64:0.700885 65:0.303656 66:-0.128352 67:0.703456 68:-1.091247 69:0.992918 70:0.080111
-1 1:-0.075933 2:-0.065294 3:-0.275990 4:0.781636 5:0.406083 6:0.249867 7:-1.988582 8:-0.416434 9:-1.169977 10:-1.285330 11:-0.418617 12:-0.063664 13:1.125088 14:0.259685 15:0.440916 16:0.099888 17:1.380544 18:1.460860 19:0.634221 20:0.117341 21:-1.915476 22:-0.602053 23:-0.410157 24:-0.152006 25:1.739365 26:-1.489323 27:-0.310194 28:-0.037899 29:-0.298001 30:-0.061964 31:0.643870 32:0.437256 33:-0.389773 34:0.056918 35:-0.346026 36:0.317246 37:1.098362 38:-2.085882 39:0.417914 40:0.086983 41:0.794229 42:-0.693460 43:2.351597 44:-0.964824 45:1.687509 46:-0.598671 47:-1.453749 48:2.194330 49:-0.934523 50:1.760010 51:-0.478016 52:0.396842 53:1.741841 54:0.300511 55:-0.473418 56:0.963167 57:0.426530 58:-0.351777 59:-0.464784 60:-0.109075 61:0.555182 62:2.024229 63:0.385121 64:0.760534 65:0.667382 66:-0.398227 67:-1.035620 68:1.823787 69:0.679026 70:1.955484
-1 1:0.839416 2:-1.583299 3:0.042279 4:2.557953 5:1.306170 6:0.951174 7:0.538623 8:-1.420251 9:-1.522446 10:-0.626156 11:0.817093 12:-0.091430 13:0.907497 14:-0.767645 15:0.197183 16:-0.447673 17:0.025201 18:-0.198428 19:0.011827 20:0.618605 21:-0.538471 22:-0.391884 23:-0.339471 24:-2.062540 25:-0.412678 26:0.605523 27:-0.581361 28:-0.877830 29:-0.691191 30:0.187674 31:-1.043539 32:-1.070885 33:1.711845 34:-1.451204 35:1.702555 36:-1.569145 37:-1.095919 38:-1.040095 39:-1.376262 40:-2.199064 41:-0.882499 42:0.790094 43:0.426053 44:-2.116275 45:-0.470250 46:-1.022989 47:0.275934 48:-1.536269 49:-0.319939 50:-0.926361 51:0.170221 52:0.097534 53:-1.521696 54:-0.474922 55:0.089108 56:-0.280735 57:-0.505830 58:0.579622 59:0.181841 60:0.750477 61:-0.328401 62:-0.269497 63:0.608892 64:0.581993 65:0.955016 66:1.808142 67:-0.280886 68:0.611319 69:0.974974 70:0.916250
-1 1:1.181130 2:0.331499 3:-1.332488 4:-1.264964 5:-0.073599 6:-0.859155 7:1.679435 8:-0.516205 9:1.045173 10:-0.368268 11:0.843456 12:0.357090 13:-1.599848 14:0.431768 15:0.458428 16:-0.614674 17:-0.681019 18:-1.890277 19:-0.162362 20:0.464290 21:-0.089626 22:0.666366 23:1.059980 24:1.164722 25:-0.602146 26:1.311151 27:-0.674073 28:0.571674 29:1.901160 30:-0.056615 31:0.936917 32:-0.546659 33:0.354185 34:-0.568129 35:-0.995073 36:0.247845 37:0.103627 38:1.087210 39:-1.256697 40:-1.616925 41:0.272949 42:-1.177840 43:1.196271 44:0.809967 45:0.341054 46:-1.062137 47:-0.373760 48:1.159637 49:0.188204 50:0.134360 51:0.551857 52:0.794813 53:1.864642 54:1.084431 55:-1.513806 56:-1.496199 57:0.074536 58:-0.699259 59:1.205069 60:-0.997648 61:-1.525011 62:0.062324 63:-0.359940 64:-0.263772 65:0.382548 66:0.400348 67:-0.526802 68:-1.043102 69:0.765169 70:0.772995
-1 1:0.754718 2:-0.635310 3:-0.002930 4:-0.090468 5:0.150274 6:-0.379132 7:-1.290844 8:-0.220873 9:0.579711 10:0.575004 11:2.189869 12:-0.905657 13:-1.120846 14:-0.125245 15:-2.435047 16:1.147292 17:-0.624880 18:-1.076115 19:-0.065775 20:0.272929 21:-1.076293 22:0.309003 23:-0.393591 24:0.464602 25:0.429359 26:-0.906982 27:1.673977 28:-0.491935 29:0.805244 30:0.796005 31:-0.818583 32:-0.800189 33:-0.907178 34:-0.147349 35:0.251411 36:-0.952223 37:-0.665766 38:1.137702 39:-0.754408 40:-0.923026 41:-0.139433 42:-0.632791 43:-0.588966 44:0.608805 45:0.349825 46:-0.202618 47:-0.922754 48:0.478810 49:-0.618883 50:-1.398271 51:-1.552739 52:-0.967254 53:-1.191567 54:-0.315411 55:-0.725815 56:0.257670 57:0.478354 58:-0.432196 59:0.523108 60:-1.214225 61:-0.294561 62:0.020057 63:1.612482 64:1.553861 65:0.067790 66:-1.291048 67:1.423492 68:0.123925 69:-0.429250 70:-0.299174
-1 1:1.415653 2:-0.989936 3:0.812941 4:-1.869440 5:1.128125 6:0.278159 7:1.177503 8:-0.136877 9:-0.523048 10:-1.324924 11:-1.429512 12:0.609072 13:1.746886 14:1.055478 15:0.934797 16:0.035184 17:-1.356906 18:-1.208964 19:-0.594568 20:2.059367 21:0.459461 22:-0.841016 23:0.103817 24:-1.462308 25:0.844015 26:0.869063 27:1.017699 28:0.367364 29:0.619706 30:-1.379957 31:-1.500923 32:0.203177 33:-0.452776 34:0.682252 35:0.871995 36:1.188761 37:-0.433728 38:1.215319 39:-0.738146 40:0.416334 41:-0.096500 42:0.162215 43:1.170682 44:-1.205213 45:-0.527838 46:1.345514 47:0.050763 48:0.498119 49:0.220958 50:-0.952291 51:-2.720122 52:-0.704199 53:-0.102012 54:0.185338 55:0.698806 56:-1.425730 57:0.130697 58:-1.005769 59:1.212962 60:1.256485 61:0.153938 62:1.359680 63:1.052024 64:-0.429463 65:0.395973 66:1.832964 67:-0.529290 68:-0.047554 69:1.380088 70:-0.057326
-1 1:2.065704 2:1.500862 3:1.036297 4:1.865504 5:-1.574502 6:-1.660886 7:-0.451379 8:0.705227 9:-0.998780 10:-1.944338 11:0.260583 12:0.784334 13:0.520938 14:0.286845 15:-0.561511 16:0.952454 17:0.158110 18:-0.952941 19:0.546107 20:-0.453261 21:-0.485867 22:0.023720 23:0.480754 24:-0.896810 25:0.365659 26:0.059973 27:0.207657 28:0.122635 29:-0.445281 30:-1.029025 31:1.325557 32:0.465589 33:-0.030553 34:0.533471 35:0.712102 36:-0.672680 37:-0.101461 38:-0.312884 39:0.804596 40:1.420769 41:0.005660 42:0.213348 43:-1.281359 44:0.089351 45:-0.614048 46:-0.611460 47:-0.175906 48:-0.182328 49:-0.140457 50:-2.209287 51:-0.143631 52:0.264403 53:-0.466186 54:1.376091 55:0.162009 56:-0.866165 57:-1.380089 58:0.802667 59:-1.359364 60:-1.561677 61:1.076599 62:0.574992 63:0.369115 64:1.366705 65:-1.214423 66:0.544471 67:1.180511 68:0.537662 69:-1.249797 70:-1.523265
-1 1:1.257678 2:0.434480 3:-2.229876 4:-0.397921 5:-2.250761 6:0.595909 7:-1.209080 8:-1.114718 9:-1.184005 10:1.113963 11:-0.183328 12:0.849090 13:0.981847 14:-1.135754 15:1.032214 16:-1.455111 17:-1.789854 18:1.013079 19:0.827021 20:1.866072 21:1.343266 22:-0.055314 23:-1.045600 24:-0.965701 25:0.836906 26:1.886984 27:-0.473029 28:1.993623 29:0.419782 30:0.481534 31:-0.837427 32:-0.256023 33:0.642154 34:1.833894 35:-0.853863 36:0.687466 37:-0.235749 38:0.073638 39:-2.980524 40:0.161193 41:-0.514571 42:0.727670 43:1.029927 44:-2.232946 45:-1.727874 46:-1.582749 47:-0.580301 48:-0.608700 49:0.845162 50:1.011409 51:0.748397 52:1.646028 53:-0.667842 54:1.506900 55:0.621831 56:-1.614582 57:-0.221947 58:-1.508306 59:-1.677680 60:-1.921424 61:-1.159282 62:-0.199364 63:-1.433652 64:-0.627277 65:2.430779 66:0.000835 67:-1.005337 68:-0.550809 69:0.365632 70:-0.186663
-1 1:0.074354 2:0.373186 3:-0.606778 4:-0.873187 5:2.103077 6:1.259517 7:0.228447 8:1.228655 9:1.392431 10:-1.549602 11:-0.009589 12:-0.376945 13:0.208580 14:1.543808 15:0.053136 16:-0.995862 17:-0.130855 18:-0.782405 19:-1.146177 20:0.235804 21:1.169795 22:0.982511 23:0.031037 24:0.342537 25:0.785656 26:-0.667173 27:-0.618926 28:0.384343 29:1.085530 30:0.510761 31:-1.052429 32:-0.749191 33:-0.957333 34:1.307140 35:0.224858 36:0.055383 37:-0.051653 38:-0.615730 39:0.559534 40:-1.059412 41:0.708955 42:1.655740 43:-1.219049 44:0.742402 45:-1.607192 46:1.837560 47:1.916169 48:-0.482507 49:-0.450807 50:-1.069883 51:-2.449678 52:1.168399 53:-0.594136 54:0.941513 55:0.569625 56:-0.693696 57:-0.320690 58:-0.175825 59:-0.506153 60:0.117375 61:0.688535 62:-1.137929 63:-0.944643 64:0.625810 65:2.048766 66:0.806762 67:-0.195349 68:-1.369762 69:-0.613697 70:-0.059064
-1 1:-1.054558 2:0.664968 3:0.832773 4:0.424509 5:0.461336 6:-1.084780 7:0.348453 8:-1.225096 9:-0.685102 10:-0.196364 11:0.630971 12:0.137331 13:0.795432 14:0.853790 15:0.003935 16:-0.146658 17:0.077239 18:1.947981 19:2.136942 20:-1.143997 21:1.325408 22:1.269126 23:0.016624 24:-2.558381 25:-2.581239 26:-0.001450 27:0.020048 28:-0.379136 29:-1.455720 30:0.624242 31:0.861339 32:-0.386337 33:2.338357 34:1.477271 35:0.474719 36:0.438873 37:0.002369 38:-0.978807 39:-0.826108 40:1.046259 41:0.153890 42:-1.167930 43:0.960466 44:0.468556 45:0.157306 46:-1.424656 47:-0.484646 48:-0.609068 49:-1.208162 50:-1.085965 51:-0.682411 52:-1.379849 53:-0.547338 54:-0.782586 55:-0.306551 56:-1.155405 57:0.688671 58:0.293777 59:-0.492379 60:-0.145182 61:1.744163 62:-1.502010 63:1.344862 64:0.389934 65:-0.908839 66:0.187157 67:1.027514 68:-0.063525 69:1.328771 70:0.155735
-1 1:-0.299671 2:0.150087 3:0.611073 4:0.013209 5:-0.317842 6:-0.822783 7:-1.788249 8:-0.423468 9:-0.992711 10:-0.270570 11:0.294593 12:-0.099662 13:-1.090713 14:1.235543 15:1.571782 16:0.217195 17:-0.005919 18:2.280114 19:-0.559946 20:0.127390 21:1.218254 22:0.526857 23:0.247464 24:0.441364 25:1.609167 26:-1.565617 27:0.159470 28:-0.299330 29:-0.736313 30:-0.198532 31:1.865148 32:0.852079 33:-1.543950 34:-3.835952 35:-0.507684 36:-1.552682 37:-1.251419 38:-0.763254 39:-1.931264 40:0.733435 41:-0.844919 42:0.460108 43:-0.140401 44:-1.207469 45:-0.359992 46:-1.055294 47:-0.280647 48:-1.811047 49:-0.893327 50:-0.508097 51:0.229353 52:0.348058 53:-0.682342 54:-0.733269 55:0.982346 56:0.940445 57:-1.410393 58:2.499053 59:0.275874 60:1.589094 61:-0.205672 62:0.587432 63:0.714041 64:0.632133 65:-0.669073 66:-2.074763 67:-0.396379 68:1.431958 69:1.444916 70:-1.090330
-1 1:-0.345660 2:1.386737 3:1.272263 4:1.984581 5:0.491903 6:-0.724753 7:-0.745478 8:0.920087 9:0.278364 10:-0.059559 11:0.111173 12:-0.129426 13:-1.391566 14:-3.005014 15:-0.520157 16:-0.127357 17:0.959351 18:-0.718776 19:0.604892 20:0.599010 21:-0.652911 22:0.893688 23:0.159508 24:-0.884714 25:-1.344377 26:0.087663 27:-0.626903 28:0.460905 29:-2.165817 30:-1.539305 31:-0.747468 32:1.842131 33:1.106662 34:0.592023 35:0.292343 36:-0.049279 37:-0.540921 38:-0.443100 39:0.305129 40:0.365753 41:-2.695389 42:-0.771192 43:0.111162 44:0.626661 45:-0.199940 46:-0.479233 47:0.326072 48:1.004252 49:-1.493044 50:-0.577173 51:-1.036663 52:0.118507 53:-1.089310 54:0.329240 55:0.702455 56:1.118147 57:0.773508 58:0.636092 59:-0.516354 60:-0.291620 61:-0.623220 62:1.881198 63:0.567837 64:-0.056890 65:-0.377551 66:-1.626054 67:-1.415730 68:-0.083738 69:0.411189 70:-0.124576
-1 1:0.190980 2:1.839541 3:1.615070 4:-1.202976 5:1.457236 6:0.740164 7:-0.943914 8:-2.888627 9:-0.371718 10:0.345919 11:-0.645322 12:0.795840 13:-0.237275 14:1.251709 15:0.768435 16:1.427780 17:0.114474 18:0.712299 19:-0.213598 20:-0.804082 21:0.964228 22:-0.634591 23:1.054537 24:0.381878 25:0.865710 26:0.327401 27:0.214689 28:-0.061702 29:0.827096 30:-0.031250 31:0.331512 32:-0.422653 33:0.465788 34:0.356685 35:1.196276 36:-0.388170 37:0.433251 38:2.499497 39:0.829325 40:1.079526 41:-0.613627 42:1.243239 43:0.762704 44:-0.066296 45:0.565942 46:-0.640418 47:1.117429 48:-0.418342 49:0.622465 50:-0.281102 51:0.047956 52:-0.394968 53:0.039169 54:-0.777799 55:0.362967 56:-0.924398 57:0.571107 58:-0.389451 59:0.138934 60:1.270872 61:-0.703851 62:-0.482839 63:-1.038449 64:0.402022 65:0.840476 66:-3.000798 67:0.490309 68:-0.304094 69:-0.567197 70:-0.974023
-1 1:0.935929 2:1.374088 3:1.650514 4:-0.054689 5:-0.651796 6:1.034167 7:-0.405099 8:-0.956581 9:-0.050590 10:-1.080640 11:-1.009115 12:-0.145987 13:-1.814236 14:1.084979 15:-0.652820 16:-0.635435 17:0.259535 18:1.373593 19:-0.785271 20:0.077956 21:-0.187732 22:-0.689494 23:1.749141 24:-1.339020 25:0.962394 26:-0.988119 27:0.201702 28:-0.756574 29:-0.062996 30:0.247905 31:1.160292 32:-0.495641 33:0.623654 34:-0.631760 35:1.248244 36:-0.838818 37:0.377121 38:-0.646013 39:-0.317363 40:0.152881 41:0.234085 42:-0.094737 43:-0.186052 44:0.062135 45:0.010976 46:-1.642069 47:-0.455516 48:0.007483 49:1.829403 50:1.260822 51:0.523079 52:1.739617 53:0.426077 54:0.442983 55:-1.850532 56:-0.776586 57:0.036241 58:1.099631 59:-0.881833 60:0.643724 61:0.520326 62:-0.902384 63:-0.244208 64:2.167227 65:0.559697 66:-0.318688 67:0.575911 68:0.325211 69:-1.220350 70:0.525897
-1 1:0.759171 2:0.587140 3:-1.865130 4:-1.136194 5:2.227888 6:0.674990 7:0.551729 8:2.184424 9:1.118492 10:-1.140439 11:0.267681 12:-0.248094 13:-0.270270 14:-1.879428 15:-2.043960 16:1.050563 17:1.972967 18:-0.410028 19:0.700315 20:1.366766 21:0.013508 22:0.917658 23:0.125099 24:2.241492 25:0.247031 26:-0.416938 27:0.892505 28:0.772850 29:0.703231 30:-0.382888 31:0.947259 32:-0.906688 33:-1.548628 34:-0.538376 35:0.383611 36:-0.533471 37:-1.592674 38:-0.558046 39:0.466360 40:0.333424 41:1.941124 42:-0.415520 43:-0.221624 44:-2.447609 45:1.375195 46:0.879685 47:-1.532788 48:-0.464221 49:0.148533 50:-1.415119 51:-0.749848 52:-0.452889 53:0.267178 54:1.268999 55:1.381649 56:-1.077346 57:-0.691593 58:0.323679 59:0.261608 60:0.770325 61:-0.416888 62:-0.624429 63:0.004716 64:-0.681167 65:-0.385209 66:1.082180 67:0.398702 68:0.107669 69:-0.021559 70:1.847251
-1 1:-0.202557 2:0.026738 3:0.723540 4:-1.319867 5:0.501468 6:-1.146603 7:0.191414 8:-1.410795 9:-0.540284 10:0.288510 11:2.356931 12:-0.407691 13:-1.101794 14:0.016297 15:-0.195242 16:-1.183585 17:1.480060 18:1.476872 19:0.174426 20:0.231582 21:0.570389 22:1.319088 23:2.293127 24:-1.140450 25:1.343177 26:-0.846240 27:-0.049380 28:-0.016900 29:0.622886 30:-0.183695 31:0.966952 32:0.532379 33:-0.356313 34:-0.720129 35:-0.090728 36:-1.286642 37:-0.900003 38:-0.041441 39:1.549285 40:2.007439 41:1.478967 42:-0.626622 43:-0.430702 44:-1.811351 45:-0.330266 46:-0.950913 47:-0.401283 48:0.726657 49:1.032526 50:0.562504 51:-0.988513 52:1.068184 53:0.137660 54:-1.895919 55:-1.230400 56:-0.727456 57:0.017666 58:-1.107822 59:-0.224232 60:0.327154 61:0.486115 62:-0.349450 63:-0.188006 64:0.881410 65:-0.694790 66:-1.224819 67:0.621634 68:-0.033006 69:0.283790 70:-0.310737
-1 1:0.266126 2:-0.840766 3:0.351905 4:-0.162064 5:1.193801 6:-1.660558 7:0.478903 8:0.040642 9:-0.837478 10:0.648481 11:1.574461 12:0.520991 13:-0.816562 14:0.709522 15:0.247644 16:-0.731632 17:-0.680550 18:-0.381093 19:-0.239180 20:0.883552 21:-0.304270 22:1.904927 23:0.844485 24:-0.381510 25:1.184184 26:1.438273 27:-1.266436 28:2.174924 29:-0.183650 30:1.800670 31:-0.305085 32:0.038091 33:0.116968 34:-1.040920 35:-0.102163 36:0.314867 37:-0.853317 38:-0.694453 39:-1.374759 40:0.627221 41:0.700235 42:2.011753 43:1.492862 44:-0.847521 45:-1.056974 46:-2.298717 47:-0.610562 48:-1.342550 49:-0.674496 50:-0.507119 51:-1.888975 52:-0.630834 53:-1.222758 54:-0.458352 55:0.968215 56:1.326778 57:1.255707 58:1.450851 59:1.702158 60:-0.911206 61:-0.366284 62:0.902929 63:0.832210 64:-1.314778 65:-1.348969 66:2.122226 67:1.421027 68:1.656772 69:0.655706 70:1.577844
-1 1:0.719677 2:-0.579771 3:2.076707 4:1.362095 5:-1.454681 6:0.330878 7:0.736277 8:-0.623870 9:0.174234 10:-0.324427 11:-0.928682 12:-0.330751 13:-0.286955 14:0.773934 15:0.232575 16:0.952766 17:-1.902613 18:0.262621 19:0.517353 20:0.806114 21:-0.438675 22:2.280233 23:1.087910 24:1.803022 25:2.613111 26:0.015619 27:0.199510 28:1.460673 29:-0.528211 30:-1.913841 31:0.418256 32:-0.115084 33:-0.664392 34:0.381665 35:-1.112610 36:-1.183196 37:0.580457 38:-1.617956 39:-0.828786 40:-0.388163 41:-0.879593 42:0.968823 43:0.171587 44:0.379780 45:-0.590496 46:-0.901369 47:1.804355 48:0.064586 49:0.651106 50:-0.923333 51:-1.133118 52:1.024055 53:0.363944 54:-0.189257 55:1.806672 56:2.148854 57:-0.298950 58:-1.310848 59:-0.819894 60:-1.955568 61:1.093268 62:-0.554955 63:-0.230761 64:-1.134697 65:-2.178236 66:0.007013 67:-0.865180 68:1.642233 69:-1.226245 70:1.283835
-1 1:-1.015315 2:-0.452510 3:-0.291599 4:-1.717206 5:-0.883295 6:-1.394377 7:-1.550678 8:-0.929472 9:-0.966244 10:0.311332 11:-0.266305 12:-1.201930 13:1.149781 14:0.296045 15:-0.222277 16:-1.967139 17:0.599441 18:-1.464678 19:0.062205 20:0.046030 21:-0.395834 22:0.731689 23:-0.286717 24:-0.553788 25:-1.765503 26:0.697422 27:-0.433655 28:0.111139 29:0.172558 30:-0.821977 31:1.236369 32:-0.952621 33:-0.149673 34:-0.434882 35:0.205851 36:0.695206 37:-0.144752 38:0.317236 39:-0.636392 40:1.202349 41:0.607234 42:0.495686 43:0.513887 44:-0.616069 45:0.951007 46:1.529274 47:0.736345 48:-0.587674 49:-1.440698 50:2.749102 51:-0.022910 52:-0.687766 53:-0.066567 54:0.877464 55:-0.773715 56:-0.646759 57:-0.889140 58:0.605040 59:0.398261 60:2.450074 61:0.059949 62:-1.304223 63:-0.290608 64:0.440567 65:-0.818194 66:0.806111 67:-0.462938 68:2.402461 69:0.009298 70:-1.260070
-1 1:1.580567 2:0.823686 3:-1.118363 4:1.904627 5:-1.580059 6:-1.259491 7:-0.263377 8:-1.301237 9:1.122932 10:-1.431874 11:1.495014 12:-0.054009 13:-0.937293 14:0.077227 15:-2.451489 16:-0.308956 17:3.242864 18:-0.494481 19:-1.606434 20:0.029167 21:0.679648 22:-0.672741 23:1.267568 24:-0.714302 25:-0.413210 26:-0.621918 27:1.000576 28:1.308934 29:0.077990 30:0.072608 31:0.793444 32:-2.143287 33:-0.061243 34:-0.581054 35:-1.202122 36:0.442790 37:1.136545 38:0.688427 39:-0.417087 40:-0.454625 41:-0.350709 42:-0.410695 43:-0.468083 44:1.856509 45:0.457277 46:0.676394 47:-2.257591 48:-0.206471 49:-0.098747 50:0.550914 51:0.260161 52:-0.655692 53:-0.524865 54:1.035911 55:0.008450 56:-0.218138 57:-0.732640 58:0.299353 59:-0.430970 60:-2.615611 61:-0.215645 62:0.348607 63:0.109411 64:1.274434 65:0.686212 66:-1.080511 67:0.322845 68:0.857640 69:1.206996 70:2.394483
-1 1:1.789598 2:-1.418785 3:-2.550621 4:0.798693 5:0.439393 6:-0.769170 7:-0.162603 8:0.132958 9:0.869465 10:0.830116 11:-0.795374 12:-0.107633 13:-0.687879 14:-0.045413 15:0.479753 16:-1.433720 17:-0.316725 18:-0.079620 19:0.289828 20:0.649122 21:-0.908784 22:-1.178788 23:-0.600712 24:0.899709 25:-0.163946 26:0.287959 27:0.652106 28:-0.134109 29:0.368329 30:0.553690 31:0.607082 32:-0.466855 33:-1.102985 34:0.506468 35:2.038470 36:-1.103391 37:0.203101 38:0.485511 39:-0.449411 40:-1.418914 41:0.897498 42:-1.534026 43:-0.385670 44:-0.350923 45:-1.886395 46:-0.858866 47:-0.856070 48:0.788121 49:0.398365 50:0.536131 51:1.734774 52:-1.019343 53:0.845165 54:1.268545 55:1.444650 56:0.695856 57:-0.049522 58:0.692440 59:-0.030451 60:0.492259 61:-0.352073 62:0.510917 63:-1.326152 64:-0.609584 65:-1.207708 66:0.440237 67:1.218847 68:-0.594309 69:1.631284 70:-0.814562
-1 1:0.910968 2:0.345679 3:0.906894 4:0.584775 5:0.480934 6:-0.460680 7:-1.600378 8:0.949738 9:-0.666817 10:0.874190 11:-0.368537 12:-0.982310 13:0.137501 14:0.467388 15:-1.446543 16:-0.552104 17:-0.126667 18:0.574149 19:-0.292376 20:0.487745 21:0.048130 22:1.074459 23:0.432415 24:0.548258 25:2.062840 26:-0.825372 27:0.098431 28:0.069310 29:0.000932 30:-0.559584 31:1.045888 32:0.214149 33:-0.852058 34:0.018678 35:-0.001711 36:0.133134 37:0.716038 38:1.511707 39:0.088059 40:-0.680068 41:1.386479 42:1.058302 43:-0.355934 44:-1.236815 45:-1.187250 46:-0.809200 47:-0.441895 48:-1.325844 49:-0.911245 50:0.877375 51:0.579810 52:-0.522919 53:0.335340 54:1.547584 55:1.253192 56:0.225845 57:0.275666 58:0.650690 59:-0.562506 60:-0.257577 61:0.058638 62:-0.212698 63:0.848844 64:0.772713 65:-2.135058 66:0.633652 67:0.033457 68:-0.766227 69:-0.001323 70:1.354187
-1 1:1.698413 2:1.230914 3:0.850661 4:0.504339 5:-0.129433 6:0.172214 7:0.844961 8:1.214416 9:0.266026 10:0.455348 11:1.709689 12:1.649017 13:0.535927 14:0.232713 15:0.663682 16:0.973955 17:-0.168884 18:-1.253441 19:1.827801 20:-0.823885 21:0.531469 22:-0.127435 23:-0.581552 24:-1.598094 25:0.729851 26:0.167601 27:0.832034 28:2.992010 29:0.539890 30:-1.707014 31:0.840405 32:-0.140993 33:-0.263258 34:-2.370302 35:-0.064039 36:2.015409 37:0.308911 38:-0.281802 39:1.506660 40:-3.335553 41:-0.241703 42:-0.495224 43:-0.479129 44:0.351105 45:-0.191440 46:-1.294377 47:0.965069 48:-2.124628 49:-1.484271 50:1.527969 51:0.433225 52:-1.239731 53:0.923619 54:-0.897146 55:-0.235929 56:0.408600 57:-0.353646 58:0.541942 59:-1.546673 60:-2.515629 61:-0.038237 62:-1.342482 63:0.859813 64:-1.313275 65:-0.995361 66:1.242567 67:1.762944 68:-1.021312 69:0.933246 70:-1.380943
-1 1:1.201159 2:-0.433093 3:-0.504352 4:-0.384243 5:2.822454 6:-1.002539 7:0.888598 8:0.062267 9:-0.058219 10:1.802730 11:0.428961 12:-0.017443 13:0.060234 14:-0.002582 15:-0.763104 16:-0.506456 17:-0.741549 18:1.716958 19:0.426000 20:-0.397214 21:-1.077411 22:1.068504 23:-1.209258 24:-0.635515 25:-0.394386 26:-0.991321 27:-1.459999 28:0.464656 29:-0.904585 30:1.509989 31:1.100074 32:-0.037311 33:-1.560824 34:-0.627075 35:-0.317374 36:1.835962 37:0.867353 38:-0.028327 39:-1.608574 40:-0.909469 41:-0.497402 42:0.430626 43:0.412514 44:-0.108248 45:0.387248 46:1.027272 47:0.879148 48:-0.114185 49:0.803646 50:0.164381 51:-1.618244 52:0.138478 53:-0.353722 54:2.118779 55:-1.363158 56:1.366545 57:0.599173 58:-0.473508 59:-0.308162 60:1.460062 61:-1.590935 62:0.033029 63:0.365332 64:-1.072224 65:0.149127 66:-1.611374 67:0.881624 68:-1.649074 69:3.206395 70:-0.244235
-1 1:-0.804913 2:-0.207511 3:-1.601999 4:-0.001629 5:-0.041018 6:0.333668 7:-1.260911 8:-1.595225 9:1.849420 10:-1.006216 11:0.653269 12:1.654402 13:0.024005 14:-0.189936 15:0.516438 16:1.098129 17:0.344255 18:1.087643 19:-0.336723 20:-0.228449 21:-0.049748 22:0.209811 23:1.499366 24:0.116105 25:-1.277177 26:2.282585 27:0.744402 28:-0.295880 29:0.105710 30:1.595004 31:0.834984 32:-0.929078 33:0.212055 34:-0.494212 35:-1.349673 36:-0.879737 37:-0.477037 38:1.434084 39:-0.024536 40:-1.642653 41:0.965121 42:-0.488396 43:1.727343 44:-1.599031 45:2.163643 46:0.288527 47:0.860999 48:-0.711159 49:0.261245 50:1.355144 51:1.256435 52:-0.566317 53:0.456404 54:0.374747 55:0.889421 56:-1.736616 57:1.274394 58:-0.063857 59:0.417119 60:-0.612127 61:0.148259 62:0.291409 63:-0.317414 64:1.538549 65:0.202638 66:-0.297261 67:0.273591 68:1.104725 69:0.575555 70:1.443284
-1 1:-1.034175 2:-0.309450 3:-0.109022 4:1.001118 5:1.018517 6:-0.726915 7:-0.218756 8:1.824074 9:0.532411 10:0.902949 11:-0.183875 12:-0.487995 13:0.309820 14:0.383726 15:0.403715 16:-0.511626 17:0.357740 18:0.803003 19:-0.696287 20:-1.156302 21:0.578627 22:-0.562986 23:0.832012 24:-0.162735 25:-1.319484 26:1.589831 27:-0.034279 28:1.091933 29:-1.020411 30:1.177673 31:-0.309786 32:0.734872 33:0.110037 34:1.183913 35:-1.848550 36:0.195806 37:0.399432 38:-1.542576 39:-0.668627 40:-0.535496 41:-1.507444 42:0.380765 43:-0.427721 44:1.690458 45:0.670335 46:0.630216 47:-0.461013 48:-0.727219 49:-0.106991 50:-0.991796 51:-1.277899 52:-0.777166 53:1.168401 54:0.128789 55:-1.144252 56:-1.243688 57:-0.802176 58:0.137458 59:-0.763902 60:1.867124 61:1.583963 62:1.222212 63:0.994821 64:0.443203 65:-0.056640 66:-0.421305 67:-0.072912 68:-2.018733 69:1.685680 70:0.358073
-1 1:-0.161359 2:0.281237 3:0.865729 4:0.652007 5:0.912144 6:0.222840 7:0.163059 8:-1.153153 9:0.989684 10:0.246059 11:-0.126943 12:-1.922717 13:-1.738319 14:0.445036 15:1.232961 16:-1.863798 17:-0.800478 18:-0.627598 19:-1.183407 20:-1.242905 21:0.414123 22:-0.479287 23:-1.288151 24:0.566826 25:-0.084434 26:-1.065139 27:0.470557 28:1.746348 29:-0.074809 30:-0.642007 31:1.118602 32:0.225099 33:-0.106229 34:-0.008383 35:-0.608699 36:0.073424 37:0.752833 38:-0.617598 39:-0.793302 40:2.532635 41:-1.001983 42:-1.335693 43:-1.587702 44:-0.585407 45:-0.895011 46:0.417179 47:-1.183321 48:-2.237507 49:-0.749756 50:-1.545922 51:-0.321027 52:-1.262408 53:0.694533 54:1.006799 55:2.953420 56:0.470830 57:-0.534421 58:-2.102808 59:-0.519461 60:-0.755710 61:0.345506 62:-1.423562 63:-1.741407 64:1.100098 65:-0.179061 66:-0.791075 67:-1.064903 68:-0.475765 69:1.346033 70:-0.945417
-1 1:-2.386467 2:0.559634 3:-0.796919 4:0.873272 5:-0.102894 6:-0.260478 7:0.535736 8:0.110172 9:0.231651 10:0.504276 11:0.032489 12:-1.096011 13:2.065610 14:1.021695 15:0.582404 16:0.282935 17:0.070866 18:0.375589 19:0.298011 20:1.403405 21:0.218664 22:0.131157 23:-0.748538 24:-0.147236 25:-1.680223 26:-1.777908 27:0.046752 28:-1.679118 29:-0.708593 30:0.584915 31:0.455613 32:-0.514422 33:-0.777291 34:-0.059325 35:-0.016960 36:0.142476 37:0.241285 38:0.253920 39:1.093310 40:0.856280 41:-1.343573 42:1.827807 43:-0.034585 44:-0.406608 45:-1.162513 46:0.611969 47:0.522735 48:1.363789 49:-0.875213 50:-0.082347 51:-0.358332 52:-0.528423 53:-1.033577 54:1.139726 55:-0.127615 56:-0.011908 57:0.721380 58:-1.527330 59:0.281139 60:-1.281578 61:-0.579015 62:-0.508117 63:0.764407 64:-1.918047 65:-0.233093 66:0.020559 67:-0.056904 68:1.443281 69:0.309987 70:1.317905
-1 1:0.729378 2:0.168997 3:-0.713401 4:0.927291 5:0.409038 6:-1.549317 7:-0.666019 8:-0.013544 9:2.687295 10:-1.014732 11:0.122227 12:1.230436 13:2.003445 14:0.117754 15:-0.322421 16:0.121745 17:-0.329182 18:-0.345397 19:-0.906368 20:-0.516983 21:-0.684888 22:-0.315186 23:-1.699496 24:-0.655614 25:0.085489 26:0.107650 27:-1.508913 28:-0.020920 29:1.244282 30:-0.418221 31:1.605078 32:-1.326677 33:-0.910210 34:-1.174592 35:-0.125486 36:0.551165 37:-1.770102 38:-0.322350 39:0.343559 40:-0.224569 41:0.122744 42:1.143329 43:-0.830607 44:0.500207 45:1.384947 46:-0.429025 47:-2.371941 48:-1.974323 49:-1.429641 50:1.585668 51:1.208629 52:-1.148752 53:0.692154 54:-0.569284 55:0.454693 56:-0.246516 57:-1.186967 58:2.057464 59:-0.665923 60:0.600736 61:1.241068 62:0.173391 63:-1.319308 64:0.726008 65:-0.224379 66:0.919208 67:-0.857546 68:0.325622 69:0.492557 70:2.363833
-1 1:-0.211832 2:1.181857 3:-1.271340 4:-0.671402 5:-2.493168 6:2.709187 7:2.092086 8:0.211543 9:-0.944430 10:-0.799903 11:0.401093 12:1.391708 13:0.198093 14:0.401460 15:0.233115 16:-0.572443 17:-1.448937 18:-1.189571 19:-0.589665 20:-0.660547 21:1.184928 22:-1.444267 23:-0.070549 24:-1.985533 25:-0.038503 26:-0.971902 27:-1.744348 28:0.496022 29:-0.149991 30:-1.096298 31:1.132338 32:-0.300881 33:0.736789 34:1.370658 35:-1.645969 36:0.479761 37:0.250543 38:-0.793575 39:-0.511124 40:1.288395 41:0.374748 42:0.279991 43:0.691896 44:-0.752205 45:-0.214853 46:1.410879 47:-0.766360 48:1.785824 49:-0.452905 50:0.765915 51:0.292447 52:-0.522889 53:-1.769325 54:-0.811132 55:-0.223696 56:-0.900367 57:0.043157 58:0.307856 59:0.370572 60:1.061429 61:1.291480 62:0.096060 63:0.109924 64:1.662225 65:1.050637 66:-0.188206 67:0.301171 68:0.598953 69:-0.359781 70:0.296992
-1 1:-0.934598 2:-0.432043 3:1.055056 4:-0.513540 5:-0.080436 6:-0.433846 7:0.042410 8:0.354437 9:-2.213444 10:1.044702 11:-0.511181 12:-0.386565 13:0.286862 14:-0.478328 15:0.366521 16:2.125906 17:1.211063 18:-0.137011 19:1.692221 20:0.244954 21:-0.398662 22:-1.502674 23:1.993582 24:-1.441516 25:-1.309654 26:-0.632581 27:-1.434282 28:-0.667519 29:0.756222 30:0.669733 31:0.236931 32:1.159536 33:-0.603040 34:0.692213 35:0.081107 36:-1.364802 37:-0.185591 38:0.722611 39:0.147729 40:0.797997 41:0.573086 42:0.387216 43:0.179309 44:-1.334790 45:0.788497 46:0.102187 47:1.321793 48:0.687022 49:-0.044897 50:0.079283 51:-0.616983 52:0.389825 53:0.531602 54:0.684816 55:0.129206 56:0.169643 57:0.415785 58:-0.252091 59:-0.264480 60:0.238718 61:-0.835034 62:-1.002749 63:-0.019154 64:1.227886 65:-0.279876 66:-1.053732 67:-0.885060 68:-0.253906 69:-1.727776 70:1.123218
-1 1:1.565323 2:1.828028 3:0.409865 4:1.130903 5:1.272193 6:-1.384923 7:-0.557713 8:-0.503357 9:0.373616 10:0.746221 11:-0.770692 12:0.630871 13:-1.460004 14:0.700006 15:-0.312922 16:0.290222 17:-0.015092 18:0.360563 19:-0.249372 20:-0.708735 21:1.383287 22:0.767879 23:-0.021829 24:1.459164 25:-0.081112 26:-0.444408 27:-1.161392 28:1.290887 29:-1.996997 30:-0.517430 31:-0.596107 32:0.415715 33:-1.708129 34:-0.481294 35:-0.734860 36:-0.010545 37:-2.190905 38:1.012979 39:-1.437199 40:-1.052865 41:-1.288832 42:0.655453 43:1.770986 44:-0.463750 45:-1.171104 46:0.962595 47:1.372233 48:0.630247 49:-1.227419 50:-0.689658 51:-0.302532 52:0.979859 53:0.072170 54:-0.421899 55:-0.907319 56:-0.439657 57:-0.460704 58:-0.117031 59:-0.369032 60:0.550888 61:1.511168 62:0.429760 63:-1.832600 64:1.181874 65:2.283136 66:0.790714 67:-1.020583 68:-0.509521 69:-0.694999 70:2.006554
-1 1:-0.204020 2:1.447289 3:-0.652902 4:-2.466799 5:0.072571 6:0.380265 7:0.233205 8:0.529135 9:1.165097 10:-0.219531 11:0.855438 12:0.713920 13:-1.255678 14:-0.664353 15:0.230488 16:-0.638402 17:0.398757 18:1.709698 19:0.557744 20:-0.714158 21:-1.699865 22:-0.192804 23:-1.288482 24:-1.999263 25:0.264245 26:0.462320 27:-1.525787 28:4.084347 29:0.003865 30:-1.392443 31:0.386288 32:-0.111059 33:0.235447 34:-0.773362 35:0.415654 36:1.635183 37:2.106196 38:-1.802428 39:-0.922392 40:-1.404417 41:-0.232904 42:-0.164992 43:-0.695526 44:1.907248 45:-0.071942 46:-0.143336 47:0.757213 48:-0.473174 49:-0.264318 50:0.094289 51:0.277848 52:0.818664 53:-0.801708 54:-0.413536 55:-0.009043 56:-0.143758 57:-0.378417 58:0.712972 59:-2.278769 60:-0.063429 61:1.770021 62:-0.153026 63:-0.824472 64:0.206953 65:-0.221733 66:-0.941931 67:0.051114 68:1.140583 69:-1.017002 70:-0.539077
-1 1:1.008636 2:-0.821850 3:-0.777636 4:-0.641418 5:-1.177027 6:-0.649568 7:-0.110832 8:2.161174 9:0.166468 10:1.524889 11:-0.092433 12:-0.529126 13:0.174352 14:-1.815062 15:1.461803 16:1.048868 17:-0.371557 18:-2.168675 19:0.037157 20:-1.072875 21:0.717640 22:0.025131 23:-1.121127 24:1.783261 25:-0.778617 26:0.336941 27:1.540066 28:-0.898517 29:-2.404600 30:-2.009562 31:0.165962 32:1.732528 33:0.069613 34:-0.325413 35:-1.693820 36:0.163245 37:1.282905 38:0.349559 39:0.258669 40:-1.209185 41:-1.422968 42:0.076275 43:1.082862 44:1.581568 45:-0.495565 46:1.982720 47:1.255520 48:-0.168708 49:-0.041431 50:-0.560555 51:-0.693114 52:0.709115 53:-0.915365 54:0.931059 55:1.313103 56:0.379337 57:1.443132 58:-1.228985 59:1.278092 60:-0.528850 61:0.340466 62:0.079643 63:1.930357 64:-1.485046 65:-0.800211 66:-1.342576 67:-0.442001 68:-1.517852 69:-1.870659 70:-1.096687
-1 1:-0.628512 2:1.273144 3:0.753728 4:0.531860 5:-1.174239 6:-0.726124 7:-1.071504 8:0.387460 9:-0.009964 10:0.052864 11:-2.570686 12:0.597890 13:0.099614 14:0.520855 15:0.658407 16:0.359442 17:0.778495 18:1.949181 19:0.017591 20:-1.638819 21:0.030758 22:-0.112527 23:0.663803 24:1.356644 25:0.371936 26:-1.301966 27:1.395574 28:1.695099 29:0.139182 30:-0.319331 31:-1.597459 32:-0.518085 33:0.144616 34:0.530251 35:-0.359951 36:0.473583 37:0.647407 38:-0.208784 39:-0.510277 40:-1.364835 41:0.185858 42:-1.096540 43:0.036453 44:2.208184 45:2.017512 46:-1.174388 47:-0.051580 48:-0.284484 49:2.398677 50:-0.927326 51:0.490827 52:-1.488225 53:0.410172 54:2.846274 55:1.109817 56:-1.028557 57:0.963248 58:0.433854 59:1.209344 60:0.164644 61:-0.930623 62:-0.745510 63:0.061644 64:-1.643193 65:0.039943 66:0.569555 67:0.142143 68:0.974703 69:-0.813600 70:-0.115701
-1 1:0.249973 2:-0.647009 3:1.091031 4:0.819542 5:-1.017084 6:1.086228 7:-0.664331 8:0.451782 9:-1.287628 10:-0.547000 11:0.206998 12:-1.336520 13:1.710392 14:0.472648 15:0.558662 16:0.580642 17:0.402940 18:0.975041 19:0.123659 20:1.381608 21:-0.365313 22:-1.728783 23:-0.869826 24:0.460381 25:0.432213 26:0.317023 27:0.662988 28:0.653284 29:-1.071133 30:-0.428239 31:-0.273453 32:-1.210173 33:-2.569587 34:1.294861 35:0.162135 36:0.710384 37:0.049791 38:0.351465 39:1.058313 40:2.198011 41:-1.221677 42:0.926550 43:-0.673955 44:1.092300 45:-1.784897 46:0.822974 47:-1.197589 48:-1.752871 49:0.010770 50:1.613860 51:-0.513756 52:-1.162928 53:0.385413 54:0.052435 55:-0.073302 56:-0.074925 57:-1.655412 58:-1.103484 59:0.641131 60:-0.883256 61:-1.704488 62:1.121686 63:2.037054 64:0.231057 65:-0.636397 66:0.542172 67:2.162502 68:-1.245497 69:0.791486 70:-0.284501
-1 1:-0.137515 2:-0.084959 3:0.243452 4:2.333389 5:-0.027798 6:-0.909275 7:1.256354 8:-0.687159 9:-0.042719 10:-0.157653 11:0.201496 12:-2.051313 13:-0.086575 14:0.056486 15:0.375121 16:-1.946298 17:0.516394 18:-0.697103 19:0.498744 20:0.072038 21:-1.724067 22:0.455438 23:-0.767124 24:0.266684 25:2.315196 26:0.096386 27:1.114207 28:0.269250 29:-0.905380 30:0.425047 31:1.033077 32:0.920201 33:-0.154253 34:1.121280 35:0.304431 36:-0.953786 37:1.143432 38:-1.389801 39:-1.198802 40:-0.405747 41:-1.014415 42:0.697017 43:-0.398981 44:0.864410 45:0.514128 46:-0.356063 47:-1.230395 48:0.144341 49:-1.313437 50:0.398465 51:1.491229 52:-0.248805 53:-1.194587 54:-0.705541 55:-1.120403 56:-0.861720 57:-0.332774 58:-0.507836 59:0.805312 60:0.322353 61:0.967158 62:0.742389 63:1.388338 64:0.927195 65:-1.712414 66:-0.530772 67:0.940239 68:-0.347587 69:-0.948876 70:0.176104
-1 1:-0.980832 2:-0.645693 3:0.932553 4:-1.537160 5:1.892029 6:-0.572345 7:1.090969 8:-0.628892 9:-0.736161 10:-1.147697 11:0.171355 12:1.322806 13:-0.987572 14:1.660638 15:-0.562053 16:-0.726828 17:0.008711 18:0.247031 19:0.079519 20:0.195550 21:-0.629950 22:-1.551071 23:0.926127 24:0.530633 25:1.654113 26:-1.015344 27:0.705054 28:-0.485433 29:0.239419 30:0.841935 31:0.285965 32:-0.527276 33:2.237466 34:1.755113 35:-0.132536 36:0.039089 37:0.816526 38:0.204702 39:-0.261029 40:1.631436 41:1.331224 42:1.853872 43:1.689278 44:-3.677656 45:0.139494 46:-0.195641 47:1.023682 48:1.404310 49:2.485925 50:-1.260147 51:-1.067159 52:0.299309 53:1.894091 54:-1.483235 55:0.707516 56:1.396963 57:-1.434316 58:-1.529074 59:0.442889 60:2.047068 61:0.821375 62:0.908833 63:-0.845373 64:1.653742 65:0.894571 66:-1.806040 67:0.574560 68:-0.275781 69:-0.082716 70:-0.736690
-1 1:0.606418 2:1.266260 3:0.311741 4:1.127960 5:1.443508 6:0.068337 7:0.849813 8:-0.756852 9:-0.126540 10:0.239896 11:-0.060121 12:0.966915 13:0.164092 14:2.481321 15:-0.334387 16:-1.016750 17:1.425763 18:-0.864713 19:1.180148 20:-2.240403 21:1.409344 22:-1.064099 23:1.079370 24:-1.167130 25:-1.505021 26:-1.223211 27:-1.031942 28:-0.693920 29:-1.030145 30:-0.122580 31:-0.456423 32:-0.576895 33:-1.743030 34:0.376378 35:-0.408532 36:1.738342 37:0.782114 38:0.493786 39:1.193155 40:0.043219 41:-0.301909 42:1.047627 43:0.366931 44:-1.269066 45:0.354814 46:-0.574128 47:-1.124445 48:-0.471474 49:0.028241 50:-1.136499 51:0.126620 52:-0.565567 53:-1.706864 54:-0.772473 55:1.003658 56:0.547913 57:-1.428036 58:1.743298 59:-1.585613 60:-1.156240 61:0.980467 62:1.629685 63:1.197966 64:-0.830694 65:-0.159026 66:0.881456 67:-0.734225 68:0.208190 69:1.126010 70:-0.207466
-1 1:-1.305212 2:1.511405 3:-1.167013 4:0.963713 5:2.146752 6:-1.163559 7:0.173395 8:1.099199 9:-0.228543 10:-0.712021 11:0.130170 12:1.361878 13:0.420794 14:0.602910 15:-0.468462 16:0.944721 17:2.029114 18:0.618405 19:0.027985 20:1.421537 21:-1.188421 22:-0.360556 23:-2.260987 24:1.245178 25:-0.283572 26:-0.041019 27:-1.061899 28:1.275203 29:1.528931 30:0.646361 31:-0.553318 32:0.409706 33:1.298957 34:0.423050 35:0.259662 36:2.061641 37:0.735065 38:0.317895 39:0.797794 40:-0.965419 41:0.267633 42:-1.350435 43:0.849511 44:0.877554 45:-0.115133 46:-0.194949 47:-0.151809 48:-2.194788 49:0.985286 50:0.562199 51:0.456860 52:0.732529 53:-0.436342 54:-0.047157 55:-0.704076 56:0.428493 57:-0.519476 58:-0.394938 59:1.067845 60:-0.300092 61:0.338401 62:0.007596 63:0.207068 64:-0.980153 65:-1.478673 66:-0.235053 67:0.082008 68:-0.289249 69:-0.339583 70:0.739353
-1 1:0.608454 2:0.764403 3:-0.050672 4:-1.086539 5:-0.405466 6:0.059476 7:0.978003 8:0.080209 9:-0.175577 10:1.677869 11:1.079442 12:-0.280714 13:-0.256249 14:-1.044734 15:0.591233 16:0.501029 17:1.501692 18:-1.268914 19:0.773683 20:-0.622768 21:0.401390 22:2.696669 23:-1.067366 24:-0.490463 25:1.025541 26:-0.538962 27:-1.830369 28:1.289723 29:0.661433 30:-1.020079 31:-1.411562 32:0.778617 33:0.707924 34:1.145089 35:0.231920 36:-1.083910 37:2.040292 38:-0.299592 39:-0.543576 40:0.347603 41:0.638266 42:0.883586 43:-0.370358 44:-0.308715 45:0.307211 46:0.942207 47:-0.887169 48:1.184285 49:0.024515 50:-0.115830 51:-0.307382 52:0.018270 53:1.757285 54:0.738905 55:0.227807 56:-1.553688 57:-1.323330 58:0.316803 59:-0.930662 60:0.489325 61:-1.590394 62:-0.476870 63:0.112792 64:-0.416561 65:-0.150302 66:1.350447 67:1.461647 68:-0.708286 69:0.128460 70:0.817920
-1 1:-0.622463 2:0.661902 3:0.591970 4:-0.640749 5:0.450896 6:0.070252 7:0.154922 8:1.010341 9:-0.602727 10:-0.875747 11:-0.865804 12:-0.077398 13:-0.653216 14:1.134556 15:-1.005337 16:0.238601 17:-0.845015 18:0.640928 19:-0.450127 20:-1.039490 21:-0.489543 22:0.288069 23:-0.662760 24:-0.999423 25:1.283615 26:1.278930 27:-0.407304 28:-0.434313 29:-0.581575 30:0.822371 31:-0.626641 32:-0.544572 33:0.681726 34:-1.557713 35:-0.160142 36:1.562501 37:0.308646 38:-0.473477 39:-1.345994 40:0.260491 41:0.377467 42:-0.750132 43:-0.369661 44:-0.035772 45:0.911004 46:-0.563428 47:0.403934 48:0.019207 49:0.542862 50:0.566425 51:-1.401366 52:-0.115034 53:1.278490 54:1.282938 55:-0.314717 56:1.648723 57:0.248955 58:1.109336 59:0.551647 60:-0.625590 61:0.240244 62:1.423718 63:-0.589334 64:-0.493116 65:0.592340 66:0.863765 67:-0.433391 68:-1.076630 69:-0.326354 70:2.093822
-1 1:0.227335 2:0.928461 3:0.344700 4:0.403465 5:-1.034872 6:-0.844298 7:1.313466 8:-0.211833 9:-1.759773 10:-0.167109 11:0.886187 12:-0.492423 13:-0.929831 14:0.259166 15:0.244477 16:0.933249 17:-0.708522 18:0.354351 19:0.209084 20:0.099677 21:0.399605 22:0.615573 23:0.489181 24:0.665488 25:-2.116863 26:0.049816 27:0.485026 28:1.223986 29:-0.261098 30:0.393484 31:0.653684 32:1.480824 33:1.727629 34:0.709077 35:0.301619 36:-0.294121 37:1.530580 38:0.611848 39:-1.987003 40:0.824314 41:0.445119 42:1.558025 43:1.592216 44:1.650230 45:-1.047329 46:-0.256933 47:-0.349552 48:-0.070785 49:0.040299 50:-0.066179 51:1.160127 52:0.730980 53:-0.842595 54:-0.923782 55:-1.486243 56:1.560089 57:-1.182671 58:-0.294517 59:0.292157 60:1.160773 61:0.268812 62:0.773808 63:-0.173248 64:0.317129 65:-0.615445 66:-0.139196 67:-1.702279 68:1.726950 69:0.637662 70:0.581812
-1 1:-1.433471 2:0.376641 3:0.196802 4:-0.049205 5:-1.612602 6:1.770315 7:0.602802 8:1.347332 9:-2.429880 10:1.687449 11:-0.032852 12:-0.171371 13:0.123244 14:0.480113 15:-0.245503 16:1.235341 17:0.851950 18:0.097663 19:0.041738 20:0.790449 21:-0.483580 22:0.242568 23:-2.171775 24:0.727123 25:-0.040040 26:0.903251 27:1.446598 28:0.909827 29:1.379264 30:0.193404 31:-0.499664 32:-0.178732 33:-0.616376 34:-0.231064 35:-0.372002 36:-1.280671 37:2.252106 38:2.198473 39:0.856628 40:0.405997 41:-0.013566 42:0.408560 43:-0.318234 44:0.811234 45:0.193298 46:-0.112586 47:-1.009381 48:-0.174657 49:0.129217 50:0.262808 51:-1.770281 52:1.450232 53:-0.696925 54:0.483414 55:-0.151892 56:-0.670541 57:-0.923273 58:-0.998798 59:-1.248477 60:-1.815496 61:-0.464407 62:0.560062 63:0.285499 64:-1.752176 65:-0.437726 66:1.250480 67:1.789619 68:-1.803079 69:1.350595 70:-0.458834
-1 1:-0.573382 2:0.124022 3:-0.443176 4:0.908378 5:-2.166437 6:0.409835 7:-0.880544 8:0.979329 9:-0.353710 10:-0.956916 11:-0.919792 12:-0.471224 13:1.667137 14:0.855318 15:-0.438145 16:-0.305147 17:-0.462008 18:-0.004224 19:1.105552 20:-0.296385 21:0.201221 22:0.900115 23:-1.232466 24:0.671949 25:0.954334 26:-0.155348 27:0.821952 28:-0.653716 29:-0.706549 30:-1.577240 31:0.331400 32:0.734087 33:-1.519478 34:-0.164285 35:0.545545 36:-2.052517 37:1.196599 38:1.667853 39:-0.881754 40:-0.231976 41:-0.361749 42:0.418434 43:1.566611 44:-0.483800 45:0.036694 46:0.423783 47:-1.833725 48:0.282163 49:-0.439056 50:0.143088 51:-1.082665 52:0.343938 53:0.831858 54:0.746186 55:0.447726 56:-0.148438 57:-0.861390 58:0.266849 59:-0.008050 60:0.253928 61:-0.225369 62:-0.515552 63:0.676491 64:0.903677 65:0.340644 66:-0.717681 67:-0.494040 68:0.987472 69:-0.164088 70:-1.576149
-1 1:-1.499808 2:-0.668948 3:0.416917 4:-1.207412 5:-0.289743 6:-0.709019 7:0.370199 8:-0.816223 9:-0.834543 10:0.657956 11:0.381257 12:-1.801651 13:0.572741 14:-2.308684 15:1.332893 16:0.508489 17:-1.395484 18:0.486999 19:1.180032 20:-0.152551 21:-0.925398 22:0.001253 23:0.439478 24:-0.236090 25:-0.712928 26:0.157459 27:-0.259616 28:0.534559 29:0.390034 30:-1.154449 31:1.181858 32:1.166094 33:-0.704828 34:-0.463154 35:0.909635 36:-0.646474 37:-0.830724 38:-0.104693 39:1.731348 40:1.745612 41:0.166300 42:0.800875 43:-0.321812 44:-0.149960 45:-0.409230 46:-0.089977 47:-1.541520 48:-0.546851 49:0.703139 50:0.555702 51:0.036951 52:-1.019676 53:-0.030662 54:-1.156493 55:-0.088279 56:0.989330 57:1.602438 58:-0.538232 59:0.394545 60:-0.696298 61:-0.004069 62:0.095039 63:1.298840 64:-1.572771 65:-0.478397 66:0.008380 67:-1.028464 68:2.111006 69:0.124623 70:-0.432553
-1 1:-0.093214 2:-1.128901 3:0.247965 4:0.304082 5:0.388014 6:0.884520 7:-0.823959 8:0.608514 9:-0.161592 10:1.607092 11:-1.379644 12:0.669008 13:1.398245 14:0.108680 15:0.021003 16:0.632497 17:0.658859 18:0.174638 19:-0.665890 20:0.028438 21:0.480394 22:0.482148 23:-0.273814 24:-1.570166 25:-0.049831 26:-0.530004 27:0.147406 28:-1.193464 29:0.303466 30:0.796133 31:0.433496 32:-0.231080 33:0.317350 34:-0.431535 35:-1.215797 36:1.539844 37:0.187920 38:0.827870 39:0.079018 40:0.844948 41:-0.701264 42:1.027852 43:0.094466 44:0.513208 45:-0.915995 46:0.789335 47:1.991780 48:-2.177635 49:-0.702593 50:0.635950 51:-2.317925 52:0.748419 53:-0.569270 54:-0.281206 55:-1.783418 56:0.539159 57:0.541900 58:1.169864 59:0.573801 60:0.275894 61:-0.632621 62:0.098743 63:-1.087576 64:-0.027735 65:-0.150322 66:0.901620 67:0.296744 68:0.459328 69:-0.663032 70:1.169300
-1 1:0.645376 2:-0.553486 3:1.436218 4:0.466923 5:-0.944596 6:-0.060293 7:1.140282 8:-1.084299 9:0.459978 10:-1.582576 11:1.283403 12:-0.055447 13:-0.846093 14:-0.478273 15:0.164917 16:-1.373124 17:-0.697059 18:-0.580662 19:-0.210907 20:0.842313 21:1.600076 22:0.561668 23:-2.299769 24:-2.682718 25:-1.570208 26:0.102005 27:-0.160945 28:-0.387781 29:-1.529868 30:0.779656 31:0.939464 32:-0.098383 33:-0.615413 34:-0.276857 35:-0.055943 36:0.771028 37:-0.963547 38:-0.560899 39:-1.103946 40:0.011286 41:0.421270 42:-0.587156 43:-1.303228 44:-1.508256 45:-0.727543 46:-0.645356 47:-1.480916 48:0.394235 49:0.074696 50:0.834749 51:0.459416 52:-0.861147 53:1.330295 54:-0.394652 55:2.070002 56:-0.559402 57:1.777811 58:0.157817 59:0.253428 60:-0.441120 61:-0.306508 62:1.708881 63:0.768919 64:-0.806171 65:1.990772 66:0.155660 67:-0.159129 68:0.706987 69:2.612692 70:-0.387634
-1 1:1.029558 2:-0.143620 3:-0.130045 4:-0.772918 5:1.284756 6:-1.617835 7:-0.103049 8:-0.266251 9:1.432259 10:-0.651619 11:0.458131 12:-0.427670 13:1.804851 14:0.279814 15:0.473682 16:0.463198 17:-0.214641 18:0.728145 19:-1.780439 20:0.944850 21:1.581964 22:-1.037071 23:-0.849685 24:0.148372 25:-0.104876 26:-0.168632 27:0.910133 28:0.250879 29:-0.095835 30:-0.331920 31:-0.409198 32:-0.807986 33:1.800592 34:0.449055 35:-1.013045 36:0.652770 37:0.036981 38:-2.641366 39:1.886457 40:-0.529578 41:-1.320503 42:0.359663 43:-0.681356 44:0.125686 45:0.989264 46:0.266941 47:-0.572354 48:-1.096848 49:0.847998 50:-0.263601 51:2.319746 52:-0.175336 53:-0.003971 54:-0.218427 55:0.137594 56:-1.508443 57:0.566257 58:0.492023 59:1.308165 60:-1.167592 61:-1.741108 62:0.751060 63:-1.236150 64:-1.960479 65:-0.218960 66:-0.837809 67:1.567424 68:0.803769 69:-1.082467 70:-0.014194
-1 1:1.277150 2:0.435467 3:-0.412224 4:1.061590 5:-1.859536 6:0.413474 7:-1.252818 8:-2.021388 9:-1.917889 10:1.280586 11:-0.515859 12:-0.400791 13:2.134347 14:0.330799 15:1.331638 16:0.100218 17:0.306945 18:-1.391559 19:1.593611 20:-0.337027 21:0.935259 22:-0.813108 23:-1.109992 24:-0.881089 25:-0.259368 26:0.655194 27:2.526457 28:0.266201 29:0.214895 30:-0.792013 31:-0.488894 32:0.963633 33:-0.255827 34:1.314463 35:-0.521504 36:-1.469852 37:-0.102748 38:-1.684417 39:-0.658827 40:-0.086255 41:-0.029540 42:-0.376580 43:-0.553785 44:0.537764 45:-0.796103 46:0.152532 47:-0.361226 48:-1.433311 49:-0.023110 50:-0.782071 51:0.216034 52:-0.034858 53:-0.370602 54:0.503756 55:2.091623 56:0.058843 57:-1.273637 58:-1.160202 59:0.432520 60:1.335646 61:1.834339 62:0.431529 63:-0.001003 64:0.862245 65:0.036497 66:-1.385848 67:-1.890184 68:-1.062382 69:-0.163431 70:0.503081
-1 1:0.452476 2:-1.098643 3:-0.382226 4:0.265975 5:0.465275 6:-0.316553 7:0.505366 8:0.214210 9:-0.948605 10:-0.283243 11:-0.680973 12:-2.324729 13:0.062974 14:0.265911 15:0.445551 16:-0.553960 17:-0.451139 18:0.561564 19:0.492999 20:0.442307 21:-0.046755 22:0.844044 23:-0.785189 24:0.532014 25:-1.029522 26:0.348877 27:1.159301 28:0.268345 29:-1.560899 30:1.346538 31:0.848422 32:-1.128115 33:0.293138 34:2.253379 35:-0.624255 36:1.448548 37:1.201050 38:-0.563906 39:0.839098 40:-0.566730 41:1.398663 42:-1.115488 43:-0.388743 44:0.275618 45:0.152961 46:1.371757 47:-0.442281 48:0.165677 49:0.480321 50:-0.913002 51:-0.907824 52:-1.230466 53:-2.373671 54:0.066694 55:1.206860 56:-0.561957 57:-0.676028 58:-0.326583 59:-1.554290 60:0.164013 61:-0.761205 62:-2.073193 63:1.798535 64:-0.237889 65:-0.253232 66:-0.217910 67:-0.424501 68:1.670193 69:1.103238 70:-1.095770
-1 1:0.787585 2:0.109009 3:-0.521038 4:0.210445 5:-0.229291 6:-0.498131 7:1.480455 8:-0.428355 9:-0.396523 10:-0.113782 11:-0.578578 12:1.507527 13:0.084760 14:-0.530760 15:1.445947 16:1.111675 17:-1.689232 18:0.367969 19:1.219117 20:0.037617 21:0.378399 22:0.367431 23:-0.639050 24:-0.167767 25:0.354130 26:-0.030583 27:-1.174168 28:-0.071632 29:-1.112025 30:1.210208 31:0.122282 32:-0.369865 33:-0.104430 34:-0.117720 35:-2.660100 36:1.068992 37:-1.611837 38:-1.595287 39:-1.033574 40:0.845250 41:-1.856549 42:-0.544432 43:-1.579211 44:-1.123319 45:-0.417420 46:-1.431750 47:-0.621941 48:1.088759 49:0.056773 50:-1.003193 51:0.258498 52:-0.236655 53:0.177101 54:0.688464 55:1.613168 56:-0.003205 57:1.666470 58:-1.328552 59:-0.429561 60:-1.278839 61:-0.021424 62:-0.644869 63:-0.238085 64:-1.301383 65:0.008093 66:-0.353811 67:0.461938 68:0.168297 69:0.036522 70:-0.732354
-1 1:-1.926830 2:0.937259 3:1.017948 4:0.774936 5:1.147074 6:0.772986 7:-0.718687 8:1.067911 9:0.192961 10:1.638010 11:0.936890 12:-1.113438 13:0.075334 14:-0.512923 15:-1.876527 16:-0.903586 17:-1.083836 18:1.472539 19:-0.535107 20:-0.848582 21:-0.461219 22:0.064058 23:0.503344 24:-1.196800 25:-0.517372 26:-0.497370 27:0.142718 28:-0.254179 29:0.134801 30:-0.570276 31:0.219921 32:-1.971525 33:-0.289040 34:-0.018333 35:0.190748 36:1.020215 37:-0.541474 38:0.542904 39:-0.007764 40:0.376795 41:0.188218 42:0.542205 43:1.191670 44:0.841813 45:-0.459388 46:1.051978 47:-1.055958 48:-0.169429 49:0.001888 50:0.482776 51:-0.436547 52:0.264548 53:0.082617 54:0.717980 55:0.928949 56:-0.177301 57:0.486630 58:0.437811 59:1.918623 60:0.027547 61:-0.526236 62:0.423751 63:0.808046 64:-0.309679 65:-0.957609 66:0.095207 67:-0.312252 68:0.243149 69:-0.492867 70:-1.462453
-1 1:-1.374387 2:0.324284 3:-0.158408 4:-1.181106 5:-0.157028 6:1.613317 7:-0.902439 8:-1.702359 9:-1.799178 10:-0.558735 11:-1.433603 12:-0.090558 13:-0.522484 14:-0.650962 15:0.219624 16:0.622285 17:-0.666566 18:1.302954 19:-0.816697 20:0.053530 21:2.710886 22:-0.560189 23:0.375466 24:1.180681 25:-1.194832 26:-0.678795 27:0.751581 28:0.600678 29:2.035493 30:-1.426159 31:-0.382345 32:0.023015 33:-0.889165 34:-0.135261 35:-1.006308 36:0.157796 37:-1.121756 38:0.301895 39:-0.475543 40:0.899212 41:-0.141887 42:3.022113 43:1.445036 44:0.414061 45:-0.168824 46:-0.034955 47:0.001643 48:0.714690 49:0.459357 50:-0.010913 51:-2.143077 52:-0.574614 53:-1.705343 54:-2.125679 55:-1.210178 56:-0.324780 57:0.463718 58:1.336215 59:0.740609 60:-0.849592 61:0.118034 62:-0.214188 63:-1.801184 64:-0.845192 65:0.347951 66:-1.287857 67:-0.067678 68:1.339281 69:-0.697397 70:-0.457904
-1 1:-0.802346 2:0.646418 3:-0.992864 4:0.964469 5:-0.534795 6:0.174943 7:-0.107858 8:-1.326039 9:-0.067533 10:-0.951183 11:-0.899079 12:0.113917 13:1.288126 14:-0.210338 15:0.786968 16:0.669420 17:0.070054 18:-0.107861 19:-0.318513 20:1.387360 21:0.425692 22:2.067702 23:0.415374 24:-0.328537 25:1.041116 26:-0.289358 27:0.485441 28:-0.950173 29:-0.360129 30:-0.097226 31:-0.102666 32:0.524232 33:-1.564272 34:0.497411 35:0.531370 36:-0.222061 37:-2.410411 38:-0.226515 39:-1.518946 40:0.710807 41:-0.278141 42:0.197353 43:-1.628722 44:-0.747438 45:0.993554 46:1.264575 47:0.506301 48:-0.077098 49:0.463434 50:0.695401 51:0.102274 52:0.817857 53:2.355497 54:-1.709167 55:0.576218 56:-0.206565 57:0.505452 58:0.175251 59:0.261546 60:-1.224801 61:-1.903810 62:0.158850 63:1.969789 64:-1.562921 65:0.204597 66:-0.326076 67:0.658458 68:1.460417 69:0.075975 70:-0.827989
-1 1:-0.068271 2:0.404029 3:0.244326 4:-0.850689 5:-0.359346 6:1.344250 7:-0.799837 8:-0.245410 9:0.176225 10:0.564127 11:1.531326 12:0.631992 13:-1.396367 14:1.337088 15:-0.922119 16:-0.868333 17:-0.036316 18:-0.355745 19:0.720592 20:-0.044423 21:0.760804 22:-0.837157 23:-1.991038 24:1.808068 25:-1.004470 26:0.287705 27:1.033905 28:-1.132946 29:-0.489569 30:-0.933400 31:-1.040722 32:0.754963 33:1.500790 34:-1.154456 35:0.649529 36:-0.246898 37:-0.426123 38:-0.942914 39:-0.536512 40:-0.534283 41:1.019736 42:-0.600611 43:-0.763887 44:0.446667 45:0.605608 46:1.187293 47:0.072831 48:-0.141329 49:0.588997 50:-2.273027 51:0.277256 52:0.338421 53:0.778003 54:-0.412086 55:-0.056731 56:-1.004172 57:-1.657796 58:-1.798023 59:0.858925 60:-0.038301 61:1.234855 62:-1.169875 63:-0.220545 64:0.941990 65:2.063138 66:0.242508 67:-0.683770 68:-0.084985 69:-1.200914 70:-0.445226
-1 1:-0.470627 2:0.188774 3:0.639462 4:-0.301572 5:0.438769 6:0.829649 7:-0.902827 8:-0.909356 9:0.616975 10:0.873120 11:-0.151146 12:-1.797483 13:0.434365 14:-0.392769 15:1.625128 16:-0.625789 17:-1.124604 18:-0.398112 19:-1.168842 20:-0.403238 21:-1.025222 22:-1.399075 23:-0.173981 24:-0.011890 25:1.941539 26:-1.537245 27:0.432867 28:-0.090316 29:-0.214537 30:1.137246 31:-1.100821 32:0.471220 33:1.297171 34:-0.079142 35:0.750183 36:-1.072422 37:0.244042 38:0.223877 39:0.383133 40:-0.053945 41:-0.265346 42:-0.171064 43:-0.200828 44:-1.311461 45:-0.211732 46:1.692961 47:1.503486 48:-1.089525 49:0.922813 50:-1.116001 51:1.406470 52:-0.072111 53:-1.900410 54:-1.044082 55:0.657894 56:0.030784 57:-0.714549 58:0.734465 59:0.156494 60:0.454931 61:-1.963668 62:-1.473096 63:-0.226691 64:-0.535161 65:-1.285199 66:-0.662108 67:-0.119855 68:-0.888607 69:0.952582 70:1.232550
-1 1:0.819198 2:0.804255 3:-2.290072 4:0.152064 5:-1.419773 6:-0.466376 7:-0.248014 8:0.306147 9:-0.061620 10:-1.949347 11:1.076149 12:0.602008 13:1.300631 14:-1.655031 15:0.222042 16:0.948118 17:2.258056 18:-0.258451 19:0.763181 20:-0.038962 21:-1.516169 22:1.286401 23:-0.158055 24:-0.008238 25:0.462541 26:1.393711 27:0.300087 28:-0.092301 29:0.733772 30:-1.959232 31:-0.359021 32:-1.753038 33:0.896987 34:0.213389 35:1.676196 36:0.739012 37:0.755692 38:-1.027291 39:-0.905414 40:1.204334 41:0.210960 42:-0.717131 43:-0.747674 44:0.506216 45:-0.000632 46:-1.635999 47:-0.432992 48:-0.412610 49:0.314634 50:-0.147344 51:2.662084 52:-1.925258 53:-0.044153 54:0.413483 55:-0.202562 56:-0.070391 57:0.520527 58:-0.812651 59:0.586276 60:-0.571236 61:1.314880 62:-2.091484 63:-1.158419 64:-2.357759 65:-0.245825 66:0.079639 67:0.302174 68:1.981225 69:-2.724831 70:-1.094309
-1 1:0.179184 2:0.492373 3:0.465032 4:-1.663971 5:0.192911 6:-1.280635 7:-0.134747 8:0.902781 9:-0.828025 10:-0.267525 11:2.010270 12:0.502446 13:-0.556823 14:1.219780 15:0.192024 16:-1.192499 17:0.468192 18:-0.105127 19:-1.854584 20:1.632635 21:-0.340488 22:-1.491524 23:0.167841 24:1.101764 25:0.801603 26:-1.955998 27:0.868072 28:0.776930 29:0.501537 30:1.133564 31:0.086021 32:0.148155 33:-0.467644 34:0.646294 35:2.077245 36:0.663214 37:-0.068775 38:0.561399 39:0.660786 40:0.903648 41:-0.704988 42:1.087538 43:0.478331 44:-1.148300 45:-0.987279 46:-0.138110 47:0.978831 48:-0.491106 49:0.313310 50:-0.313241 51:-0.020249 52:-0.019035 53:-0.817593 54:-1.064419 55:1.356309 56:-0.211492 57:1.597203 58:-0.256754 59:-0.635177 60:-0.319237 61:-0.459562 62:-1.169728 63:-0.591615 64:1.704246 65:-0.644429 66:0.141330 67:-0.801206 68:-0.427935 69:-0.302658 70:0.178694
-1 1:-1.477072 2:1.570492 3:0.114062 4:-0.151036 5:0.301596 6:0.071254 7:-0.208310 8:-0.239618 9:0.671945 10:0.171911 11:0.942976 12:-0.623930 13:0.675009 14:-0.482668 15:0.868106 16:1.606324 17:-0.830100 18:0.379044 19:0.561821 20:1.520433 21:0.773687 22:-2.425629 23:0.638403 24:0.469444 25:0.121203 26:-0.163032 27:0.325769 28:-0.152739 29:0.380422 30:-1.848249 31:-0.742008 32:1.171211 33:0.965768 34:1.133050 35:-1.202485 36:1.188849 37:-0.277663 38:0.249845 39:0.024420 40:0.655377 41:0.402666 42:0.291013 43:-0.136562 44:-0.178678 45:0.207946 46:-0.509573 47:1.021655 48:-1.218430 49:-0.754126 50:0.025347 51:0.305278 52:0.128172 53:1.000556 54:-0.177667 55:0.470391 56:2.069722 57:1.759873 58:0.168039 59:-1.256883 60:-0.581382 61:-1.012409 62:-0.744189 63:0.572101 64:-0.877922 65:0.010378 66:-0.657684 67:0.645342 68:-0.149876 69:-0.707691 70:0.658262
-1 1:0.092988 2:1.419445 3:-0.009918 4:1.033370 5:-1.377920 6:0.757758 7:0.685650 8:-1.645799 9:1.579834 10:0.707957 11:0.008284 12:0.394257 13:0.197185 14:0.157354 15:0.983312 16:0.057831 17:-0.506258 18:0.046600 19:2.494049 20:0.887343 21:-1.922277 22:-1.257400 23:-0.335624 24:-0.153527 25:-0.730501 26:-0.493901 27:-0.051065 28:-0.681336 29:-0.543646 30:-0.248358 31:-1.243851 32:1.052343 33:-0.296272 34:-0.289354 35:1.488434 36:-1.830358 37:-0.627319 38:-0.018783 39:-0.851887 40:-1.290383 41:-0.226321 42:-0.249761 43:-1.879461 44:0.382799 45:-1.514152 46:0.199764 47:-0.315168 48:-1.312419 49:0.181802 50:-0.001750 51:-0.086306 52:-0.900033 53:-2.141444 54:0.436227 55:0.435757 56:0.228224 57:-0.156778 58:-2.681947 59:0.028354 60:-1.405742 61:-0.060064 62:-0.456393 63:-1.049838 64:-1.187990 65:0.965315 66:-0.363377 67:-2.415171 68:-1.638807 69:0.593735 70:-0.485446
-1 1:2.040628 2:-0.917483 3:0.003966 4:0.271492 5:0.507978 6:0.565064 7:-1.830045 8:1.233596 9:1.134084 10:-1.483833 11:-0.446523 12:0.381032 13:0.009945 14:-0.654148 15:-0.581067 16:-0.432090 17:-0.593351 18:0.096906 19:0.898807 20:0.170798 21:-0.049721 22:-0.641614 23:-1.922908 24:0.100963 25:0.484404 26:-1.756531 27:1.280008 28:-1.029818 29:0.514259 30:0.358839 31:-0.685189 32:1.198299 33:1.921781 34:1.286002 35:-1.137964 36:-0.099651 37:0.504047 38:1.589940 39:-1.034755 40:0.357435 41:0.727350 42:-0.990856 43:0.256181 44:-1.069975 45:-1.345582 46:-1.267396 47:1.035463 48:0.736014 49:-0.154227 50:-0.050370 51:-0.516011 52:-2.138541 53:0.465678 54:2.034347 55:0.338968 56:1.320499 57:0.363735 58:-0.884169 59:0.932419 60:0.465191 61:0.007776 62:-0.544889 63:1.366142 64:2.412096 65:0.127176 66:-0.722678 67:-0.743708 68:-1.045401 69:-0.560749 70:-1.093372
-1 1:-0.807718 2:-0.160992 3:-1.173468 4:-1.478467 5:-1.896642 6:-1.301124 7:0.374485 8:0.900283 9:0.788009 10:0.394846 11:-0.424843 12:-0.247566 13:-1.952537 14:-0.148319 15:2.290041 16:-1.034811 17:-0.174330 18:-0.576653 19:-1.005179 20:0.194349 21:0.006049 22:-0.307416 23:-0.951205 24:-0.629745 25:0.621779 26:-0.923874 27:1.870777 28:1.938013 29:1.122151 30:-0.794346 31:-0.115219 32:-1.390910 33:0.314136 34:1.573414 35:0.865788 36:-0.421592 37:-0.496902 38:-0.946723 39:1.026772 40:-0.077984 41:-0.376090 42:0.476958 43:-0.208562 44:-0.308956 45:0.845234 46:-1.123665 47:-0.497594 48:-0.296309 49:0.182840 50:2.475353 51:1.991616 52:-0.619705 53:-0.535859 54:1.187486 55:0.235970 56:0.200508 57:-1.120641 58:1.235828 59:-1.233166 60:-0.117462 61:0.208808 62:-0.442305 63:0.658251 64:0.216817 65:1.262504 66:0.929001 67:-0.390441 68:0.700043 69:1.553462 70:0.398038
-1 1:-0.470322 2:0.303390 3:0.177901 4:-1.649534 5:0.962352 6:1.379223 7:0.832572 8:0.543267 9:-0.560873 10:1.217375 11:1.216598 12:-2.094650 13:-0.189783 14:-1.324363 15:0.237071 16:1.289985 17:0.813604 18:1.823462 19:1.198046 20:-1.936234 21:1.073320 22:-0.281445 23:0.095203 24:0.604831 25:-0.065654 26:-0.833838 27:0.814604 28:0.370850 29:1.394789 30:-1.250776 31:-0.605637 32:-0.772959 33:-1.449038 34:0.718809 35:0.502072 36:0.449125 37:1.074810 38:-0.640986 39:-0.362896 40:-1.763653 41:1.291046 42:-0.622022 43:-0.757678 44:-1.481321 45:-0.038523 46:-1.209698 47:0.749856 48:-0.734280 49:-1.269104 50:0.620352 51:-0.736652 52:-1.340495 53:2.170151 54:-0.653421 55:0.791319 56:0.133410 57:0.242252 58:0.476879 59:-1.708361 60:1.190298 61:-0.588893 62:-1.473024 63:-1.715681 64:0.584875 65:-1.287597 66:-1.466402 67:0.389163 68:-1.598249 69:1.431306 70:-1.316832
-1 1:0.410648 2:0.772640 3:0.521403 4:0.162283 5:1.256474 6:-1.390302 7:-0.124267 8:0.114081 9:-0.076619 10:0.757511 11:0.439593 12:0.831315 13:1.029862 14:-0.060662 15:0.925617 16:-0.376350 17:0.437698 18:0.601447 19:-0.342240 20:1.696735 21:-1.432263 22:-2.271602 23:1.064220 24:1.230439 25:0.701841 26:0.340235 27:0.298939 28:2.678014 29:0.031394 30:-0.353499 31:-0.006666 32:-0.829318 33:-0.753401 34:-1.393139 35:2.429720 36:-0.607825 37:-0.554967 38:-1.861279 39:-1.691372 40:0.657555 41:-1.079735 42:-1.755517 43:-0.622064 44:-1.857057 45:-0.916557 46:-0.690035 47:-0.121866 48:1.440679 49:0.272925 50:0.476035 51:0.446605 52:1.195566 53:-0.394319 54:0.431504 55:-0.636550 56:-0.890862 57:1.557046 58:-1.285171 59:0.627517 60:-0.104258 61:-1.428518 62:-0.835468 63:0.374195 64:0.161007 65:-0.481804 66:-1.207666 67:0.595980 68:-0.662740 69:-0.872200 70:-0.988185
-1 1:1.250254 2:0.398289 3:-0.373524 4:-0.492982 5:-1.671803 6:-1.171795 7:-0.476860 8:0.840942 9:-0.492106 10:-0.190815 11:-0.516445 12:-1.468989 13:0.908196 14:-0.857408 15:-0.185954 16:1.725815 17:-0.250650 18:-1.641499 19:0.805632 20:-0.269927 21:-0.783310 22:-0.212001 23:-1.127929 24:-1.593052 25:0.120219 26:0.353875 27:0.756990 28:-0.136562 29:1.905450 30:-0.552577 31:0.428937 32:0.287296 33:-0.107051 34:0.261351 35:0.920317 36:-0.215745 37:1.401912 38:0.415124 39:-0.160611 40:1.165725 41:-0.717141 42:-0.647792 43:-1.916734 44:0.756146 45:-1.360644 46:0.449608 47:-0.109544 48:-0.416210 49:0.608664 50:0.436907 51:0.450495 52:0.529136 53:0.199653 54:-1.120990 55:-1.241391 56:-1.720725 57:0.548284 58:-2.071658 59:-1.920486 60:-1.005853 61:-1.235353 62:-0.666589 63:0.808859 64:-0.938688 65:-1.108628 66:2.148580 67:-2.010163 68:0.571351 69:0.800208 70:0.303137
-1 1:-1.029077 2:-0.082448 3:-0.232051 4:-0.376213 5:1.202689 6:-0.771136 7:-0.617174 8:0.064141 9:-1.824804 10:0.741025 11:-0.513217 12:0.841401 13:0.053445 14:0.498994 15:-0.264844 16:1.448820 17:-2.840417 18:-0.046598 19:0.247560 20:-1.123318 21:-0.851020 22:0.348510 23:0.138397 24:0.138704 25:-0.138498 26:0.596178 27:-1.710009 28:-1.021611 29:-0.757565 30:0.138854 31:-0.712373 32:1.733743 33:1.364511 34:-0.764562 35:1.312478 36:-1.275255 37:0.130642 38:-0.657706 39:-0.410184 40:0.763730 41:-0.445474 42:-1.240340 43:1.955682 44:0.305313 45:0.380393 46:0.848880 47:-0.033265 48:-0.009755 49:1.880141 50:-0.358945 51:-1.373734 52:-0.012063 53:-1.073341 54:-1.604644 55:-1.271590 56:0.863571 57:-2.572817 58:1.645517 59:-0.036666 60:-0.033315 61:2.451696 62:-2.073315 63:0.976545 64:-0.676157 65:-0.273665 66:2.188965 67:2.607258 68:-0.217644 69:-1.633201 70:-1.969177
-1 1:-0.741381 2:-1.525141 3:0.976322 4:0.190693 5:0.531836 6:1.505688 7:-0.025653 8:-0.030516 9:0.045811 10:-0.119383 11:0.586050 12:-0.352284 13:0.611615 14:0.542657 15:0.753923 16:-0.213728 17:-0.971254 18:1.728515 19:-0.005340 20:0.319082 21:-1.203218 22:-0.334723 23:1.028402 24:0.416220 25:-0.912250 26:0.240300 27:0.502817 28:-0.051710 29:-0.037594 30:1.114898 31:0.820990 32:1.326616 33:-1.003203 34:0.254157 35:0.045170 36:1.355504 37:-0.112346 38:-1.342711 39:-0.817355 40:1.067848 41:-1.673106 42:1.477831 43:-0.530953 44:0.873421 45:1.246091 46:-1.224764 47:-0.244918 48:0.237287 49:0.092371 50:0.188508 51:-0.437973 52:0.467279 53:0.899110 54:-0.588423 55:-0.316648 56:-0.188262 57:1.954134 58:-0.458140 59:-1.746614 60:-1.477404 61:0.153826 62:0.591850 63:0.520967 64:-0.716398 65:-1.650829 66:-0.249897 67:-0.508689 68:0.635514 69:1.732010 70:-1.355688
-1 1:0.911021 2:0.987359 3:0.257214 4:-1.615288 5:-1.560671 6:0.516373 7:0.994055 8:0.723333 9:-1.061241 10:-2.606130 11:0.914790 12:-0.066086 13:0.416786 14:0.566120 15:0.487519 16:-0.769103 17:-0.355711 18:0.108218 19:-0.271497 20:-0.037404 21:0.619599 22:-0.567032 23:0.476406 24:0.017575 25:-0.802512 26:-0.362511 27:-0.842974 28:1.309492 29:1.724884 30:0.102835 31:1.070223 32:-0.567783 33:1.184140 34:-0.220508 35:-0.041936 36:-0.967628 37:-0.372508 38:0.421751 39:-0.365790 40:1.755686 41:-0.016644 42:0.723652 43:-1.167068 44:0.705682 45:-1.191413 46:0.528248 47:-0.838578 48:-0.415664 49:-0.174753 50:-0.235533 51:-0.533429 52:-0.890173 53:-0.119956 54:0.722284 55:2.269986 56:-0.082975 57:-0.640114 58:-0.195150 59:0.921880 60:1.351718 61:-0.519158 62:-0.956278 63:-0.477433 64:-0.833925 65:0.062467 66:0.894340 67:-0.001061 68:-2.684486 69:-0.496598 70:1.315009
-1 1:0.809635 2:-0.259455 3:0.410407 4:0.733354 5:-1.011108 6:0.241678 7:0.370052 8:-0.859011 9:-0.785060 10:0.096956 11:0.529396 12:-1.342015 13:-0.503722 14:1.574919 15:-1.552235 16:-0.097124 17:-0.634000 18:-0.765318 19:0.256892 20:0.475076 21:0.708131 22:1.089222 23:-0.910511 24:-0.722915 25:-0.209345 26:-0.031457 27:-2.139313 28:-1.647365 29:-1.520722 30:-1.212952 31:-2.133917 32:-0.466325 33:0.921222 34:0.203519 35:-0.036510 36:-0.771848 37:1.129572 38:-0.289305 39:-2.408417 40:0.332659 41:0.712537 42:0.470090 43:-0.164493 44:0.441969 45:0.675980 46:1.019672 47:0.230488 48:0.204442 49:0.160728 50:0.692199 51:-0.479156 52:-1.100185 53:-0.922588 54:0.458398 55:-0.995256 56:-0.405776 57:-0.596165 58:1.553358 59:-0.320216 60:-0.418406 61:0.165471 62:1.512590 63:0.869020 64:0.143998 65:1.075127 66:-2.622553 67:-0.774325 68:-0.435225 69:-0.348943 70:2.111075
-1 1:-0.264573 2:2.047406 3:1.171321 4:-0.995636 5:-1.380933 6:-0.545295 7:0.270273 8:-0.785762 9:-0.490678 10:-0.339168 11:-1.487327 12:-1.272329 13:-1.264522 14:0.179091 15:-1.297094 16:-0.170068 17:1.848051 18:-0.247968 19:-0.257140 20:0.568292 21:-0.089421 22:-2.785942 23:0.119335 24:-1.680099 25:0.325081 26:0.769002 27:0.511636 28:0.432327 29:-0.000688 30:-0.357410 31:-0.911884 32:-0.136093 33:0.052362 34:-0.697298 35:0.233455 36:-1.721982 37:0.463147 38:-0.856465 39:1.246068 40:-0.110775 41:0.593112 42:1.409720 43:0.768369 44:1.789332 45:0.049434 46:-0.115568 47:-0.375317 48:-0.397395 49:-0.403478 50:-0.906181 51:-0.235816 52:-1.078103 53:-0.182254 54:-0.279515 55:0.148144 56:-0.392203 57:1.633086 58:0.914797 59:-1.356214 60:0.311192 61:-0.459294 62:-0.226791 63:-0.903385 64:-0.054947 65:-0.183976 66:0.535012 67:-0.458658 68:0.589139 69:-0.947807 70:-0.444998
-1 1:0.696837 2:0.878770 3:-0.243583 4:1.375318 5:-1.803866 6:1.430599 7:0.361997 8:0.362738 9:0.233118 10:2.403225 11:0.554447 12:1.808383 13:-0.135349 14:-0.494864 15:-1.048665 16:-0.705310 17:1.582068 18:0.612303 19:-0.738006 20:0.282720 21:0.227586 22:-0.685389 23:1.137315 24:-0.536448 25:0.362089 26:-0.039900 27:-0.104505 28:-1.084841 29:-0.147770 30:0.481011 31:-0.219029 32:-1.065543 33:0.060364 34:0.181651 35:1.494875 36:-1.015141 37:-1.323854 38:0.442095 39:-0.509148 40:-1.299223 41:-1.736306 42:0.227487 43:0.560424 44:-0.732557 45:-0.450360 46:0.614188 47:-0.534564 48:1.415293 49:-0.012475 50:1.660257 51:0.015015 52:0.762445 53:0.781627 54:-0.991641 55:-0.500813 56:1.350066 57:0.908729 58:-0.194679 59:-0.301879 60:-0.382898 61:-0.074944 62:0.356950 63:-0.682970 64:0.822910 65:0.120966 66:-1.492722 67:-0.664062 68:0.713316 69:-0.827971 70:0.555791
-1 1:1.342465 2:0.857029 3:-0.256236 4:1.448541 5:-0.636451 6:1.361771 7:-0.283528 8:0.295934 9:-0.963571 10:1.134003 11:0.111151 12:0.666727 13:0.157574 14:-1.249205 15:1.444168 16:0.473705 17:-1.214533 18:-0.063498 19:1.649469 20:-0.625317 21:-0.233310 22:0.670008 23:-0.936306 24:1.160963 25:-0.462828 26:0.363365 27:-0.069459 28:-1.008092 29:0.943033 30:-0.812580 31:0.275811 32:-0.345994 33:-0.264112 34:-0.834804 35:1.919889 36:-0.024009 37:-0.795693 38:-1.441403 39:1.491815 40:2.249509 41:-0.994733 42:0.738020 43:-1.393834 44:-1.394563 45:-0.806507 46:1.875554 47:0.767957 48:-1.744643 49:1.032517 50:0.057550 51:0.384017 52:0.097672 53:-0.094368 54:0.146586 55:1.414202 56:-0.144593 57:0.998163 58:1.345921 59:0.261425 60:0.888535 61:-1.015744 62:0.031529 63:-1.364380 64:-0.701316 65:1.178650 66:1.048262 67:-0.218363 68:2.412600 69:-0.970688 70:-0.690145
-1 1:0.317391 2:0.377907 3:-0.008283 4:1.279518 5:0.194424 6:-0.376563 7:1.022058 8:-0.598770 9:-0.403709 10:-0.831778 11:-0.086327 12:0.828991 13:0.393626 14:-0.527168 15:-0.745928 16:0.836974 17:-1.237658 18:0.935147 19:-0.915883 20:-0.728943 21:-1.546965 22:-1.096132 23:2.352747 24:-0.084023 25:-1.339904 26:0.006611 27:1.307520 28:-1.416147 29:0.599270 30:0.597506 31:1.021453 32:0.655163 33:-0.440873 34:0.667791 35:-0.660084 36:-1.268261 37:0.722918 38:-0.809136 39:-2.250635 40:1.721417 41:0.846182 42:0.160715 43:0.057940 44:-1.631189 45:-1.323227 46:-0.308539 47:-2.056465 48:0.258709 49:0.215619 50:0.696448 51:1.942341 52:0.094840 53:1.587361 54:0.227593 55:0.119011 56:0.501770 57:0.616637 58:-0.274309 59:0.607298 60:-0.659051 61:-0.003808 62:0.414542 63:-1.921740 64:-0.459342 65:-0.393949 66:0.848402 67:0.153412 68:-1.583005 69:0.745652 70:0.579554
-1 1:0.575222 2:-1.151935 3:0.531541 4:-0.972255 5:-0.199256 6:1.983469 7:0.578051 8:0.620739 9:-1.972871 10:1.026734 11:1.095453 12:0.317101 13:0.860709 14:-0.213870 15:-0.070728 16:-1.410759 17:-0.535279 18:0.915665 19:1.066223 20:2.162656 21:-1.395906 22:-0.318411 23:0.392279 24:1.882756 25:-0.327626 26:-1.440420 27:1.521275 28:0.251018 29:-0.640854 30:-0.647361 31:-0.509624 32:1.612091 33:-0.312819 34:1.954884 35:1.503321 36:0.415577 37:0.084887 38:-0.298766 39:-0.534656 40:-0.571987 41:-0.675733 42:0.667127 43:-1.198790 44:0.017223 45:-0.306840 46:0.416426 47:-0.791289 48:0.928161 49:-0.539590 50:1.122992 51:3.014408 52:0.851412 53:-0.132937 54:-0.668923 55:-1.308017 56:-0.306920 57:-0.101304 58:1.450081 59:-1.973628 60:1.538101 61:0.515489 62:-0.382530 63:0.044242 64:-1.073421 65:0.599892 66:-1.015489 67:0.641341 68:-1.258393 69:-1.317802 70:1.494249
-1 1:-0.764058 2:0.945789 3:-2.892737 4:-0.220920 5:0.566587 6:0.226757 7:0.501533 8:1.670348 9:-0.799557 10:0.198124 11:-1.339942 12:2.079206 13:-1.238713 14:0.227222 15:-0.925825 16:-0.603520 17:0.902297 18:0.209083 19:0.722718 20:0.027942 21:0.444636 22:-1.472440 23:0.569249 24:-0.916909 25:2.094101 26:0.408439 27:-0.016726 28:-0.559718 29:-2.016009 30:-0.144639 31:0.298862 32:0.371949 33:0.743612 34:-1.274855 35:-0.481822 36:-1.644878 37:1.008435 38:-0.358393 39:-0.213054 40:0.748531 41:1.226778 42:-1.701650 43:-1.917237 44:-0.158424 45:0.605264 46:0.901822 47:1.080493 48:1.196395 49:1.383044 50:-0.361834 51:-0.425032 52:-1.030316 53:1.948220 54:0.501230 55:-1.158633 56:1.159830 57:-1.111192 58:-0.162233 59:0.473179 60:-0.341693 61:0.749412 62:0.832135 63:0.322087 64:0.355744 65:1.060849 66:-1.933115 67:1.385401 68:0.018348 69:0.021735 70:0.181201
-1 1:0.538076 2:-0.312259 3:-0.002461 4:0.114499 5:1.300874 6:-0.729753 7:0.574662 8:-0.793352 9:1.199332 10:-0.537282 11:-0.250475 12:0.082449 13:-1.704397 14:-1.930848 15:1.765723 16:-0.549270 17:0.425578 18:-0.987407 19:-1.164803 20:0.136238 21:1.756585 22:-0.375160 23:-0.797638 24:1.244614 25:0.876840 26:-0.531209 27:0.369703 28:1.586796 29:-2.292090 30:-1.032863 31:0.923006 32:-1.022273 33:-1.484538 34:0.177260 35:-0.284835 36:-1.710559 37:0.989558 38:-0.237246 39:1.155790 40:0.320225 41:-2.140154 42:1.238852 43:0.033960 44:-1.314580 45:-1.217954 46:-0.700352 47:1.122196 48:0.197618 49:-0.720103 50:-0.653654 51:-0.274710 52:-0.288112 53:-1.322501 54:-1.055918 55:0.331420 56:-0.070346 57:0.656981 58:-1.127972 59:-0.211154 60:-1.420767 61:-0.078337 62:-0.901113 63:1.351129 64:0.570220 65:0.080023 66:-0.999115 67:1.334782 68:-1.290928 69:0.733431 70:-0.179714
-1 1:-0.308933 2:0.909478 3:-0.308001 4:1.816341 5:1.344667 6:0.942089 7:-0.541422 8:0.348587 9:0.467009 10:-1.283609 11:-1.585577 12:-2.551728 13:-0.943179 14:-1.038170 15:0.927841 16:-0.297584 17:-0.817178 18:1.155475 19:1.660770 20:-1.171282 21:-1.815115 22:-1.737267 23:-1.901168 24:-1.556737 25:0.367083 26:-0.172542 27:0.763232 28:0.182916 29:-0.421765 30:-1.439736 31:0.362502 32:-0.991981 33:-0.419087 34:0.003572 35:-0.671009 36:-0.000956 37:-0.181050 38:0.035090 39:1.174940 40:-1.511424 41:0.838741 42:1.212708 43:-1.397492 44:-0.732776 45:-0.308064 46:0.698267 47:-0.147935 48:0.226884 49:-0.500869 50:1.375216 51:0.315365 52:-0.178102 53:0.523746 54:0.195654 55:0.102447 56:1.482301 57:-1.759765 58:-3.118683 59:0.333459 60:-0.188038 61:-0.500861 62:1.804151 63:1.314709 64:-0.158951 65:0.419007 66:0.680819 67:-1.996179 68:0.483695 69:-0.058692 70:-0.234342
-1 1:0.080669 2:0.185936 3:-1.143659 4:1.315845 5:0.849958 6:-1.604250 7:0.771012 8:-1.628980 9:-1.203038 10:-0.789118 11:1.306764 12:-1.651073 13:-1.022141 14:0.523313 15:0.716315 16:0.175196 17:-1.219246 18:-0.382133 19:-0.833157 20:-1.479010 21:1.609656 22:-0.657570 23:-1.175765 24:0.058803 25:1.517414 26:-2.549318 27:-0.931135 28:0.040499 29:-0.140305 30:0.067368 31:2.105240 32:-0.376403 33:-0.081666 34:-0.601616 35:-1.165818 36:-1.617137 37:-0.117643 38:-0.206790 39:-1.626747 40:2.703480 41:0.228548 42:-1.680985 43:0.196961 44:-0.042206 45:-0.135863 46:0.562568 47:0.038768 48:-0.695696 49:-1.407545 50:-0.768305 51:2.566531 52:-0.034273 53:0.290205 54:-0.611832 55:0.770224 56:1.901107 57:0.644377 58:-0.297599 59:-0.196020 60:0.249854 61:-1.444943 62:1.210822 63:0.360262 64:1.170708 65:0.263485 66:-0.925221 67:-1.141290 68:-1.052106 69:-0.744081 70:0.247256
-1 1:-1.782067 2:-0.315909 3:-0.462362 4:0.059866 5:-1.194350 6:-0.543908 7:-0.522772 8:1.168818 9:-1.132925 10:-1.563255 11:-0.276953 12:0.543806 13:-1.082939 14:0.042062 15:0.772966 16:-0.480186 17:-0.611784 18:-0.656512 19:-0.501934 20:-1.459499 21:-1.812371 22:-0.733662 23:1.174397 24:-1.089947 25:1.538893 26:0.763232 27:-1.761639 28:-0.858224 29:0.162768 30:-1.053514 31:0.106599 32:-0.938146 33:0.971845 34:-0.108258 35:-2.152058 36:1.759818 37:0.657997 38:-1.531471 39:-0.467152 40:1.065797 41:0.564792 42:-1.019644 43:-0.349221 44:0.106404 45:1.557253 46:-0.140358 47:-0.531457 48:-1.247241 49:-1.116150 50:-0.844961 51:1.771285 52:-1.484426 53:-0.231280 54:-0.085073 55:0.139317 56:-0.614950 57:1.234753 58:-1.502423 59:0.593297 60:-0.895149 61:-1.765310 62:1.218502 63:0.777092 64:1.595202 65:0.730203 66:-1.826773 67:0.157294 68:0.891548 69:0.669739 70:-0.461080
-1 1:-0.496209 2:1.033401 3:-1.705510 4:1.019391 5:0.471678 6:-1.124000 7:-1.054072 8:-0.196457 9:0.557766 10:-0.115075 11:-0.520708 12:0.509812 13:-0.379385 14:2.972377 15:-0.325447 16:0.502470 17:-0.927809 18:0.756508 19:-0.283467 20:-0.500604 21:0.006651 22:1.197732 23:0.588342 24:-0.710653 25:-0.354216 26:0.333759 27:1.104552 28:-1.624850 29:0.144046 30:1.992630 31:0.515587 32:0.233318 33:-1.433593 34:-0.094864 35:0.892520 36:-0.211735 37:-0.608525 38:-0.488215 39:1.320679 40:-0.858410 41:0.352114 42:1.123541 43:1.413500 44:-0.240944 45:0.721319 46:0.628631 47:0.817192 48:0.728011 49:-0.546206 50:-0.378430 51:-2.077576 52:-1.961611 53:0.625267 54:-0.141161 55:1.313731 56:0.062927 57:3.711301 58:-0.230418 59:0.670239 60:-0.609311 61:-0.327526 62:-0.841718 63:-0.702492 64:-0.058099 65:0.266237 66:-1.323001 67:-0.797694 68:1.314823 69:-0.416509 70:0.175292
-1 1:2.647835 2:0.966627 3:-1.357153 4:-1.197254 5:1.065366 6:-1.095744 7:-0.591880 8:0.848321 9:0.187580 10:0.712896 11:0.573484 12:-1.737790 13:-1.216691 14:-2.204052 15:0.493382 16:0.277324 17:-0.481270 18:-0.496295 19:-1.649520 20:-0.255638 21:0.474104 22:1.493666 23:-0.482873 24:-0.415814 25:-0.783565 26:-1.184682 27:-0.268121 28:0.615016 29:-0.489800 30:-1.131135 31:0.300064 32:0.719752 33:-0.140510 34:-0.911383 35:-2.094418 36:0.248320 37:-1.481279 38:-1.120798 39:0.967243 40:0.643728 41:-0.153845 42:2.736206 43:-0.265648 44:-2.810998 45:-0.908698 46:-0.286440 47:1.207601 48:-0.278317 49:0.713320 50:0.241973 51:0.112724 52:-0.505096 53:-1.554681 54:-3.122889 55:0.428200 56:0.623723 57:0.510652 58:1.819213 59:0.534773 60:-0.206759 61:0.008279 62:0.203095 63:-1.140227 64:-1.033416 65:-0.615627 66:0.035537 67:-0.613463 68:1.476972 69:1.470372 70:-1.369468
-1 1:-0.626256 2:2.448290 3:-1.443514 4:-1.459594 5:-1.011631 6:-1.136409 7:-0.530617 8:-1.206661 9:0.777914 10:0.184696 11:1.449187 12:1.857761 13:-1.038520 14:1.120846 15:-0.166952 16:1.612757 17:-1.099620 18:-0.046176 19:0.274015 20:0.929171 21:0.755307 22:0.265098 23:-0.841521 24:-2.065398 25:0.854476 26:-0.728136 27:-0.472081 28:0.687802 29:1.282227 30:0.060674 31:0.505959 32:0.068017 33:-1.480308 34:-0.032532 35:-0.128304 36:-1.215204 37:-1.310149 38:1.092438 39:-1.770133 40:-1.461878 41:1.285990 42:0.935561 43:1.194620 44:-1.244231 45:-0.083183 46:-1.838819 47:0.218421 48:0.609455 49:1.892127 50:0.394597 51:-1.787618 52:-0.259112 53:0.588731 54:-0.020281 55:1.046067 56:-0.104110 57:1.195227 58:0.802915 59:2.703062 60:-0.656494 61:0.192093 62:0.192148 63:1.403957 64:0.421481 65:1.480070 66:1.379400 67:-1.065357 68:0.806307 69:0.929433 70:-0.293557
-1 1:2.007751 2:0.529652 3:0.283690 4:1.029246 5:0.082438 6:0.399936 7:-0.444224 8:-0.230610 9:1.661190 10:0.755336 11:-0.044642 12:0.475461 13:-1.156584 14:1.363250 15:0.290645 16:-0.372476 17:-1.734417 18:-1.489873 19:-0.447622 20:0.148323 21:-0.788713 22:-1.028981 23:-1.139310 24:-0.346755 25:0.732941 26:0.009691 27:0.875446 28:0.661432 29:0.147456 30:-0.555957 31:0.429998 32:-0.078905 33:-0.586795 34:0.367576 35:-0.493990 36:-0.014720 37:-0.141423 38:-0.108257 39:-1.224167 40:0.091218 41:-0.435986 42:1.043265 43:-0.727604 44:-0.647599 45:0.576242 46:0.706566 47:-0.521425 48:-0.688861 49:0.450095 50:1.013854 51:-1.707323 52:-0.766737 53:1.458609 54:0.702991 55:0.685544 56:0.037971 57:-1.462373 58:-1.952775 59:0.520599 60:-0.043882 61:0.218160 62:0.922652 63:-0.988024 64:0.297304 65:0.238093 66:0.349164 67:-0.181797 68:-1.305315 69:0.240719 70:-1.033138
-1 1:-0.405261 2:0.254018 3:-0.643532 4:0.856975 5:1.835081 6:1.752079 7:1.434820 8:-0.905679 9:1.147596 10:-0.916039 11:-0.361477 12:0.441846 13:0.907902 14:2.806402 15:-1.717581 16:-0.513688 17:-0.666638 18:-2.026642 19:0.429329 20:-0.936905 21:-1.281554 22:-1.274428 23:0.692629 24:0.531123 25:1.202608 26:1.548216 27:-1.986141 28:0.666837 29:-0.687944 30:0.223713 31:-0.308926 32:-1.263613 33:0.261954 34:1.346493 35:-0.064118 36:-0.402273 37:1.501908 38:0.850158 39:-1.118712 40:-0.115523 41:0.683783 42:0.508491 43:0.642870 44:0.472071 45:0.680088 46:0.618498 47:-1.170563 48:-0.642983 49:-0.533381 50:1.196182 51:0.503146 52:0.060956 53:-0.386796 54:0.482083 55:2.675432 56:0.791617 57:-0.557608 58:-0.332936 59:0.573033 60:-0.007454 61:-0.403095 62:-1.666979 63:-1.239817 64:1.340691 65:0.232210 66:0.591104 67:-1.941100 68:0.854557 69:-0.490639 70:0.538664
-1 1:-0.538819 2:1.612490 3:1.451107 4:0.616989 5:-1.177527 6:2.347755 7:-1.340542 8:-0.723681 9:0.351564 10:-1.270652 11:0.530021 12:1.208860 13:-1.669678 14:-0.142287 15:-0.347984 16:1.067920 17:0.795159 18:1.847670 19:-0.701060 20:-1.738435 21:0.507131 22:0.047395 23:-0.093610 24:-0.443215 25:-1.495380 26:0.604841 27:-0.181367 28:0.758585 29:-0.463147 30:1.056676 31:-0.521482 32:1.640251 33:-0.607731 34:1.490481 35:0.777478 36:-0.563333 37:1.194802 38:-0.201522 39:-1.063223 40:0.398616 41:-0.404010 42:0.442453 43:-1.818596 44:-1.885880 45:-0.347836 46:-1.131600 47:1.602794 48:0.932424 49:-0.249365 50:1.057430 51:1.606705 52:1.520713 53:-1.597411 54:2.898835 55:0.451973 56:-0.438050 57:-0.340672 58:-1.165950 59:-1.107829 60:-0.060810 61:0.154102 62:-0.574054 63:-1.843526 64:-0.639217 65:0.455585 66:-0.902249 67:0.028045 68:-0.911275 69:0.030094 70:-0.168077
-1 1:0.835913 2:-0.309890 3:-1.206825 4:0.608752 5:0.430350 6:-0.958090 7:-1.182319 8:-1.729369 9:0.862722 10:0.378141 11:0.781014 12:-0.064854 13:-1.054047 14:0.674132 15:0.607268 16:-0.017628 17:-0.325856 18:0.024660 19:0.739287 20:0.791571 21:2.399180 22:-0.158954 23:-0.589627 24:-0.895454 25:-0.224788 26:1.470948 27:0.651407 28:-1.548471 29:0.309222 30:-0.229548 31:-0.433508 32:0.216247 33:-0.526013 34:-0.715469 35:-0.447663 36:-0.014549 37:-0.688631 38:1.062126 39:-0.736512 40:0.700658 41:0.701756 42:0.596467 43:-0.874188 44:1.854478 45:0.094249 46:-0.196891 47:-0.362913 48:0.674159 49:-0.240570 50:1.147799 51:0.047006 52:-0.659170 53:-0.378132 54:-0.888833 55:-2.055020 56:-1.094004 57:-0.356486 58:0.379878 59:0.357942 60:0.123493 61:-1.709496 62:-0.792486 63:-0.509553 64:1.148519 65:-1.257559 66:-2.007673 67:-0.179252 68:0.210327 69:0.407414 70:1.566722
-1 1:-1.373074 2:-1.376771 3:0.381031 4:0.345274 5:1.113915 6:-0.013392 7:-1.232355 8:0.675973 9:1.269959 10:-1.244746 11:-0.040249 12:0.514760 13:-1.091195 14:0.851512 15:0.190275 16:0.231308 17:0.767576 18:-1.727795 19:-0.631921 20:-0.064864 21:-0.760723 22:0.096296 23:0.311399 24:-1.304526 25:-0.271231 26:1.922400 27:-2.983469 28:-0.733082 29:0.404680 30:-1.962643 31:-0.642639 32:-0.513337 33:-0.574304 34:-1.094463 35:-0.643297 36:-0.108725 37:-0.315261 38:-1.282192 39:-0.275378 40:-0.108861 41:2.767696 42:-2.514535 43:-0.508333 44:-0.428989 45:1.602696 46:0.195868 47:0.049999 48:0.901265 49:-0.162135 50:-0.100008 51:0.476204 52:0.795816 53:1.248131 54:1.376044 55:-1.596343 56:-0.113561 57:1.866486 58:-0.844317 59:-1.443891 60:0.879428 61:0.688273 62:-0.881191 63:-0.322829 64:0.434620 65:-1.707840 66:0.096063 67:0.396693 68:-2.343685 69:0.152343 70:0.750703
-1 1:-0.110724 2:0.795724 3:1.539742 4:-0.032776 5:-0.003912 6:0.338691 7:-0.935603 8:-0.970912 9:-1.053133 10:-0.937616 11:0.958191 12:0.561678 13:0.155774 14:-0.928483 15:0.087244 16:1.844402 17:0.416228 18:-0.630219 19:0.984548 20:0.619020 21:1.943492 22:-2.798194 23:1.194153 24:-0.487887 25:-0.078426 26:0.564546 27:0.099289 28:0.375480 29:0.535816 30:0.677294 31:-0.198207 32:0.355917 33:-0.480042 34:-1.273390 35:-1.152711 36:-0.526447 37:0.891350 38:0.880807 39:-0.851230 40:0.357056 41:0.213245 42:-1.086924 43:-0.371923 44:0.386911 45:0.553734 46:-0.600369 47:-0.112679 48:-0.106056 49:-1.655164 50:1.187752 51:-0.166005 52:1.179506 53:-0.382294 54:0.688564 55:-0.388773 56:0.822911 57:-0.716197 58:1.897446 59:-0.805667 60:-2.543229 61:-0.137983 62:0.088124 63:0.910180 64:0.202217 65:1.404045 66:-0.326187 67:1.820894 68:-1.389616 69:0.025049 70:0.266666
-1 1:-1.154496 2:0.187488 3:-0.581193 4:0.530183 5:-0.954431 6:-0.282950 7:-0.126134 8:0.735858 9:0.295135 10:2.041680 11:-0.552595 12:1.857803 13:-0.153121 14:1.530240 15:0.080529 16:-0.393473 17:-2.554325 18:0.322863 19:-0.373858 20:-0.128195 21:1.515606 22:-2.643109 23:0.657680 24:-0.522600 25:0.715775 26:-0.733585 27:-1.463391 28:-0.370789 29:1.470681 30:-0.546390 31:-0.805816 32:-0.422061 33:-0.126970 34:0.809138 35:0.874856 36:2.060076 37:0.081178 38:2.111987 39:-0.672180 40:1.100958 41:0.436693 42:1.070200 43:2.435644 44:1.172915 45:-1.461706 46:-0.615095 47:-0.504607 48:0.361289 49:0.135665 50:0.962608 51:-1.683251 52:0.847774 53:1.848334 54:0.758686 55:1.857510 56:0.462357 57:-0.222006 58:0.550285 59:-0.003804 60:0.337198 61:-0.235626 62:0.015757 63:1.406188 64:-0.863502 65:-1.182734 66:-0.546031 67:0.581717 68:0.930485 69:1.336491 70:1.720217
-1 1:-1.357230 2:0.432632 3:0.186221 4:1.898349 5:0.288972 6:1.519421 7:-0.430231 8:0.377225 9:0.420732 10:-0.010897 11:-0.627060 12:0.527006 13:-0.844809 14:-0.943380 15:-0.814151 16:0.109635 17:-1.422444 18:0.610287 19:1.620166 20:0.154825 21:0.708545 22:-1.036981 23:-0.058486 24:-2.001472 25:-1.677547 26:0.670596 27:-0.697557 28:-2.377219 29:-0.054856 30:0.697024 31:1.561848 32:1.187573 33:-0.602347 34:1.532414 35:1.100367 36:0.244697 37:-0.100363 38:-0.784979 39:-0.264787 40:0.137387 41:-0.268424 42:-0.025220 43:2.706934 44:-0.416240 45:1.256356 46:-0.467060 47:-0.164451 48:-0.902188 49:-0.981946 50:1.163257 51:-0.487605 52:-0.780470 53:0.379491 54:-0.716310 55:0.825170 56:-0.398701 57:0.433270 58:1.226168 59:-0.950597 60:1.699471 61:1.318766 62:-1.220801 63:0.292108 64:0.502904 65:1.141857 66:0.539455 67:0.871258 68:-0.817625 69:0.355524 70:-0.433038
-1 1:-1.032666 2:0.130870 3:0.181416 4:1.185824 5:-0.985761 6:-0.464274 7:-0.720645 8:0.808906 9:0.910208 10:-0.034732 11:-1.517396 12:0.281834 13:-0.731447 14:-0.268416 15:-0.007131 16:0.428402 17:-0.935573 18:-0.713489 19:-2.029123 20:1.198124 21:-0.351965 22:-1.097391 23:2.070736 24:-0.781105 25:0.676961 26:1.022209 27:1.324189 28:2.079532 29:1.268652 30:0.983337 31:-1.411663 32:0.160540 33:1.715897 34:-1.287991 35:-1.547095 36:-1.753714 37:-0.815772 38:-0.104007 39:-0.282874 40:-0.873857 41:0.961351 42:2.567222 43:-1.520158 44:1.722399 45:1.301844 46:0.117520 47:0.433387 48:0.008205 49:0.302948 50:-0.115163 51:0.660890 52:-1.153099 53:-0.829438 54:0.483101 55:0.366500 56:1.534210 57:-0.506536 58:-0.411207 59:0.623883 60:-0.918803 61:0.237100 62:0.373690 63:0.724056 64:-0.070943 65:1.924341 66:-0.242821 67:0.506732 68:2.253576 69:1.227572 70:0.789162
-1 1:-2.450344 2:2.542695 3:-0.936746 4:-0.258297 5:-0.420513 6:0.288033 7:0.376012 8:0.075585 9:-0.018169 10:0.859284 11:0.950923 12:-1.128239 13:-0.763922 14:-0.583308 15:-2.462460 16:0.701260 17:0.418105 18:0.259808 19:0.989312 20:-0.284911 21:-0.876686 22:-0.743061 23:2.024968 24:-0.350107 25:-0.175275 26:-0.205176 27:-0.180216 28:2.528120 29:1.365486 30:-0.542057 31:-0.060939 32:-1.474761 33:-0.233743 34:0.483790 35:0.259533 36:0.191763 37:-0.528824 38:-1.210388 39:0.023843 40:0.540665 41:1.125810 42:-2.472757 43:1.257676 44:1.563023 45:-0.440572 46:0.232568 47:0.061317 48:-1.174485 49:1.177647 50:1.435572 51:-0.234376 52:0.274272 53:-0.406143 54:-1.872719 55:0.543477 56:-0.165691 57:0.521605 58:1.914714 59:-0.396592 60:1.099183 61:-0.076158 62:2.136053 63:-0.065521 64:-0.377113 65:1.447022 66:-0.443634 67:0.950430 68:-1.545709 69:1.017933 70:0.736782
-1 1:1.042297 2:-0.277477 3:-1.480644 4:-1.074495 5:0.895224 6:-0.601531 7:-1.380993 8:0.399684 9:-0.438150 10:0.700757 11:0.862517 12:0.507642 13:-0.256357 14:1.182454 15:0.937299 16:1.440366 17:0.546164 18:-0.529646 19:-1.226181 20:-1.216858 21:0.785353 22:1.477439 23:-1.255620 24:0.266538 25:-0.418456 26:-0.301802 27:0.236754 28:-0.933204 29:-0.516720 30:2.446594 31:-1.099607 32:0.731126 33:-1.290781 34:-0.474685 35:-0.853011 36:-0.573678 37:0.499683 38:0.710549 39:1.095911 40:0.550116 41:0.665860 42:0.220545 43:-1.407036 44:-0.447854 45:-2.061624 46:1.147609 47:-0.617305 48:-1.069697 49:-0.304724 50:0.596708 51:-0.284537 52:0.233695 53:-0.301801 54:1.668441 55:-1.147462 56:2.100027 57:0.243833 58:2.382462 59:-2.196867 60:-0.201433 61:0.280329 62:1.373471 63:1.381656 64:-0.912643 65:-0.756116 66:0.137987 67:0.180066 68:1.090260 69:-0.076481 70:0.847251
-1 1:-0.518085 2:-1.675585 3:-0.728541 4:1.903271 5:0.867378 6:1.187146 7:0.573695 8:-1.322438 9:0.858657 10:0.340749 11:-1.429402 12:-1.078460 13:0.179525 14:-2.633579 15:-1.550918 16:-0.127251 17:0.350688 18:1.143169 19:0.179755 20:-1.510574 21:-0.087442 22:-1.277115 23:-0.861370 24:-1.029068 25:0.338986 26:-0.959285 27:-1.565651 28:0.232864 29:0.569315 30:1.482087 31:-0.512911 32:0.875013 33:-1.318629 34:1.130792 35:0.840726 36:0.648343 37:1.351537 38:-0.317418 39:-0.327330 40:0.632792 41:-0.154592 42:0.864016 43:0.771187 44:-1.099479 45:0.812470 46:-0.461842 47:0.913976 48:0.760553 49:0.069215 50:-0.331479 51:-0.669602 52:0.347528 53:-0.100926 54:1.549203 55:0.193633 56:0.649846 57:0.146003 58:-1.358461 59:2.910255 60:1.282602 61:0.886582 62:1.208568 63:1.424410 64:-1.114543 65:0.321280 66:0.554703 67:0.685437 68:-1.056368 69:-1.042476 70:-0.722079
-1 1:1.747328 2:0.037566 3:1.830097 4:0.986853 5:0.347063 6:0.293588 7:-0.158128 8:0.837563 9:1.423010 10:-1.098220 11:-0.786920 12:2.005646 13:-0.298424 14:0.942386 15:-1.295751 16:0.007036 17:1.677668 18:-1.736944 19:-1.516789 20:0.866423 21:-2.454415 22:0.680704 23:-2.507121 24:0.464809 25:-0.034731 26:-0.458683 27:1.038235 28:1.031266 29:-1.510232 30:1.043052 31:1.338718 32:-0.278580 33:-1.629368 34:1.722432 35:2.098383 36:-0.197187 37:0.051003 38:1.377643 39:-0.306834 40:-2.601198 41:-0.798198 42:0.788757 43:-0.458704 44:1.177286 45:-0.541438 46:-0.635863 47:-2.256534 48:-1.335197 49:-0.249098 50:1.500125 51:-0.897864 52:-0.087594 53:0.917860 54:-0.940585 55:0.737779 56:-1.740264 57:0.331989 58:-0.639120 59:-0.461017 60:-2.046786 61:1.293447 62:-0.129684 63:1.256379 64:-1.726084 65:2.456717 66:0.007486 67:-0.394835 68:-0.360838 69:0.531233 70:1.111562
-1 1:-1.033870 2:-0.129614 3:-0.140375 4:0.461313 5:0.395302 6:-0.404011 7:0.788038 8:-0.372327 9:0.035802 10:0.781308 11:0.017951 12:0.575258 13:-0.869597 14:-0.375456 15:-0.594244 16:1.233680 17:-0.091444 18:-0.380660 19:-1.057178 20:-1.788544 21:0.150917 22:-0.735092 23:-0.252321 24:0.415057 25:0.818381 26:-0.895555 27:0.233472 28:0.798877 29:-0.784330 30:0.958545 31:0.219290 32:-0.027278 33:1.436332 34:0.103717 35:-0.686367 36:1.375926 37:1.475834 38:0.225350 39:-0.188437 40:1.225244 41:1.206508 42:-0.396772 43:0.342185 44:-0.631571 45:0.430689 46:-0.315365 47:1.203885 48:0.737230 49:-1.282576 50:-1.045444 51:-1.090519 52:0.772871 53:1.336344 54:0.584443 55:0.130159 56:0.036277 57:0.941082 58:-0.078198 59:0.929989 60:1.259812 61:-0.501254 62:0.624646 63:0.178111 64:-1.139806 65:-0.464437 66:-0.917919 67:0.506238 68:1.596028 69:-0.611123 70:0.321311
-1 1:-0.310298 2:0.245850 3:0.123474 4:0.787846 5:-0.555978 6:-2.082213 7:1.878753 8:-0.149134 9:-2.082980 10:-0.166254 11:-0.222941 12:-0.698706 13:-1.267869 14:0.801967 15:-0.167335 16:-1.143430 17:-1.575914 18:1.564180 19:-0.086184 20:-0.094516 21:0.643071 22:-0.338332 23:-0.127730 24:-1.133203 25:0.903967 26:0.085607 27:0.245106 28:0.949673 29:0.406293 30:0.699480 31:0.283160 32:0.412729 33:0.055651 34:0.473096 35:-1.750295 36:0.083939 37:0.088164 38:1.793366 39:-0.746304 40:-0.650002 41:1.251166 42:0.406415 43:-1.770516 44:-1.151061 45:-1.607260 46:1.026101 47:1.546520 48:0.488058 49:0.989405 50:-0.561659 51:0.555541 52:1.086261 53:0.558265 54:-0.584746 55:0.799961 56:-0.492092 57:-1.114948 58:-0.225266 59:0.306833 60:0.605859 61:0.817453 62:0.305923 63:-0.141816 64:-1.249299 65:0.162180 66:1.246963 67:-0.599097 68:1.426063 69:0.489135 70:-1.267775
-1 1:0.121842 2:0.434301 3:-0.160037 4:-0.224205 5:-1.468267 6:-0.236294 7:-1.136490 8:0.773049 9:-1.267632 10:-0.956048 11:0.589152 12:0.481758 13:0.671395 14:-0.965151 15:-2.107479 16:-0.581133 17:1.916990 18:-0.454525 19:0.224116 20:-1.927511 21:-1.543291 22:0.699708 23:0.241113 24:-0.381951 25:0.201582 26:-1.935155 27:0.251477 28:0.836654 29:0.424905 30:0.031549 31:-0.203944 32:-0.032821 33:-1.064313 34:0.233144 35:-1.520868 36:1.035239 37:0.115013 38:-0.665622 39:-1.011172 40:1.010019 41:-0.872571 42:0.390574 43:-0.763324 44:-1.447080 45:0.482664 46:1.001094 47:-0.700325 48:1.002235 49:1.711181 50:2.469338 51:-0.167859 52:0.757020 53:1.251606 54:1.490378 55:-1.304129 56:0.403997 57:0.894379 58:-0.356034 59:1.233739 60:0.185073 61:1.166449 62:0.459952 63:-0.610303 64:0.603052 65:1.619993 66:1.756373 67:0.885643 68:-0.486528 69:-0.130906 70:-0.320998
-1 1:-0.311972 2:-0.490954 3:0.138852 4:0.764634 5:1.365024 6:0.401749 7:1.155359 8:0.705246 9:0.894371 10:-0.687918 11:0.479296 12:-0.826171 13:0.378868 14:1.675875 15:-0.370115 16:-0.910989 17:-0.324467 18:0.267551 19:2.049640 20:-0.900483 21:-0.124807 22:0.295606 23:-1.010365 24:0.567234 25:1.707213 26:1.353094 27:-0.313226 28:0.531831 29:-0.007815 30:2.215913 31:-0.360696 32:2.339168 33:0.931858 34:0.385772 35:-2.131900 36:-1.177225 37:0.029175 38:1.663292 39:-0.758198 40:0.008687 41:0.892439 42:0.206947 43:-1.251327 44:1.333682 45:-0.081263 46:-0.521759 47:0.062973 48:-0.345211 49:-2.440963 50:-0.314433 51:1.371319 52:-0.780749 53:0.553061 54:-2.410639 55:-1.918716 56:0.228310 57:0.651455 58:-0.832331 59:0.520908 60:-0.182389 61:2.214366 62:-1.526474 63:1.378571 64:0.933731 65:-1.067790 66:-0.479026 67:2.195465 68:-0.247543 69:-2.295687 70:-0.140390
-1 1:0.989011 2:0.117803 3:-0.090182 4:-0.230267 5:-1.961673 6:-0.570906 7:0.258558 8:-0.139030 9:-0.587898 10:0.595983 11:-1.068184 12:2.217263 13:0.536157 14:1.296046 15:-1.218673 16:1.529855 17:-0.289577 18:1.159229 19:1.512538 20:-1.440936 21:0.997651 22:-0.170877 23:-0.433729 24:-1.075161 25:-0.103464 26:0.474502 27:-1.878478 28:-1.179193 29:-0.780019 30:-0.868936 31:-0.041652 32:1.854351 33:0.921981 34:0.809816 35:-0.301599 36:-0.055041 37:1.639987 38:-0.088068 39:0.213321 40:-1.388884 41:2.018979 42:-0.758564 43:1.561186 44:-0.703436 45:-0.971605 46:-2.286441 47:-0.224026 48:0.632777 49:0.470913 50:-1.506691 51:0.254489 52:0.130582 53:0.204652 54:-0.241399 55:0.446682 56:0.240906 57:-0.710678 58:-1.284401 59:0.517633 60:-0.452334 61:0.560254 62:0.055466 63:0.819793 64:-0.580760 65:0.472231 66:-0.476087 67:-0.846969 68:-1.672606 69:-0.417898 70:-1.118042
-1 1:1.375590 2:-0.865443 3:-0.767152 4:-1.129198 5:0.174807 6:-0.231290 7:0.765242 8:0.567174 9:0.492494 10:-1.190903 11:-0.543012 12:0.260664 13:2.477323 14:0.113288 15:0.473822 16:1.152601 17:1.351232 18:-0.211284 19:-0.137974 20:-0.195752 21:-0.256581 22:-0.552381 23:1.150307 24:-1.269677 25:-0.391635 26:-0.910892 27:-0.099482 28:-0.071162 29:1.023575 30:0.759208 31:0.719424 32:-0.188680 33:-0.572038 34:0.000273 35:1.028934 36:0.344397 37:-0.100491 38:0.465154 39:0.731515 40:0.222909 41:-0.069012 42:-0.337195 43:0.043348 44:-1.229065 45:-0.525527 46:0.176752 47:-1.408093 48:-0.099064 49:0.197188 50:0.174627 51:-0.456543 52:0.447796 53:-1.430000 54:-1.549167 55:-1.997926 56:0.539733 57:1.428898 58:0.731190 59:-0.440181 60:0.368577 61:0.169726 62:0.321382 63:0.353271 64:-0.356683 65:-0.048893 66:-0.266258 67:-0.543063 68:0.984798 69:-0.840185 70:-0.109827
-1 1:-0.326752 2:-1.990511 3:-0.025147 4:-1.264999 5:-0.129157 6:-1.214481 7:1.606999 8:-1.124731 9:0.237222 10:-2.091013 11:0.326295 12:0.308538 13:-0.883560 14:0.556534 15:-0.197281 16:-0.168280 17:0.353520 18:-0.413725 19:-1.266740 20:0.954633 21:-1.040010 22:-0.039489 23:-0.644139 24:1.630006 25:1.315290 26:0.280922 27:1.230294 28:0.339251 29:0.150394 30:0.075138 31:-1.423554 32:-0.493798 33:0.856590 34:-0.511325 35:1.313495 36:-0.294889 37:1.133438 38:0.037329 39:-1.228835 40:-1.076586 41:0.504883 42:-1.577762 43:-0.978133 44:-0.683502 45:1.515254 46:0.961736 47:-0.819960 48:-0.396822 49:1.202484 50:1.008550 51:0.517179 52:-1.356739 53:-1.624180 54:0.542127 55:-0.210560 56:-0.334696 57:1.266198 58:0.499373 59:-0.005072 60:0.004194 61:-0.813038 62:0.896212 63:-1.701315 64:0.565078 65:1.326013 66:-0.062656 67:-0.848640 68:1.639465 69:1.044434 70:-0.729611
-1 1:-0.412332 2:-0.090915 3:0.835938 4:-0.449655 5:1.266517 6:1.025044 7:-0.364931 8:0.017962 9:-0.485625 10:0.578364 11:-0.235259 12:1.353549 13:2.972012 14:1.006743 15:-1.158504 16:-1.055634 17:-1.297182 18:0.419047 19:-0.556928 20:-1.606079 21:-0.395039 22:0.818622 23:-0.253380 24:1.223461 25:-0.105223 26:-0.832773 27:0.252415 28:0.696243 29:-1.036922 30:0.034312 31:1.202621 32:-1.597825 33:0.275362 34:1.948777 35:-0.482454 36:1.797812 37:0.370860 38:1.967377 39:0.024076 40:-0.032240 41:-1.137596 42:0.127892 43:-0.890950 44:-0.941501 45:0.035738 46:0.132751 47:-1.739849 48:-0.279743 49:-3.098406 50:0.279662 51:0.037313 52:1.178781 53:-1.507573 54:-0.748919 55:0.198054 56:0.095143 57:2.049166 58:0.408386 59:-1.351526 60:-0.574843 61:-0.214841 62:0.671583 63:1.562873 64:1.142988 65:-1.442173 66:-1.223880 67:1.311052 68:-0.721178 69:-0.687330 70:-0.020202
-1 1:-0.618498 2:1.710045 3:0.033963 4:0.273686 5:-0.333345 6:0.592434 7:0.297199 8:-0.586715 9:-1.390704 10:-0.507288 11:1.369675 12:0.706904 13:0.960720 14:-0.802638 15:0.930534 16:-0.476093 17:0.237483 18:-1.215312 19:-0.496994 20:1.790546 21:1.114961 22:-0.401134 23:0.709160 24:0.685471 25:0.784925 26:0.661883 27:0.193402 28:0.241392 29:1.982791 30:1.088465 31:-0.204618 32:0.385537 33:-1.319272 34:0.527037 35:-0.412435 36:-0.540536 37:-0.655968 38:0.268893 39:-1.029374 40:-0.603801 41:-0.194694 42:0.797509 43:1.497164 44:0.098040 45:-0.895458 46:-0.443160 47:-1.705570 48:0.360719 49:0.517108 50:-1.397006 51:-0.482334 52:-0.838248 53:-0.861475 54:-0.712359 55:-0.646860 56:-0.366136 57:0.173814 58:-1.137793 59:0.099962 60:1.549039 61:1.911109 62:0.661527 63:-0.310816 64:1.412183 65:-0.204757 66:-1.424805 67:-0.292124 68:0.547315 69:0.015943 70:2.043182
-1 1:-0.239502 2:-0.721532 3:1.228795 4:0.340532 5:-0.187738 6:0.198556 7:-0.239590 8:0.200357 9:-0.314927 10:-0.216733 11:1.265321 12:-0.836766 13:-1.014414 14:0.674456 15:-0.292676 16:-1.854431 17:0.068167 18:-1.604827 19:-1.116154 20:-1.399655 21:-0.771773 22:-0.321174 23:0.626826 24:0.363899 25:-1.120954 26:1.446717 27:-1.948162 28:-0.324081 29:-0.192720 30:0.259097 31:0.164793 32:-1.037066 33:1.169228 34:0.736909 35:-1.612505 36:0.693215 37:0.662897 38:-1.237106 39:0.294273 40:0.512154 41:-0.480533 42:1.273120 43:-0.469195 44:1.217630 45:-1.075395 46:-0.076281 47:-1.668308 48:-1.377483 49:-0.070093 50:-0.903341 51:0.676412 52:0.815503 53:1.206054 54:0.842568 55:0.315631 56:-1.603271 57:0.087203 58:-0.137947 59:0.085594 60:0.330940 61:0.791293 62:-0.255704 63:0.477358 64:-0.497027 65:-0.083583 66:-0.282136 67:0.953084 68:1.123607 69:0.404135 70:-0.242972
-1 1:1.088569 2:-1.221639 3:0.401677 4:2.236790 5:-0.619889 6:-0.607484 7:1.310436 8:0.368052 9:-0.348674 10:1.072410 11:-0.028335 12:0.318731 13:-0.434987 14:-1.714443 15:-0.473948 16:0.123800 17:2.151529 18:1.199204 19:-0.812577 20:-2.047737 21:0.010371 22:-0.936284 23:-1.429949 24:-0.066005 25:1.751276 26:-1.947897 27:-0.901405 28:1.024559 29:-0.707444 30:-0.890378 31:2.102560 32:0.277293 33:-0.552291 34:-0.854883 35:-0.038406 36:0.483768 37:0.525907 38:-0.172304 39:-1.573816 40:0.220127 41:-0.567469 42:0.764008 43:-0.868458 44:0.711752 45:-1.183136 46:1.158611 47:0.795369 48:-1.385045 49:0.989640 50:0.981622 51:-0.409002 52:0.235932 53:1.520776 54:-0.369134 55:0.832928 56:0.891562 57:1.838050 58:-2.762371 59:0.644035 60:0.838087 61:-1.310548 62:0.820663 63:-0.159829 64:0.646758 65:-0.884972 66:1.612460 67:0.117656 68:0.097569 69:-0.694082 70:0.177125
-1 1:-0.023803 2:0.931070 3:-0.801528 4:0.382909 5:-1.269830 6:-1.743425 7:-1.869928 8:0.342154 9:-0.411238 10:0.007910 11:0.873607 12:0.714695 13:1.364903 14:0.025030 15:0.374277 16:-0.286780 17:0.112993 18:-0.842127 19:1.091744 20:0.747474 21:-1.285403 22:2.052611 23:-0.781291 24:0.794117 25:1.694535 26:-0.239556 27:1.250502 28:-2.114408 29:-0.493266 30:0.310466 31:1.110914 32:0.611066 33:0.873399 34:-0.276960 35:1.381524 36:1.200218 37:0.457898 38:-2.627148 39:-2.073872 40:0.544492 41:-1.795527 42:0.919294 43:0.476776 44:0.918088 45:-0.766504 46:-0.371325 47:1.797039 48:-2.278443 49:0.055681 50:-0.079346 51:1.583488 52:-0.027741 53:-1.525572 54:-0.217442 55:-0.588820 56:-0.279375 57:1.254924 58:-0.421294 59:1.879493 60:1.433079 61:-0.229070 62:-1.651928 63:0.190147 64:-0.293605 65:0.348779 66:-0.674773 67:-1.255111 68:0.118693 69:0.710626 70:0.477965
-1 1:-0.714813 2:-0.035911 3:-1.641117 4:0.787108 5:-0.723061 6:-0.406238 7:-0.478603 8:2.174304 9:0.790766 10:0.298166 11:-0.513334 12:0.791527 13:-1.351591 14:-0.484673 15:-0.927653 16:-0.839472 17:-0.311225 18:0.037381 19:0.337531 20:-0.594994 21:-0.312065 22:0.985759 23:-1.486387 24:-0.464276 25:0.738434 26:-0.167924 27:0.483504 28:-0.854973 29:0.318938 30:-1.846197 31:-0.884957 32:0.143184 33:-0.109903 34:0.208041 35:-0.071520 36:2.043903 37:1.998803 38:-0.479750 39:0.550432 40:-0.962521 41:1.461120 42:0.464554 43:-0.340340 44:1.438072 45:-1.525053 46:2.888334 47:-0.762598 48:-1.736586 49:-0.125605 50:0.433711 51:0.942164 52:0.525632 53:-2.147097 54:-0.466953 55:-0.293498 56:0.423512 57:-0.910205 58:0.620088 59:0.940688 60:0.334519 61:-0.056462 62:0.810285 63:-1.786021 64:0.174401 65:1.763469 66:1.106955 67:1.240353 68:0.939143 69:-0.267468 70:-0.314681
-1 1:-1.438766 2:-0.759261 3:0.327510 4:-0.430982 5:-0.367353 6:-0.379950 7:0.696681 8:0.458355 9:-2.561711 10:-2.565333 11:0.704674 12:2.623238 13:-1.668394 14:0.264841 15:0.547536 16:0.410132 17:1.508933 18:1.683002 19:0.942348 20:0.448948 21:-0.613059 22:-0.360198 23:1.739884 24:-0.487223 25:-0.794202 26:0.184016 27:1.254042 28:2.554550 29:0.067133 30:0.768212 31:-1.437583 32:0.023918 33:-0.928453 34:1.026010 35:-0.736151 36:-0.634650 37:-0.633597 38:-0.519078 39:0.285269 40:0.195267 41:-0.905315 42:0.653371 43:-0.768582 44:1.119476 45:-0.118644 46:0.066955 47:-1.739158 48:0.293758 49:-2.285786 50:1.010817 51:-0.290345 52:-0.683139 53:-0.611993 54:-1.747965 55:0.607154 56:0.466758 57:-1.892496 58:-0.335710 59:1.015879 60:-1.107973 61:0.439094 62:0.256772 63:-0.938464 64:-1.625724 65:0.614763 66:0.619992 67:1.485668 68:0.159523 69:-0.459884 70:-0.605338
-1 1:-0.527293 2:-0.282683 3:-0.268505 4:1.019360 5:-1.090131 6:0.864452 7:-0.028120 8:0.043869 9:0.498931 10:-0.770523 11:0.270387 12:1.004273 13:0.420776 14:-1.348057 15:-0.471643 16:-0.050695 17:-1.641980 18:-0.488585 19:0.697738 20:0.002618 21:-0.300301 22:0.329813 23:2.614940 24:-0.060222 25:0.049545 26:0.419378 27:0.496006 28:-1.063038 29:-0.765991 30:-0.344178 31:0.215343 32:-1.382390 33:-0.771983 34:-0.424454 35:1.094168 36:1.876216 37:1.370864 38:0.848025 39:-0.590101 40:1.138832 41:1.649176 42:0.911027 43:0.185101 44:0.400608 45:-0.766434 46:0.882400 47:-0.692563 48:0.348614 49:1.661710 50:-1.535486 51:0.173100 52:0.747079 53:-0.100699 54:-0.263381 55:-0.409789 56:-0.817651 57:0.031569 58:0.018764 59:-0.163850 60:0.715798 61:-0.756411 62:0.481189 63:0.199249 64:1.110084 65:1.345364 66:-0.429983 67:-1.410600 68:1.847712 69:0.586390 70:-0.664300
-1 1:-0.756333 2:-2.518235 3:0.396778 4:-0.352840 5:0.333006 6:2.107058 7:0.896204 8:1.014797 9:-0.509709 10:-1.056363 11:-1.525414 12:-1.034935 13:-1.487639 14:-0.830288 15:-0.997426 16:0.296108 17:-0.930593 18:-0.596220 19:-1.355155 20:-1.052872 21:-0.438768 22:0.351221 23:0.683875 24:-0.488774 25:1.615904 26:0.745779 27:0.256968 28:-0.785966 29:0.748078 30:0.529437 31:-1.217458 32:0.894286 33:-0.453125 34:-0.355982 35:0.376677 36:-0.906188 37:-1.482902 38:-1.139530 39:0.645198 40:0.661398 41:0.158712 42:-0.720802 43:-0.384658 44:-0.648198 45:-0.255562 46:-0.721709 47:1.305975 48:-0.886064 49:0.085577 50:-0.010950 51:-0.205501 52:-0.032033 53:0.616972 54:-0.442261 55:1.467635 56:-0.379261 57:0.039911 58:-1.054324 59:0.615714 60:-0.519728 61:-0.319483 62:0.702735 63:0.118641 64:-1.071341 65:0.028747 66:-0.355118 67:-0.079117 68:0.325562 69:0.620145 70:1.163935
-1 1:-0.925636 2:0.409018 3:0.417418 4:-1.412611 5:-1.617461 6:0.850612 7:-0.031770 8:0.690392 9:0.799121 10:-0.367538 11:-1.685838 12:-1.500100 13:2.302731 14:0.892967 15:-0.271337 16:0.167325 17:0.221100 18:-0.881939 19:0.700620 20:-1.338328 21:-1.601744 22:1.634067 23:-0.899584 24:-0.617662 25:-0.714241 26:0.586605 27:-0.550007 28:0.123372 29:-0.792167 30:1.580521 31:0.975109 32:0.689865 33:0.563784 34:0.777371 35:0.100528 36:-0.122323 37:0.048019 38:-1.265720 39:-1.452477 40:-0.707033 41:1.465008 42:0.504715 43:-0.287518 44:-0.492693 45:-1.124529 46:-0.903445 47:-0.300623 48:-0.819019 49:0.345742 50:0.579062 51:-1.234265 52:-1.043778 53:0.156597 54:-0.538479 55:0.313295 56:0.567272 57:-0.198742 58:1.095443 59:0.232498 60:-1.148355 61:1.291790 62:1.350375 63:1.383413 64:-0.769932 65:0.803369 66:0.785573 67:2.197495 68:-1.103989 69:-0.700078 70:0.934653
-1 1:-0.939603 2:-0.492681 3:1.365097 4:-0.069814 5:-0.710187 6:-0.910394 7:-0.834662 8:-0.997390 9:0.457261 10:2.042384 11:0.503540 12:1.204252 13:0.940594 14:0.570328 15:1.429900 16:-1.163210 17:-1.269214 18:0.771278 19:-0.543684 20:0.547615 21:0.213310 22:-0.126689 23:0.844893 24:0.929872 25:1.328107 26:0.089798 27:1.063268 28:-2.029386 29:1.132717 30:0.785661 31:-0.213542 32:-2.335708 33:-1.351121 34:1.057877 35:0.391899 36:0.488839 37:0.616007 38:0.586361 39:-0.461866 40:-2.206078 41:-0.471995 42:-1.713065 43:-0.086653 44:-1.206004 45:-0.776357 46:0.569095 47:-0.511983 48:0.354408 49:1.041756 50:0.109427 51:1.418370 52:-1.473403 53:-0.928717 54:1.475999 55:-0.546920 56:-1.670245 57:-1.557935 58:1.099480 59:-0.667485 60:0.129007 61:0.261512 62:-0.664902 63:-0.080953 64:-2.575225 65:-1.343929 66:0.157531 67:-0.125573 68:0.588957 69:0.590568 70:0.666835
-1 1:1.733712 2:0.116343 3:0.233250 4:-0.476822 5:0.056511 6:-0.066558 7:0.172237 8:-0.470194 9:1.329653 10:-0.493152 11:-0.809995 12:0.276054 13:0.685716 14:-0.036498 15:0.321154 16:0.961101 17:1.091189 18:1.666123 19:0.625168 20:1.496371 21:-0.262936 22:-0.550989 23:-0.485632 24:0.591506 25:0.726474 26:0.793312 27:0.099966 28:-1.138435 29:0.342480 30:-0.577966 31:0.443838 32:-2.686667 33:-1.130377 34:-0.382576 35:0.366406 36:-0.253256 37:-0.024482 38:-0.202691 39:-0.501647 40:-0.741143 41:-1.015594 42:-1.040619 43:-1.109687 44:0.429399 45:-0.449797 46:-0.672512 47:0.400891 48:0.689438 49:2.704394 50:1.154183 51:-0.563238 52:-0.291091 53:0.214558 54:2.411669 55:0.174507 56:-0.013808 57:-0.983131 58:-0.860447 59:0.653828 60:0.973125 61:0.613798 62:0.770832 63:1.149518 64:1.201866 65:-0.825396 66:-0.956337 67:0.042029 68:-0.214248 69:-0.533039 70:0.919405
-1 1:-0.913552 2:-0.682051 3:-0.760604 4:0.969015 5:-0.309107 6:0.047884 7:0.971430 8:-2.457257 9:-0.140130 10:-1.459143 11:-0.768119 12:-0.163453 13:-0.072864 14:-1.483651 15:0.837573 16:-1.541858 17:-1.571137 18:0.098125 19:-0.271387 20:0.725487 21:-0.867764 22:-0.163784 23:-0.198678 24:1.656248 25:1.003830 26:0.718483 27:-0.877323 28:-0.734847 29:0.678285 30:0.081392 31:0.722241 32:1.903293 33:0.315553 34:0.477151 35:0.135288 36:0.353324 37:0.186377 38:0.234027 39:0.582661 40:1.367196 41:-0.292483 42:-0.448273 43:-0.856060 44:0.398398 45:1.384791 46:-0.975006 47:0.679743 48:-0.534635 49:0.578314 50:-0.284022 51:-1.146430 52:0.888345 53:0.675859 54:-0.842829 55:1.349938 56:0.649689 57:-1.851233 58:0.588285 59:0.052559 60:-0.610568 61:1.845626 62:1.542351 63:0.688394 64:-0.414010 65:0.088344 66:1.646052 67:0.093933 68:-0.422043 69:1.490592 70:1.561059
-1 1:-1.238551 2:1.643877 3:-0.696429 4:1.948718 5:0.058283 6:0.823066 7:-0.430020 8:-0.501872 9:0.998899 10:0.245611 11:-0.416349 12:0.082000 13:-0.476794 14:-0.256833 15:0.773027 16:0.853929 17:-0.624493 18:1.098026 19:1.278046 20:1.298689 21:1.305834 22:-0.761556 23:-0.514844 24:0.291813 25:0.068568 26:0.256558 27:1.348752 28:0.845923 29:1.269735 30:2.307435 31:0.851958 32:0.272691 33:-0.755469 34:0.310463 35:0.196160 36:1.496446 37:1.790615 38:-0.446730 39:-1.681486 40:0.640431 41:-1.017214 42:-0.782785 43:-0.014184 44:0.549354 45:0.097659 46:1.016912 47:0.171140 48:-0.816443 49:-0.028554 50:-0.764298 51:-0.855626 52:2.584606 53:-0.299988 54:0.046777 55:-0.839790 56:1.537900 57:0.834246 58:0.409557 59:1.054048 60:-0.187678 61:-0.675351 62:-0.351498 63:-0.107642 64:-0.470823 65:0.774442 66:-1.786824 67:0.850583 68:-1.686977 69:-1.443709 70:-0.275556
-1 1:1.125727 2:0.105097 3:0.706886 4:-0.406217 5:-0.239919 6:-0.209041 7:0.476014 8:-1.005488 9:0.132922 10:0.177346 11:0.031018 12:1.651247 13:-0.330947 14:-0.001331 15:2.056230 16:-0.601131 17:1.447712 18:-1.571726 19:-0.329649 20:-1.285810 21:-0.492782 22:-1.186801 23:1.217259 24:1.455965 25:-2.421530 26:-2.066031 27:-0.097014 28:-0.370560 29:0.149796 30:0.710913 31:-0.366954 32:-1.846584 33:-0.227479 34:2.932439 35:1.412872 36:-1.237237 37:0.059275 38:-0.690218 39:0.451925 40:-0.301264 41:-0.965331 42:-0.632478 43:0.607197 44:1.937145 45:-0.282501 46:0.072084 47:-0.562543 48:0.755598 49:0.768691 50:-0.130668 51:0.248590 52:-2.287776 53:1.088135 54:-0.172869 55:1.278185 56:0.671690 57:0.848191 58:0.117742 59:-0.361675 60:1.911067 61:-0.155976 62:0.868563 63:0.234141 64:1.074393 65:-0.275020 66:-1.101833 67:0.804208 68:0.306009 69:0.844361 70:-0.690295
-1 1:-0.439692 2:-1.381376 3:1.383093 4:1.312981 5:-1.912873 6:-0.447427 7:-0.905506 8:0.610930 9:1.724357 10:0.735225 11:1.169666 12:0.422969 13:0.208031 14:1.348003 15:0.570524 16:0.617937 17:-0.776669 18:0.124931 19:-0.645479 20:0.045431 21:0.804930 22:0.531984 23:0.057208 24:0.768553 25:0.373856 26:0.262933 27:1.931571 28:-1.917246 29:-0.356792 30:-0.198852 31:-0.978617 32:-1.619829 33:-0.250863 34:0.783966 35:-0.655800 36:0.830271 37:0.263386 38:0.294665 39:-0.814278 40:1.214478 41:-1.759748 42:-0.060844 43:0.593014 44:-1.090955 45:0.053519 46:0.566766 47:0.357196 48:-0.307836 49:0.148766 50:0.833856 51:-1.028713 52:0.211730 53:-0.408048 54:-1.543109 55:0.784904 56:0.102667 57:0.208746 58:1.544628 59:-0.443595 60:-0.418552 61:-1.988084 62:-1.183591 63:-1.227052 64:-0.302433 65:1.594473 66:-0.913273 67:1.919160 68:-0.931388 69:0.901549 70:-0.072301
-1 1:-0.997965 2:-1.374377 3:0.331456 4:-0.140332 5:-0.714522 6:0.881497 7:-0.455843 8:-1.175810 9:0.664754 10:2.056944 11:-0.371000 12:-0.355430 13:1.305629 14:-0.606309 15:0.061182 16:-1.295527 17:1.521317 18:-0.557096 19:0.654572 20:-0.954281 21:-0.254849 22:-0.540580 23:1.323413 24:0.211732 25:1.049996 26:0.957151 27:1.018906 28:0.342420 29:0.822729 30:-0.535659 31:0.201330 32:-1.274135 33:0.825107 34:0.441692 35:-0.803877 36:-0.450416 37:-1.814949 38:1.198877 39:0.904889 40:-0.147180 41:0.656477 42:-0.056336 43:-1.349068 44:1.782195 45:0.094624 46:0.452437 47:-0.854713 48:-0.497434 49:1.783098 50:1.596915 51:-0.878672 52:1.043078 53:-0.023539 54:0.765225 55:0.697791 56:0.680815 57:-1.417903 58:-1.824043 59:-0.669865 60:-0.466045 61:0.715742 62:1.862084 63:-0.714846 64:-0.141011 65:-1.605810 66:1.543499 67:-1.346248 68:-0.012878 69:2.957182 70:-0.644938
-1 1:0.426312 2:-0.585745 3:-1.660139 4:-1.902875 5:3.148484 6:-0.625175 7:0.576720 8:0.249327 9:1.180064 10:-0.223882 11:-1.077379 12:0.643496 13:0.554948 14:-0.040167 15:0.568918 16:-0.486789 17:0.771184 18:1.114343 19:0.161753 20:-0.468784 21:-0.660736 22:0.495502 23:-1.361245 24:-0.244669 25:0.750598 26:0.904154 27:0.473321 28:0.827340 29:0.106031 30:0.235345 31:0.558394 32:-0.982533 33:-0.601098 34:-0.431101 35:1.280965 36:-1.167588 37:1.193079 38:0.931403 39:0.639976 40:-0.482621 41:-1.787544 42:0.458608 43:-0.350796 44:0.141842 45:0.988190 46:0.254083 47:0.251311 48:0.138060 49:0.716573 50:0.971924 51:0.493719 52:-0.532622 53:-1.264205 54:-0.823161 55:1.037122 56:-1.173212 57:1.284406 58:0.906599 59:0.595831 60:0.561544 61:1.898512 62:0.849882 63:1.243855 64:-1.477334 65:3.078572 66:-1.239628 67:0.859444 68:-1.237840 69:0.136741 70:-0.610598
-1 1:-0.682542 2:-1.140804 3:-1.046551 4:-0.519677 5:0.058469 6:-1.847736 7:-0.790540 8:-0.491888 9:0.200909 10:0.357369 11:1.159762 12:0.757521 13:0.980313 14:1.319383 15:-1.076510 16:0.488398 17:-0.918255 18:-0.001458 19:-0.597834 20:0.497140 21:-0.114385 22:-2.285212 23:0.463518 24:-1.286684 25:-1.404459 26:0.225773 27:-0.896654 28:1.854097 29:0.403501 30:-0.755638 31:-0.706728 32:-0.683736 33:0.269495 34:-1.571690 35:0.173287 36:-0.138656 37:-0.426251 38:-0.099638 39:1.205379 40:-0.756438 41:-1.452247 42:-0.753459 43:0.874078 44:1.356659 45:2.079306 46:0.428623 47:0.656200 48:1.276415 49:0.420027 50:-0.201580 51:0.751376 52:0.934225 53:2.489498 54:0.100831 55:0.688927 56:1.289023 57:1.115548 58:1.008490 59:-1.560630 60:-0.425813 61:-0.413023 62:-1.177264 63:-1.491715 64:0.417700 65:-0.981043 66:-0.126657 67:-0.496002 68:0.261009 69:-0.433341 70:-1.650059
-1 1:1.180013 2:-1.064150 3:-0.667756 4:1.607358 5:0.667037 6:-1.376713 7:1.400098 8:0.813116 9:1.653295 10:0.562637 11:-0.704883 12:1.616505 13:1.136599 14:0.521257 15:0.631581 16:1.805727 17:0.927212 18:0.492867 19:0.198161 20:0.567541 21:-0.301758 22:0.341162 23:-0.183398 24:-1.928910 25:0.263842 26:0.244471 27:-0.169903 28:0.051882 29:0.524679 30:0.337850 31:-0.462726 32:0.678712 33:-0.581796 34:-0.134343 35:0.828686 36:0.301194 37:-0.013854 38:-0.306018 39:1.013557 40:-0.137182 41:-0.423768 42:-1.070931 43:-0.404297 44:0.653306 45:0.869519 46:-1.635045 47:0.081088 48:-0.482042 49:-0.999632 50:-1.241601 51:-0.264885 52:0.463242 53:-2.624722 54:-0.445621 55:-0.878914 56:-0.098363 57:-2.929082 58:0.352972 59:-0.537018 60:-0.040476 61:0.307282 62:-0.306066 63:-0.066998 64:-0.216242 65:0.344061 66:-1.260905 67:0.335711 68:0.906663 69:0.361367 70:1.088526
-1 1:1.056905 2:-0.138354 3:-0.734219 4:-1.474654 5:0.332681 6:-1.949718 7:-0.319586 8:-0.128212 9:0.187906 10:0.972696 11:0.437672 12:2.204805 13:-0.932470 14:0.954228 15:0.114200 16:0.261489 17:0.438327 18:-0.257441 19:0.076637 20:-0.731350 21:0.563010 22:-1.228786 23:-0.229951 24:-0.257348 25:-0.618481 26:-0.042028 27:0.346016 28:-0.800485 29:-0.891611 30:1.066011 31:1.115381 32:-1.215650 33:1.055119 34:0.113460 35:0.476447 36:-1.362511 37:-0.198721 38:-0.214795 39:-0.173352 40:-0.640849 41:-0.260325 42:0.177510 43:1.494926 44:0.568722 45:-1.565952 46:-0.842116 47:0.606742 48:0.200116 49:0.543059 50:0.308713 51:-0.243722 52:1.811977 53:-1.102830 54:0.220139 55:-1.369487 56:0.690803 57:1.293091 58:2.214955 59:1.783339 60:-1.782551 61:0.380122 62:0.806825 63:1.436978 64:0.852315 65:-0.770636 66:0.306302 67:-1.046134 68:-0.058987 69:-0.938990 70:-0.252539
-1 1:-1.351287 2:0.482637 3:-0.343882 4:-0.389164 5:-0.566731 6:-0.586301 7:0.262456 8:-0.589083 9:-0.552984 10:-1.266947 11:-0.092174 12:-0.362684 13:-1.322292 14:-0.630116 15:-0.123361 16:-0.919610 17:0.095522 18:0.134659 19:0.495012 20:0.179913 21:0.787925 22:-0.088486 23:-0.118280 24:0.472059 25:0.338007 26:-0.031418 27:-0.232487 28:-1.555298 29:-2.430695 30:0.537958 31:-0.523178 32:-1.404710 33:-0.084917 34:1.766641 35:-0.848791 36:-0.708426 37:-0.485061 38:-1.439811 39:1.049883 40:1.062459 41:1.472359 42:0.422331 43:0.155496 44:1.368072 45:-1.528697 46:-1.627880 47:0.806149 48:-0.126413 49:-0.540001 50:0.692696 51:0.676552 52:-0.662616 53:-0.982296 54:0.527788 55:-0.689881 56:-1.150203 57:0.205615 58:-0.020340 59:0.493915 60:0.995706 61:0.199578 62:0.177928 63:-0.573389 64:0.213979 65:2.066360 66:-0.407142 67:1.001868 68:-0.274565 69:1.459971 70:0.317138
-1 1:0.231052 2:0.502552 3:-0.169082 4:-0.578513 5:0.838038 6:-2.253930 7:0.221549 8:-1.199162 9:-0.029182 10:1.152329 11:0.634754 12:-0.356314 13:-0.657746 14:-0.726144 15:1.801919 16:1.392595 17:-1.229348 18:0.371420 19:0.353200 20:-0.371651 21:0.591938 22:-0.212423 23:0.308169 24:1.401471 25:-0.374853 26:2.727391 27:0.065617 28:0.973106 29:1.120025 30:-1.511490 31:-0.263581 32:-0.311505 33:-0.731776 34:-2.022766 35:0.767639 36:-0.333976 37:0.305942 38:-0.769929 39:-0.627822 40:0.878621 41:1.228848 42:-0.408596 43:-0.854605 44:0.884135 45:0.504454 46:1.574305 47:-1.509580 48:0.789206 49:-0.516185 50:0.201405 51:-0.142645 52:1.729273 53:0.316738 54:0.727260 55:1.385799 56:-1.341317 57:-0.325733 58:0.689215 59:-0.593421 60:0.279613 61:0.032915 62:-0.093156 63:0.059010 64:0.519820 65:-1.302688 66:-1.428792 67:1.349608 68:-1.117517 69:1.093406 70:0.633310
-1 1:-1.174535 2:-0.060611 3:-1.583620 4:0.911276 5:-0.269384 6:0.910498 7:-1.642423 8:-2.482865 9:1.660235 10:0.721097 11:0.350483 12:-0.570522 13:-0.773088 14:2.096916 15:0.673963 16:0.576645 17:0.238562 18:-0.385256 19:-0.883992 20:0.405029 21:1.055894 22:-0.095683 23:0.023701 24:-0.349465 25:0.178304 26:-0.751518 27:-0.839385 28:0.225917 29:1.284024 30:-0.879289 31:0.702229 32:0.806571 33:0.403591 34:1.390671 35:0.952152 36:-0.784008 37:-0.786750 38:1.194518 39:1.787605 40:-0.325183 41:-0.776471 42:1.341486 43:0.142065 44:0.582180 45:0.267660 46:0.061689 47:0.254792 48:-0.160009 49:0.645372 50:0.581353 51:-0.063651 52:-1.951510 53:2.564915 54:0.754449 55:-0.095566 56:0.453657 57:0.008013 58:0.522517 59:-0.993411 60:-0.358471 61:0.177373 62:-0.669410 63:0.615535 64:-0.702481 65:-0.843723 66:-1.437677 67:-0.166398 68:0.889126 69:-0.082090 70:1.051844
-1 1:-0.532083 2:-0.561843 3:1.078160 4:0.617795 5:0.707768 6:0.988269 7:1.020940 8:-1.855486 9:0.134067 10:-1.942321 11:-1.295366 12:-0.519459 13:1.193516 14:1.800460 15:0.094894 16:0.205911 17:0.735938 18:0.110125 19:-0.343198 20:-0.742524 21:1.365552 22:0.388449 23:0.669844 24:-0.656892 25:1.228846 26:0.275545 27:0.162145 28:2.088812 29:-1.817993 30:-0.433944 31:-0.491306 32:0.019298 33:-0.704086 34:0.823403 35:-0.701905 36:0.432583 37:-0.814503 38:-0.906051 39:0.792155 40:0.558818 41:1.292539 42:-0.748631 43:-0.065320 44:0.353084 45:1.057925 46:0.134495 47:0.926348 48:-1.625766 49:1.464016 50:-0.001121 51:1.264315 52:-0.535319 53:0.918574 54:0.396209 55:-1.995043 56:0.009706 57:-0.115011 58:-0.871400 59:-0.877824 60:1.638345 61:0.877129 62:-1.220722 63:0.427722 64:-0.707069 65:1.278759 66:1.172706 67:-0.580412 68:0.923398 69:-0.285982 70:-0.188033
-1 1:-0.232772 2:-0.593515 3:-1.962383 4:-0.497438 5:0.626697 6:0.331757 7:-0.265742 8:0.768218 9:-0.745898 10:-0.244117 11:-0.035665 12:-0.267010 13:-1.169457 14:-0.033437 15:0.530689 16:-0.186555 17:0.858054 18:-2.222575 19:0.069476 20:-0.613063 21:-0.604648 22:-0.705143 23:-0.902125 24:-0.264178 25:-0.672027 26:0.661832 27:1.266739 28:2.004927 29:-1.273984 30:-1.028210 31:-1.221182 32:-1.197718 33:0.246581 34:1.040247 35:-0.485279 36:-1.601788 37:-0.625735 38:-0.830656 39:0.166176 40:-0.048528 41:-0.466586 42:-0.255348 43:1.231409 44:-0.393581 45:-1.469958 46:1.419677 47:2.033418 48:0.480118 49:1.558486 50:1.399520 51:-0.596838 52:-1.088473 53:0.688434 54:1.225282 55:0.834493 56:-1.108873 57:-0.301746 58:0.461470 59:-0.033602 60:1.308807 61:1.076171 62:2.310075 63:-0.844773 64:-1.419641 65:0.114698 66:0.519690 67:0.435220 68:0.103703 69:0.500880 70:0.105444
-1 1:-1.837420 2:-0.389918 3:1.172449 4:-0.424276 5:0.243860 6:0.404728 7:-0.303265 8:-1.019004 9:0.659840 10:0.662095 11:-1.484860 12:-0.401021 13:0.889959 14:-0.811354 15:0.765681 16:0.565944 17:0.118111 18:-1.447017 19:-0.073810 20:0.269428 21:-0.571735 22:-0.488404 23:-0.271103 24:-0.499972 25:-0.108413 26:-0.709698 27:0.324576 28:1.067320 29:1.117434 30:1.193797 31:0.726904 32:-0.539559 33:0.927990 34:-0.861524 35:1.195121 36:-0.558117 37:-0.195194 38:0.829800 39:-0.736648 40:-0.547549 41:-0.526211 42:-0.076593 43:-1.381330 44:-0.486636 45:-0.354611 46:0.934889 47:1.894279 48:0.208948 49:0.602347 50:0.224625 51:-0.091238 52:-0.213263 53:-0.424581 54:0.553144 55:0.103582 56:-0.513658 57:-0.654865 58:-0.600221 59:0.475733 60:0.562305 61:-0.256014 62:1.010082 63:2.932583 64:1.896974 65:-0.591744 66:0.939392 67:0.696270 68:1.747599 69:0.891697 70:0.779106
-1 1:2.438989 2:1.385610 3:-1.057370 4:0.452504 5:-1.083160 6:-1.501976 7:-0.435320 8:-0.672594 9:0.455448 10:1.199956 11:-0.371026 12:0.994988 13:0.778986 14:0.448955 15:0.440733 16:-1.464989 17:-0.661614 18:1.011683 19:0.196874 20:0.849778 21:-2.447973 22:-0.095765 23:-1.102620 24:0.872608 25:-2.047662 26:-0.735593 27:-0.288404 28:-1.217593 29:0.010041 30:2.071662 31:-0.443266 32:0.924089 33:-0.737772 34:0.187679 35:-0.990255 36:-0.146123 37:0.294849 38:0.084347 39:-2.872271 40:0.464296 41:-0.461633 42:0.904348 43:1.296817 44:-1.474127 45:0.763597 46:0.696049 47:-0.856435 48:-1.020211 49:0.312955 50:-0.187255 51:-0.515300 52:-0.919750 53:1.626339 54:0.373689 55:1.565482 56:0.728194 57:-0.231663 58:-2.540651 59:-0.364865 60:-0.669400 61:-1.188827 62:0.009841 63:-0.967539 64:1.004851 65:0.558594 66:-1.491720 67:1.354728 68:-0.762626 69:1.074518 70:0.349468
-1 1:1.334557 2:-0.428499 3:0.520550 4:-0.701777 5:-1.426514 6:-2.158296 7:-0.946649 8:-0.144941 9:1.804869 10:-0.074778 11:1.617360 12:0.572159 13:-1.412985 14:-0.596473 15:-0.628216 16:-0.475718 17:-0.425394 18:0.442346 19:-0.608836 20:-0.038929 21:0.320931 22:1.813318 23:-2.375740 24:-0.350684 25:0.170484 26:1.226600 27:0.619811 28:-0.414382 29:-0.987338 30:-0.953913 31:0.647678 32:1.103585 33:-1.209983 34:1.028862 35:-0.998043 36:0.450392 37:-0.358909 38:-0.325782 39:1.854281 40:0.247563 41:-1.507328 42:-1.207049 43:0.441846 44:0.277724 45:-0.796449 46:-0.115605 47:-0.182120 48:-0.507145 49:-0.142354 50:2.703323 51:-0.024835 52:-0.957481 53:-0.170012 54:-1.565784 55:-0.360470 56:2.047616 57:0.695235 58:-1.315198 59:0.864100 60:0.249436 61:-0.892533 62:-1.182595 63:-0.114965 64:0.449692 65:0.374168 66:0.329525 67:0.054698 68:0.730977 69:-1.322575 70:1.094899
-1 1:-0.277440 2:-1.441005 3:-0.417098 4:2.201787 5:0.470316 6:-0.536666 7:0.840655 8:-0.441378 9:0.244026 10:-0.317112 11:0.098464 12:-0.500587 13:1.511698 14:-1.126102 15:0.261673 16:-0.835671 17:-1.114495 18:1.282339 19:-0.468087 20:1.172368 21:1.520525 22:1.499827 23:-2.010441 24:-1.326011 25:-0.447490 26:-0.589680 27:0.189140 28:-1.117793 29:0.405519 30:-0.251602 31:-1.192012 32:0.374422 33:-0.976018 34:0.208424 35:-2.161117 36:-1.281721 37:1.388095 38:-0.798662 39:0.370309 40:-0.512942 41:0.313978 42:-0.679925 43:1.130272 44:0.324249 45:1.926315 46:0.881712 47:-1.096838 48:0.924877 49:0.836093 50:0.196587 51:1.185957 52:1.882432 53:-0.091571 54:-1.510359 55:-1.559588 56:0.304753 57:-2.148317 58:0.481012 59:-1.045572 60:-1.127621 61:0.277435 62:-0.976955 63:0.296033 64:0.037088 65:0.373801 66:0.331540 67:-0.988748 68:1.286981 69:-1.325104 70:1.168759
-1 1:-2.274783 2:0.437673 3:-0.435278 4:1.737581 5:-1.029497 6:0.587306 7:-0.384150 8:-0.097087 9:0.455889 10:1.366980 11:-0.520664 12:-0.144031 13:-0.259986 14:-0.862097 15:1.989102 16:-0.841029 17:0.111175 18:0.584638 19:-0.731799 20:2.581981 21:1.317142 22:2.144447 23:2.488105 24:1.132938 25:-0.989445 26:1.457222 27:1.837369 28:0.406297 29:-0.083217 30:-0.560600 31:-0.372376 32:-1.272568 33:1.733251 34:0.858714 35:-0.180401 36:-1.313130 37:-0.599379 38:1.335651 39:2.119793 40:0.863252 41:-0.795843 42:-2.184566 43:0.040658 44:0.053129 45:0.722557 46:0.708355 47:-0.279254 48:0.305428 49:-0.729324 50:0.056485 51:0.157042 52:0.362215 53:-1.164860 54:0.116045 55:1.035978 56:-0.451712 57:-0.048391 58:1.964509 59:-1.225529 60:0.075374 61:-0.164382 62:-0.038268 63:1.746340 64:-0.983345 65:0.386209 66:0.979981 67:-1.376832 68:-0.196953 69:0.551875 70:1.203049
-1 1:0.037005 2:0.365478 3:-0.617423 4:0.642905 5:-1.407408 6:-0.313817 7:-0.005627 8:-0.656853 9:0.657540 10:0.767075 11:-2.148897 12:-1.148816 13:0.441180 14:-0.825103 15:-1.076782 16:-0.595796 17:0.705806 18:0.375399 19:-0.478111 20:0.133383 21:-0.478942 22:-0.142782 23:0.037555 24:0.015477 25:-0.074586 26:0.509205 27:0.321200 28:-1.067735 29:0.886158 30:0.299001 31:0.005153 32:0.807495 33:-0.638082 34:-2.370757 35:-0.722522 36:-0.355914 37:-0.260760 38:0.258391 39:0.678230 40:2.367916 41:-1.528780 42:-2.898172 43:0.084050 44:-0.077545 45:-0.272884 46:-0.366268 47:-0.151365 48:1.176507 49:1.157970 50:-0.183878 51:1.075994 52:1.477744 53:0.943760 54:1.151842 55:-0.456001 56:0.203988 57:0.683486 58:0.952725 59:-1.411464 60:-0.341074 61:-1.404341 62:-2.026866 63:1.135411 64:0.970726 65:1.287413 66:-2.120694 67:-0.958673 68:0.343700 69:-1.461488 70:-0.639068
-1 1:-0.915695 2:0.943965 3:0.302068 4:1.214006 5:-1.848777 6:0.735162 7:-0.282869 8:1.409815 9:-0.124301 10:0.316838 11:-0.916063 12:-0.110599 13:1.340720 14:0.128330 15:0.212775 16:0.822990 17:0.271276 18:-0.186212 19:-1.270883 20:-0.625322 21:-1.644795 22:0.416409 23:-0.240645 24:-1.433814 25:1.018241 26:0.710418 27:-0.705206 28:-2.121623 29:0.429436 30:0.419924 31:0.091272 32:-0.368546 33:0.682975 34:-0.775961 35:-1.122469 36:0.966468 37:-0.127011 38:0.460143 39:-0.882472 40:0.656840 41:0.733561 42:-0.096696 43:-0.086140 44:-1.007145 45:1.513771 46:1.958352 47:0.875151 48:-0.387146 49:-0.448736 50:-0.732251 51:-0.835803 52:0.264180 53:1.407060 54:-0.669989 55:2.146440 56:0.205745 57:-0.974085 58:0.444772 59:0.936418 60:0.790988 61:2.272256 62:0.152224 63:-1.940449 64:-0.630049 65:-0.878776 66:-1.109526 67:0.552293 68:-0.478675 69:1.904991 70:-0.641912
-1 1:-0.165895 2:0.497646 3:-0.672971 4:0.449618 5:-0.034041 6:1.923231 7:-0.885485 8:0.917357 9:-1.030184 10:-0.765575 11:1.352604 12:-0.705209 13:0.308148 14:-0.232857 15:0.432301 16:-1.840410 17:0.937730 18:1.221896 19:0.591012 20:0.480354 21:-1.025152 22:-0.196939 23:-0.734285 24:1.169165 25:-0.609294 26:0.948771 27:1.217436 28:-2.265988 29:1.575809 30:0.306025 31:0.746294 32:-0.554210 33:0.064641 34:0.372407 35:1.009224 36:0.461629 37:0.368760 38:1.209352 39:0.893063 40:1.207957 41:-0.479039 42:0.341792 43:0.841886 44:-1.563193 45:-0.080292 46:-0.660878 47:-0.135952 48:0.725360 49:0.019090 50:0.224080 51:-0.314292 52:-0.884669 53:0.194498 54:0.062635 55:-0.884514 56:-0.034141 57:1.101638 58:-0.265219 59:-1.448518 60:-2.226337 61:0.090220 62:-0.168737 63:-0.724275 64:-0.938801 65:-0.673089 66:0.937881 67:0.574237 68:-1.071673 69:1.288078 70:0.265609
-1 1:-0.609438 2:2.052788 3:-0.904683 4:0.893366 5:1.037984 6:-0.046956 7:-1.234508 8:-0.995642 9:0.691801 10:-1.215669 11:-2.136357 12:0.024438 13:1.220775 14:-1.765659 15:-0.693610 16:-2.325319 17:0.278057 18:0.483758 19:-0.659941 20:-0.550389 21:0.218189 22:-0.128394 23:-0.207456 24:-0.476985 25:0.275447 26:0.658656 27:-0.122028 28:-0.233985 29:-1.174575 30:0.944023 31:-1.823178 32:1.390619 33:1.092524 34:0.171806 35:-0.555420 36:-0.511235 37:1.352955 38:0.023756 39:-1.265880 40:1.345324 41:0.127973 42:-0.149130 43:0.367242 44:-0.382993 45:-0.908535 46:0.403234 47:-0.863983 48:0.341032 49:1.456955 50:0.431382 51:0.092316 52:-1.470496 53:1.397829 54:-0.178844 55:-1.004432 56:-1.246878 57:-0.678441 58:0.707181 59:-0.215598 60:-0.585712 61:-1.852013 62:0.037172 63:1.808128 64:-0.107293 65:-0.212481 66:-1.175756 67:-2.854780 68:-0.409310 69:-1.426657 70:0.046984
-1 1:-0.658911 2:-0.752266 3:-1.943489 4:1.472046 5:-0.284013 6:1.586777 7:-0.849401 8:-0.506062 9:-0.671839 10:-0.505739 11:-0.208615 12:1.357524 13:-1.924302 14:0.962248 15:-1.525360 16:0.381619 17:0.319042 18:0.756549 19:0.189659 20:-0.543590 21:-0.046170 22:0.824886 23:-0.884564 24:-0.205663 25:1.776168 26:0.735396 27:-0.486386 28:0.220989 29:1.286155 30:-1.992457 31:0.778111 32:0.219707 33:-1.617769 34:0.001110 35:1.039871 36:1.255836 37:-1.665254 38:-0.366874 39:0.056786 40:0.556044 41:0.703135 42:0.806103 43:0.659502 44:0.058696 45:-2.003215 46:-0.566634 47:0.217668 48:-1.651591 49:0.529928 50:0.316050 51:0.977389 52:-0.976406 53:-2.270109 54:1.161608 55:-0.863309 56:-0.163720 57:-0.439541 58:-0.357863 59:-0.093446 60:0.090393 61:0.503714 62:-0.259938 63:-0.737752 64:0.032155 65:-0.274224 66:-0.948845 67:1.079425 68:0.601118 69:-0.386525 70:1.550028
-1 1:-0.190544 2:-2.828287 3:-0.566973 4:0.518362 5:-0.473791 6:-2.179693 7:0.431429 8:-0.224158 9:1.973121 10:-0.821584 11:-0.294884 12:0.458043 13:0.538894 14:0.067620 15:-0.587431 16:0.099373 17:-0.957234 18:0.220511 19:-1.056278 20:-0.468278 21:-0.046455 22:0.025919 23:-0.422050 24:1.357023 25:-0.091436 26:-0.240718 27:-0.148476 28:0.382147 29:0.234608 30:0.060840 31:-0.293718 32:0.714386 33:-1.380903 34:-0.842868 35:-1.825286 36:-0.601070 37:0.923446 38:-0.749720 39:-0.321807 40:-0.077950 41:1.239858 42:1.257475 43:-1.453939 44:-0.266755 45:-0.321592 46:0.384819 47:0.736900 48:0.823314 49:1.527557 50:-1.194487 51:0.045964 52:-1.805028 53:0.037327 54:-1.317998 55:-0.367568 56:-0.188220 57:-0.754140 58:0.002884 59:-0.426826 60:0.015724 61:-0.176855 62:-1.513517 63:-0.455723 64:1.042589 65:0.787067 66:0.719276 67:-1.625001 68:-0.688271 69:-0.919574 70:0.775505
-1 1:0.745007 2:0.170026 3:-0.071153 4:-1.086236 5:-0.864721 6:0.049407 7:0.076401 8:-0.974735 9:1.115050 10:-0.307805 11:-1.003219 12:-1.010387 13:1.381280 14:-0.028537 15:0.781198 16:0.615970 17:-0.347721 18:0.599086 19:-0.474863 20:-0.754705 21:-0.240233 22:-0.655370 23:0.074640 24:-1.039224 25:-1.702017 26:-0.298040 27:0.573596 28:-0.275601 29:-1.423702 30:-2.965874 31:1.167614 32:-1.559409 33:1.577681 34:0.223629 35:-0.444299 36:0.465801 37:1.395011 38:-0.682173 39:-0.783520 40:0.211695 41:0.500698 42:0.033495 43:0.373610 44:0.814651 45:-0.452240 46:-1.511961 47:-1.134453 48:2.260535 49:-2.432857 50:-1.683362 51:0.947110 52:-0.337504 53:-0.568937 54:0.146015 55:-1.339358 56:0.828835 57:1.048922 58:1.160592 59:-2.630504 60:-0.884900 61:-1.371086 62:1.158760 63:-0.596216 64:0.974602 65:-0.648253 66:0.200293 67:2.617308 68:0.248021 69:-0.241597 70:1.171573
-1 1:0.367439 2:1.190098 3:-1.136206 4:-0.139959 5:-1.583532 6:-0.869048 7:1.783728 8:-1.094884 9:-1.113112 10:-0.802565 11:-0.876711 12:0.632097 13:0.553877 14:-0.444350 15:0.104616 16:0.331897 17:1.397876 18:1.139011 19:-1.304330 20:0.183999 21:-0.476584 22:-1.274019 23:1.099160 24:0.058360 25:-1.380265 26:0.780439 27:-0.288235 28:-0.442602 29:-1.582587 30:-0.050039 31:-0.507315 32:0.641686 33:-0.840495 34:-1.290108 35:1.491876 36:0.872581 37:-1.220597 38:-0.854435 39:0.470076 40:0.031196 41:-0.545850 42:-1.327014 43:-0.105875 44:1.306719 45:-0.572115 46:-1.402520 47:-0.544097 48:-0.254891 49:-1.096831 50:0.829072 51:2.422775 52:2.417526 53:-0.630841 54:-0.125777 55:-0.526344 56:0.519580 57:0.050797 58:-1.487354 59:-0.660220 60:1.392288 61:-0.314482 62:-0.840642 63:1.191789 64:-1.437682 65:-1.039413 66:-0.308071 67:0.683969 68:1.063958 69:0.080981 70:1.442520
-1 1:-0.366163 2:0.459936 3:1.117449 4:0.331039 5:-0.592231 6:-0.020251 7:0.693048 8:-0.230607 9:-0.038014 10:0.768854 11:-1.179366 12:-0.220199 13:-0.538528 14:-1.519057 15:0.763758 16:-0.715547 17:-0.049785 18:-0.019548 19:0.191419 20:-1.166406 21:0.294391 22:0.009684 23:-0.160761 24:0.049703 25:0.134318 26:-0.392335 27:0.254011 28:0.341336 29:0.332681 30:-1.221630 31:-0.026541 32:-0.276553 33:0.400864 34:-1.829484 35:1.809197 36:0.594983 37:-0.197983 38:-0.230654 39:0.928799 40:-1.460353 41:-1.037653 42:0.622837 43:-3.857329 44:1.117952 45:0.413812 46:1.569560 47:0.326386 48:0.946875 49:0.370461 50:0.651778 51:-0.803512 52:-1.666255 53:-1.089487 54:-0.520633 55:-0.541996 56:-0.396710 57:0.580434 58:-0.023991 59:0.030293 60:0.264518 61:1.479862 62:1.126785 63:-0.384077 64:0.901531 65:-1.063673 66:-0.722332 67:-0.613779 68:-1.706942 69:0.671617 70:1.090245
-1 1:-0.579448 2:0.849980 3:-2.033961 4:-0.181834 5:0.083272 6:-0.459526 7:0.433555 8:1.768493 9:0.931064 10:-0.945487 11:0.624020 12:0.486245 13:-1.839766 14:0.102661 15:-2.078028 16:0.119595 17:-1.231569 18:-1.125838 19:0.735709 20:1.461508 21:1.717943 22:-1.779204 23:0.077034 24:-0.800735 25:2.174361 26:0.867133 27:0.118750 28:-0.135941 29:0.689322 30:0.172068 31:0.431604 32:0.347212 33:0.404522 34:-0.598951 35:0.040309 36:0.707152 37:1.621116 38:-0.495512 39:0.275248 40:-0.625473 41:-1.689078 42:0.156374 43:-0.485218 44:-0.133621 45:1.063361 46:-0.024929 47:0.078332 48:-1.339714 49:-0.266822 50:0.301838 51:-1.051995 52:-1.329473 53:0.469740 54:0.529939 55:-0.003552 56:-0.360248 57:-0.245940 58:-0.395162 59:0.295787 60:0.523514 61:-0.953904 62:-0.669904 63:0.603526 64:0.710380 65:-0.705262 66:4.119357 67:-1.528550 68:0.164565 69:1.117247 70:-1.698511
-1 1:-0.785027 2:-0.862489 3:0.349426 4:-1.096221 5:-0.401407 6:0.254810 7:1.847924 8:0.249131 9:-0.044632 10:-1.507871 11:0.191620 12:1.591302 13:-0.236299 14:-1.041604 15:1.581968 16:0.538802 17:-2.039633 18:0.510990 19:0.371714 20:-2.140057 21:0.871074 22:-2.293277 23:-0.269124 24:0.412468 25:0.537175 26:1.231100 27:0.707690 28:-0.510030 29:-0.833799 30:-1.372732 31:-0.646537 32:-0.119157 33:1.756538 34:-2.015986 35:0.404633 36:0.649008 37:-0.543392 38:-0.436196 39:-1.417049 40:0.683099 41:-1.070825 42:1.164001 43:-0.676380 44:-1.192928 45:0.340681 46:0.535577 47:0.118113 48:-0.359755 49:1.505834 50:0.639221 51:0.742920 52:1.282598 53:-0.325027 54:0.169604 55:-0.367153 56:-0.588149 57:-0.128524 58:-0.597361 59:-0.525775 60:0.902189 61:1.481554 62:0.514601 63:-1.412867 64:-0.620464 65:-0.511190 66:-0.057874 67:-0.173763 68:0.702039 69:-0.185429 70:-1.360282
-1 1:0.196009 2:-0.905237 3:0.226633 4:1.017429 5:-0.054772 6:-0.072622 7:0.777500 8:0.495981 9:-0.692487 10:0.429127 11:-1.019280 12:0.715598 13:-0.357747 14:-0.270885 15:-0.992823 16:0.749264 17:-0.295537 18:0.962041 19:-1.164327 20:-0.489880 21:0.295799 22:0.566160 23:-1.511079 24:-0.049568 25:-1.537001 26:0.203613 27:1.108035 28:0.825785 29:0.121840 30:-1.541922 31:-1.813541 32:-0.072427 33:0.519801 34:0.196513 35:-0.942522 36:-1.534253 37:-1.594255 38:1.932094 39:0.235046 40:0.119975 41:0.119649 42:1.086985 43:0.926600 44:-0.908951 45:-0.731728 46:1.311622 47:-0.273260 48:-1.073348 49:-0.053923 50:-0.384504 51:-0.026006 52:1.721850 53:0.856253 54:-0.013549 55:0.936419 56:0.539839 57:-0.399441 58:1.257960 59:-0.828482 60:2.300170 61:0.068741 62:0.380023 63:-1.562247 64:-1.217431 65:0.137658 66:-0.358493 67:1.020170 68:-0.231068 69:-1.309450 70:-0.594848
-1 1:-0.252106 2:1.660697 3:-0.331860 4:-0.244043 5:-1.675307 6:-0.335351 7:1.360572 8:-0.230584 9:0.365266 10:-1.604445 11:-0.260001 12:0.002975 13:-0.002150 14:1.704794 15:0.818272 16:0.055066 17:-0.160054 18:0.721623 19:-0.103150 20:-3.653873 21:-1.851090 22:0.668278 23:2.500143 24:-0.945555 25:1.178382 26:-0.021798 27:1.166978 28:-1.109912 29:-0.016278 30:-0.435042 31:0.890587 32:-0.023491 33:3.119206 34:-1.132030 35:0.428345 36:0.889457 37:0.634189 38:-2.986399 39:-0.855633 40:0.196288 41:2.458214 42:2.181425 43:-0.909882 44:1.668842 45:0.932885 46:-1.239954 47:0.160142 48:0.605334 49:0.341417 50:-0.164824 51:0.582910 52:0.245677 53:0.754421 54:-0.657009 55:-0.993830 56:1.332599 57:-0.960372 58:-2.201228 59:-1.299097 60:1.053851 61:0.193079 62:0.024557 63:-0.896213 64:0.816249 65:0.411564 66:0.510819 67:0.564252 68:0.810571 69:-1.287500 70:0.986778
-1 1:0.904903 2:0.300511 3:0.616466 4:-0.611843 5:-0.601226 6:0.019172 7:0.288036 8:-0.259947 9:0.806142 10:-0.438768 11:-1.473546 12:-0.372333 13:1.418377 14:0.898952 15:-0.579265 16:-0.926221 17:0.938429 18:0.499928 19:0.873678 20:-0.009571 21:0.443978 22:1.736400 23:1.241334 24:0.163552 25:-0.338349 26:0.025938 27:-0.136918 28:0.564511 29:-1.831547 30:1.651641 31:-0.336748 32:0.725981 33:0.788335 34:-0.032818 35:0.029495 36:2.129792 37:0.176221 38:-0.600466 39:-1.072703 40:0.054491 41:1.745142 42:-0.878538 43:-0.263750 44:1.015957 45:1.255257 46:2.039023 47:0.780520 48:1.394097 49:-1.948370 50:0.831213 51:-0.916224 52:-0.578963 53:1.613259 54:-0.221087 55:0.747162 56:-1.326382 57:0.374738 58:1.299198 59:-0.827323 60:-0.181398 61:-1.231386 62:-0.014480 63:-1.038442 64:0.525015 65:1.248849 66:-0.197716 67:1.614858 68:1.416504 69:-1.044226 70:-0.397165
-1 1:1.305678 2:-0.170294 3:-0.180581 4:0.511181 5:1.194435 6:-0.315113 7:0.430752 8:0.346241 9:0.217172 10:1.361307 11:-1.171778 12:0.248376 13:1.027513 14:0.736076 15:-0.589742 16:-1.489967 17:0.152043 18:2.173928 19:2.807633 20:0.386221 21:0.150370 22:0.569578 23:0.047000 24:1.068554 25:1.163611 26:0.742491 27:0.575856 28:1.331056 29:0.938061 30:0.553952 31:-0.140606 32:-0.755261 33:-0.221905 34:-1.803166 35:0.079255 36:-0.917457 37:0.831887 38:-0.900289 39:0.270954 40:0.800552 41:-0.032566 42:1.226834 43:0.868527 44:0.006706 45:0.521697 46:0.414478 47:0.435982 48:-0.136350 49:0.884797 50:-1.487204 51:-0.624662 52:-0.431230 53:-0.565878 54:-0.452496 55:1.549495 56:1.169237 57:-1.210049 58:-0.676627 59:0.039421 60:0.674434 61:1.536244 62:1.737350 63:-0.501887 64:2.222190 65:-1.935067 66:-0.961748 67:0.700571 68:0.656488 69:-0.175993 70:-0.326763
-1 1:0.408580 2:0.545651 3:1.815500 4:0.000715 5:0.181736 6:-0.067514 7:-0.328463 8:1.300215 9:-0.123692 10:-2.245650 11:-0.280827 12:0.813872 13:-1.410183 14:1.155695 15:0.279644 16:-0.016174 17:-0.813477 18:0.497509 19:-0.208485 20:0.581569 21:-0.607712 22:1.519020 23:1.179648 24:-0.643048 25:-0.193615 26:0.687157 27:0.562822 28:-1.533856 29:1.677854 30:1.102665 31:-0.113950 32:-1.223967 33:-1.078151 34:0.021429 35:-0.571115 36:-0.252990 37:-1.401165 38:-1.116231 39:-0.766687 40:-0.682947 41:1.310598 42:0.079766 43:-0.332203 44:0.894520 45:0.511425 46:-0.618837 47:-0.404102 48:1.437730 49:-0.447721 50:-0.906204 51:0.010394 52:0.152167 53:0.793198 54:1.205412 55:-1.578769 56:0.726427 57:0.611552 58:-0.218242 59:0.303540 60:-0.296441 61:0.506905 62:0.582263 63:0.185893 64:-0.318709 65:0.882685 66:0.940781 67:1.388415 68:2.508675 69:-0.020261 70:1.689243
-1 1:-0.651811 2:-0.327316 3:-0.925410 4:0.540310 5:1.117865 6:-0.525730 7:-1.298952 8:1.201392 9:-0.210610 10:0.217978 11:-1.297317 12:-0.717730 13:-0.341489 14:0.092365 15:1.142461 16:-0.963618 17:-0.519093 18:1.276643 19:-0.837010 20:0.076632 21:-1.257830 22:0.307045 23:-0.370121 24:0.636092 25:-0.475370 26:0.959882 27:-1.718790 28:1.165304 29:0.298015 30:-1.846526 31:0.266838 32:-2.814724 33:0.315680 34:0.050063 35:-0.102962 36:-0.929351 37:0.351908 38:0.928316 39:-0.016707 40:0.348234 41:-1.487797 42:-0.785538 43:1.204721 44:-0.799364 45:1.392407 46:-2.157346 47:-0.647108 48:0.183487 49:0.500620 50:0.018266 51:-0.939563 52:0.419990 53:0.502588 54:-0.260502 55:-0.936448 56:0.437387 57:0.471221 58:-1.289906 59:-0.188819 60:-0.699414 61:0.094548 62:-0.889948 63:-0.289244 64:-1.017999 65:-0.773515 66:0.457278 67:0.950890 68:0.959191 69:0.817245 70:-0.333650
-1 1:1.102871 2:0.249764 3:-1.407310 4:0.711558 5:0.160752 6:0.431609 7:-0.589231 8:-0.823464 9:-1.867961 10:-0.757716 11:-1.054742 12:-2.158429 13:-1.866924 14:-1.258003 15:0.320651 16:-1.532647 17:0.443585 18:1.065229 19:1.884826 20:0.002447 21:-0.083822 22:-1.012950 23:-0.430301 24:1.626210 25:-1.260453 26:-1.602730 27:-0.696303 28:0.153973 29:1.100352 30:-1.388774 31:1.110631 32:-0.387193 33:0.088765 34:0.634888 35:-0.062206 36:-1.372392 37:0.738803 38:1.450901 39:0.288770 40:0.088269 41:0.124576 42:-0.259979 43:-1.556778 44:0.480078 45:0.380863 46:-0.323684 47:-1.343516 48:-0.709726 49:0.455928 50:0.968294 51:0.308620 52:0.504709 53:-0.085396 54:-0.132016 55:0.124869 56:1.082633 57:0.888023 58:0.295935 59:0.299686 60:0.244567 61:-2.058175 62:-0.092303 63:0.927219 64:-1.514246 65:-0.020915 66:-0.585509 67:-0.241420 68:-0.333538 69:-0.041781 70:1.473515
-1 1:0.320251 2:-1.110283 3:1.368566 4:0.098642 5:0.990503 6:2.144498 7:0.853763 8:-0.861253 9:1.525890 10:-0.757193 11:-0.529766 12:1.953810 13:-1.040186 14:-1.619125 15:0.118832 16:-0.490639 17:0.573365 18:-0.333627 19:1.230120 20:0.252095 21:0.774121 22:0.195314 23:0.368126 24:-1.094939 25:0.566259 26:0.858506 27:-0.122319 28:0.842036 29:0.618449 30:-1.614787 31:-0.059819 32:1.229892 33:-1.197252 34:0.718466 35:0.952039 36:-0.531393 37:1.285751 38:-0.096703 39:-0.077436 40:-3.127881 41:-1.615699 42:-0.601644 43:0.440604 44:0.220736 45:-1.422599 46:-0.202345 47:0.078432 48:-0.043303 49:1.117104 50:-0.812315 51:0.328586 52:0.348505 53:-0.464716 54:1.439136 55:2.125857 56:0.590842 57:0.115852 58:-0.802120 59:-0.640849 60:-0.752901 61:-0.327646 62:0.746193 63:-0.471741 64:1.197764 65:-1.099652 66:0.572099 67:-0.195500 68:0.674412 69:-1.279228 70:0.049200
-1 1:0.330106 2:0.530156 3:-0.039361 4:-0.231339 5:-0.482911 6:-1.312645 7:0.294528 8:-0.614028 9:-0.191893 10:-0.885473 11:-0.004957 12:-1.588433 13:-1.232566 14:1.269826 15:0.257759 16:0.444411 17:0.357834 18:0.828127 19:0.632558 20:-0.736407 21:0.901641 22:-1.933803 23:-1.450955 24:1.284352 25:0.312842 26:-0.816627 27:0.404772 28:-0.359792 29:-0.622078 30:-2.237907 31:-0.671450 32:-0.475089 33:1.407341 34:-0.008501 35:-0.915905 36:0.388211 37:0.023995 38:1.123364 39:-0.358882 40:0.036037 41:-0.594657 42:0.015244 43:1.132586 44:-1.590512 45:0.323636 46:0.434209 47:0.289416 48:-1.573980 49:-0.306588 50:1.202056 51:-0.752534 52:0.546652 53:0.637816 54:0.165281 55:1.195474 56:1.640090 57:-0.615151 58:0.932257 59:-1.081962 60:-0.315443 61:-1.626163 62:-1.177691 63:1.792750 64:0.372070 65:1.087095 66:0.054580 67:0.206016 68:0.078026 69:-2.421098 70:-1.493622
-1 1:-1.942522 2:-0.623152 3:-1.260568 4:0.415421 5:-1.070934 6:-0.587462 7:-0.680893 8:1.026495 9:-1.024547 10:0.344386 11:-0.142480 12:1.453765 13:-0.026781 14:0.684995 15:-0.707259 16:1.366477 17:0.334412 18:-0.896606 19:1.231370 20:0.394335 21:1.462646 22:0.743853 23:-0.480401 24:0.513613 25:1.421018 26:-0.396037 27:-1.483048 28:-0.100153 29:-0.272800 30:-1.292435 31:-0.381050 32:0.972453 33:0.688287 34:0.568438 35:-2.392804 36:0.231708 37:1.608863 38:0.816885 39:1.325511 40:0.834053 41:0.129395 42:0.510398 43:0.351287 44:0.408156 45:2.124561 46:0.409715 47:-1.838580 48:-1.298339 49:0.438940 50:-0.496777 51:0.009299 52:-0.795920 53:-1.786933 54:-0.022148 55:1.323415 56:1.663159 57:-0.646867 58:0.185090 59:1.007625 60:0.766575 61:0.976358 62:-1.958886 63:-0.026663 64:-0.132362 65:0.622102 66:0.643437 67:-0.413293 68:-1.095407 69:1.175762 70:1.042486
-1 1:0.457608 2:0.085434 3:1.393711 4:-1.360496 5:-2.651315 6:0.494452 7:0.021502 8:-1.598341 9:-0.008263 10:0.116185 11:-0.563340 12:0.184630 13:3.070674 14:-0.500515 15:0.853583 16:-0.241189 17:0.920267 18:0.948019 19:-0.876966 20:-0.371102 21:-0.129566 22:-0.677226 23:-0.456176 24:-0.250673 25:-0.640914 26:0.836599 27:1.311352 28:0.859468 29:-1.397805 30:0.184496 31:-1.198373 32:-0.776319 33:-0.669222 34:0.887461 35:-1.045917 36:0.402266 37:0.891929 38:2.175595 39:-1.126747 40:-0.119529 41:1.218310 42:1.226993 43:0.370486 44:0.022808 45:-1.298131 46:-0.157476 47:0.338853 48:0.156210 49:0.964430 50:-1.429419 51:0.566823 52:-0.224781 53:-0.070869 54:1.341889 55:2.241664 56:1.538503 57:0.285331 58:2.004375 59:-0.372748 60:1.853580 61:0.131688 62:0.673374 63:0.141246 64:1.332209 65:1.222116 66:-0.535601 67:-0.980909 68:-0.872528 69:0.495936 70:0.294193
-1 1:0.416159 2:-2.639370 3:-0.671946 4:-1.413676 5:1.540264 6:0.196197 7:0.388064 8:-0.709624 9:-0.346973 10:1.114751 11:1.369440 12:1.905434 13:-0.929290 14:-0.376721 15:-1.683034 16:1.534558 17:-1.053511 18:-0.470043 19:-1.104366 20:0.298756 21:0.050370 22:-0.330271 23:0.946306 24:-1.496262 25:0.718817 26:-0.734746 27:-0.924746 28:-1.356548 29:0.444345 30:2.831314 31:1.395924 32:-1.008805 33:-0.858348 34:0.273295 35:1.069637 36:0.941874 37:0.893165 38:0.292564 39:-0.197663 40:-0.710749 41:-2.331741 42:1.496013 43:-1.196439 44:0.559983 45:0.013001 46:-0.774360 47:-0.747511 48:-0.260358 49:1.375100 50:-0.606215 51:0.495967 52:1.935249 53:-1.686605 54:0.033421 55:-1.884787 56:0.700197 57:0.520915 58:1.085651 59:-0.542867 60:-1.067111 61:0.418899 62:-0.579830 63:-0.693033 64:0.047588 65:0.182428 66:-0.378841 67:0.340360 68:1.862688 69:0.571882 70:-1.449012
-1 1:1.070786 2:-0.117707 3:-1.455484 4:1.142740 5:-1.376942 6:0.222820 7:0.621905 8:-0.398102 9:-1.207689 10:0.271135 11:1.442491 12:-0.727030 13:-0.624064 14:-0.486994 15:-1.290673 16:-0.127113 17:0.589459 18:0.474118 19:-0.051903 20:0.505843 21:-0.037016 22:-1.286349 23:0.178956 24:0.899093 25:2.377930 26:-1.017103 27:0.180215 28:-1.308422 29:-0.266940 30:-0.830990 31:0.376453 32:-0.374935 33:0.218433 34:0.816016 35:-1.945256 36:0.035377 37:-0.623747 38:-0.275316 39:-0.891465 40:-0.901409 41:0.100149 42:0.107084 43:-0.753023 44:1.426072 45:0.028153 46:-1.650234 47:-1.841984 48:2.089488 49:-1.612071 50:-0.620194 51:-0.353801 52:-0.706100 53:1.293147 54:-1.026194 55:-1.754181 56:-0.710923 57:-2.531074 58:-1.591520 59:-0.091722 60:-1.099385 61:-0.454293 62:0.630474 63:-0.020431 64:0.721448 65:-0.785570 66:1.062438 67:-0.750642 68:0.835530 69:-0.937757 70:-0.823240
-1 1:-0.946455 2:1.349470 3:-0.642401 4:-1.717461 5:-0.257810 6:1.392140 7:0.272364 8:0.894392 9:1.330496 10:2.207602 11:0.130932 12:0.377934 13:1.162155 14:0.349944 15:-1.152197 16:-1.045552 17:-1.943225 18:1.540697 19:0.312890 20:0.548725 21:0.153522 22:-0.379796 23:0.228163 24:-0.207205 25:-0.612955 26:-0.303359 27:0.474983 28:-1.188967 29:1.703775 30:-0.185614 31:-0.352933 32:0.581671 33:0.746713 34:0.689507 35:0.842971 36:1.542515 37:0.980719 38:0.367441 39:1.176367 40:-1.326184 41:-1.293946 42:0.238971 43:0.615705 44:0.233116 45:0.536857 46:1.094270 47:0.638055 48:0.633759 49:0.492271 50:-0.099073 51:-0.721213 52:0.507016 53:-0.934026 54:0.695357 55:0.801389 56:-1.878237 57:1.928067 58:-1.292858 59:-0.642376 60:-0.600430 61:-0.259431 62:0.576174 63:-1.043388 64:-1.353391 65:0.038918 66:-0.080052 67:0.021684 68:-0.286164 69:-1.429057 70:1.279146
-1 1:0.003007 2:-0.618274 3:1.152959 4:-0.372657 5:0.761086 6:1.631835 7:0.252013 8:-0.310301 9:-0.743794 10:0.540214 11:0.137314 12:0.693914 13:-1.318790 14:1.138604 15:-2.240788 16:-1.046640 17:-0.167998 18:-1.891336 19:1.094917 20:1.392476 21:-0.462781 22:0.588907 23:1.233521 24:-1.393412 25:0.738138 26:1.024771 27:-0.333669 28:-0.658891 29:0.643242 30:-0.644336 31:-3.312991 32:0.798378 33:-1.779050 34:0.411086 35:0.822678 36:1.121031 37:1.141906 38:-0.624874 39:0.195630 40:1.719723 41:-0.003636 42:1.549094 43:-0.745526 44:0.415761 45:-0.798729 46:-0.036085 47:0.498090 48:1.737034 49:0.628827 50:-1.758739 51:0.741772 52:-0.763144 53:-1.858870 54:-1.109002 55:-0.225144 56:-0.412727 57:0.932167 58:0.409501 59:-1.723709 60:-0.421447 61:-1.013941 62:1.579408 63:0.734163 64:1.944728 65:0.551813 66:0.099957 67:1.286425 68:0.055267 69:0.926121 70:-1.060817
-1 1:-1.299421 2:-0.387938 3:-1.569018 4:-1.244804 5:1.377674 6:0.487931 7:-0.885164 8:0.491466 9:1.231906 10:-0.000167 11:0.150977 12:-0.791037 13:1.718611 14:-1.500227 15:-1.680626 16:-0.494530 17:-0.392174 18:-0.545126 19:-0.856759 20:0.801952 21:0.082135 22:0.977937 23:0.170384 24:1.697083 25:-1.847900 26:2.077614 27:1.815923 28:-0.920198 29:0.140168 30:-0.467437 31:0.435435 32:0.159383 33:-0.304470 34:-1.418769 35:-0.558576 36:-0.366369 37:-1.592153 38:2.174774 39:-0.045598 40:-0.745107 41:0.923253 42:-3.103190 43:-0.979457 44:2.270856 45:-0.333247 46:0.992898 47:0.622418 48:-1.383530 49:0.567055 50:-0.279998 51:-0.320048 52:0.162800 53:2.542826 54:-0.999988 55:1.726438 56:1.283656 57:-0.458396 58:1.341344 59:-1.454659 60:0.226923 61:0.790172 62:1.070776 63:-1.330447 64:-0.031415 65:0.625710 66:0.418266 67:-0.992160 68:0.808068 69:-0.708718 70:1.332999
-1 1:0.885138 2:-0.219620 3:0.114525 4:-0.137341 5:-1.458097 6:-0.035178 7:0.372072 8:0.649188 9:0.765065 10:1.237035 11:0.702323 12:-0.062445 13:0.673267 14:-0.137085 15:0.647612 16:1.382655 17:0.320901 18:0.429319 19:-0.761279 20:0.566458 21:-1.647945 22:1.394797 23:-0.271254 24:-0.813864 25:1.010351 26:-0.459148 27:0.397670 28:0.481290 29:-0.850324 30:0.274362 31:-0.090845 32:-1.269873 33:-0.538490 34:0.247577 35:0.987704 36:0.065646 37:0.751926 38:0.576484 39:0.085371 40:0.444384 41:-1.624548 42:0.443517 43:0.011905 44:-0.677563 45:-0.661137 46:-0.415572 47:0.164292 48:0.279069 49:0.310467 50:0.198831 51:0.345712 52:0.641859 53:0.968764 54:0.820523 55:1.128312 56:-0.563707 57:0.528399 58:0.455616 59:-0.821534 60:0.250549 61:0.065954 62:-0.060993 63:1.043136 64:0.759758 65:1.061458 66:0.006747 67:-1.330032 68:-0.486156 69:1.138659 70:-0.564987
-1 1:0.594742 2:0.607002 3:-0.429275 4:-1.605709 5:1.300391 6:2.476296 7:-0.089264 8:0.138631 9:0.194740 10:-0.880378 11:-0.622793 12:0.544737 13:-0.482011 14:1.686760 15:0.561121 16:-1.241824 17:0.967202 18:1.271523 19:-1.121250 20:1.416549 21:-0.306917 22:-0.581131 23:0.075445 24:0.561795 25:-1.057785 26:-0.188916 27:1.045183 28:-0.365868 29:-1.393446 30:-0.999977 31:0.064927 32:0.276695 33:-0.114403 34:-0.449571 35:-1.729978 36:0.493892 37:0.287534 38:1.575846 39:-1.672654 40:1.596918 41:-0.657038 42:1.124824 43:0.380411 44:-0.474874 45:0.625124 46:0.553931 47:0.354441 48:0.596383 49:1.648896 50:0.372190 51:0.602678 52:0.213870 53:-0.075116 54:0.524604 55:-0.064551 56:1.017731 57:0.348703 58:-0.113791 59:1.216515 60:-0.943511 61:-1.094551 62:0.671123 63:0.047913 64:-0.380379 65:-1.971531 66:1.523763 67:0.236754 68:-0.381175 69:0.748841 70:1.273300
-1 1:0.289523 2:-0.919234 3:-1.312116 4:-1.297843 5:-0.412505 6:0.399758 7:0.211408 8:-0.381393 9:-0.235818 10:0.779439 11:-0.767178 12:0.044687 13:-0.214772 14:1.857073 15:-0.082580 16:2.685212 17:-0.730655 18:-0.221529 19:0.255287 20:-0.944997 21:-1.605010 22:0.704558 23:-0.050885 24:0.425816 25:0.272242 26:-0.405350 27:0.708125 28:-1.017234 29:0.095909 30:0.640385 31:0.146556 32:0.967866 33:0.535441 34:0.826430 35:-0.254767 36:-0.054631 37:0.124646 38:0.260581 39:1.453493 40:-0.073175 41:-0.026740 42:-0.297942 43:-0.329467 44:0.271041 45:0.728869 46:2.288129 47:0.114010 48:0.044852 49:0.682833 50:-0.719569 51:0.507460 52:-0.836061 53:0.754476 54:-1.219870 55:0.710588 56:-0.955815 57:0.365748 58:0.736385 59:0.774538 60:0.019722 61:-0.177212 62:0.048888 63:-0.454492 64:0.686726 65:-0.165155 66:0.185857 67:-0.294892 68:0.183341 69:0.877411 70:1.728559
-1 1:0.338315 2:-0.989247 3:0.503320 4:-1.689300 5:0.227394 6:-0.067119 7:-1.433232 8:-0.009756 9:-0.266906 10:-0.627084 11:0.012022 12:-0.285288 13:1.536742 14:1.421692 15:0.842282 16:1.453858 17:0.850074 18:0.347002 19:1.000205 20:0.094529 21:-1.395764 22:-1.113987 23:-0.958405 24:0.274705 25:-0.327589 26:1.046575 27:-0.585385 28:-0.726024 29:-1.340645 30:0.758656 31:-0.792547 32:1.229396 33:-1.435775 34:-0.265037 35:-0.655429 36:0.215024 37:-1.359454 38:1.137093 39:-0.656399 40:0.943456 41:0.392812 42:0.720321 43:-0.770643 44:-0.007468 45:0.163023 46:-1.513022 47:-0.893463 48:0.629357 49:-0.050462 50:0.910553 51:0.424896 52:-1.203519 53:0.376289 54:0.202672 55:0.648036 56:-0.690249 57:-0.817661 58:-1.514360 59:-0.914051 60:0.285842 61:2.553691 62:0.285294 63:-1.444243 64:0.312880 65:-0.865729 66:0.142262 67:2.328045 68:-1.545391 69:-0.818752 70:0.272268
-1 1:0.646543 2:0.154814 3:-1.038745 4:-1.551511 5:0.204903 6:1.782118 7:0.383705 8:0.217589 9:-0.454738 10:-0.029497 11:0.656952 12:0.346825 13:0.412346 14:-0.809909 15:-0.293672 16:0.465453 17:-0.977115 18:1.156852 19:0.150977 20:1.263311 21:0.449230 22:-0.114706 23:-0.093752 24:-1.503892 25:0.458429 26:0.074665 27:0.795863 28:-2.042588 29:-0.961936 30:1.261038 31:0.979581 32:-0.990377 33:0.792532 34:-1.117904 35:-0.742835 36:0.266378 37:-0.138323 38:0.298538 39:0.668066 40:0.559186 41:-0.346224 42:-0.953037 43:0.217183 44:0.856083 45:1.286034 46:0.331177 47:-0.293846 48:-0.732811 49:1.330088 50:0.573752 51:1.336491 52:0.382343 53:1.263877 54:0.837582 55:0.829504 56:-2.601336 57:-0.238257 58:-0.115571 59:1.043053 60:-0.469341 61:1.830138 62:-0.629651 63:-0.084404 64:-0.407107 65:0.496683 66:-0.972875 67:0.055148 68:2.682102 69:-0.362224 70:0.546322
-1 1:-1.099261 2:-1.022741 3:0.342287 4:-0.158614 5:-1.344845 6:-0.602013 7:-0.730653 8:-0.397309 9:2.749311 10:1.592326 11:0.906322 12:-0.344876 13:0.226731 14:0.989382 15:-0.764610 16:1.493339 17:-0.219084 18:-0.555684 19:-0.502655 20:-0.082859 21:-0.246559 22:0.780664 23:-0.374568 24:0.432086 25:0.182273 26:-1.029157 27:-0.063741 28:1.164714 29:-0.748977 30:-0.912527 31:-0.151473 32:-0.037763 33:0.170342 34:-0.423505 35:0.141719 36:-0.268487 37:2.161089 38:0.484209 39:-0.259099 40:-1.660859 41:-0.429445 42:0.156477 43:-0.264792 44:-0.403040 45:0.464685 46:-0.168526 47:0.072813 48:1.249275 49:0.671378 50:0.267519 51:-2.956094 52:-0.359077 53:0.289308 54:1.159869 55:0.723889 56:-0.375053 57:-1.849041 58:0.567053 59:0.251512 60:0.476833 61:-0.082392 62:1.012458 63:0.122523 64:0.395223 65:1.763654 66:-0.571473 67:1.184530 68:1.300495 69:-0.311409 70:-0.242686
-1 1:2.019953 2:0.007299 3:0.508597 4:-0.069435 5:0.098859 6:1.099501 7:0.853803 8:0.323300 9:0.753373 10:-0.340398 11:0.401246 12:0.798629 13:0.157678 14:-0.677767 15:-1.527560 16:1.650286 17:-0.775002 18:0.288012 19:-1.142724 20:-1.213145 21:0.322391 22:-0.396945 23:0.173055 24:-0.061941 25:-1.489687 26:-1.198790 27:-0.971548 28:1.353434 29:-0.585688 30:-0.928342 31:0.418468 32:-1.279525 33:0.724521 34:-1.453182 35:1.057508 36:-1.058189 37:-0.772421 38:0.217995 39:-1.159482 40:1.328862 41:0.131822 42:-0.570627 43:-0.234019 44:0.080846 45:0.687177 46:0.428731 47:-0.524022 48:-0.453702 49:0.437565 50:-0.579410 51:-0.867485 52:-0.273780 53:-2.253051 54:-0.955361 55:0.473247 56:1.086507 57:-0.460401 58:-0.433826 59:1.414651 60:-0.744873 61:0.986811 62:-0.633059 63:-0.584267 64:0.067026 65:-0.055317 66:0.542993 67:2.119725 68:-0.513915 69:0.950240 70:0.525134
-1 1:-0.465784 2:-0.302064 3:0.218053 4:1.610060 5:-0.601378 6:0.353731 7:0.624756 8:-0.385146 9:-1.593391 10:-0.467999 11:0.809280 12:0.545725 13:-0.300523 14:-3.298826 15:0.910255 16:-1.138247 17:1.319064 18:0.877727 19:-0.247321 20:0.567657 21:-1.738712 22:0.454961 23:2.547726 24:-1.551861 25:-0.260327 26:0.251356 27:0.461088 28:-2.526799 29:-1.812284 30:1.295085 31:-2.036555 32:-0.447138 33:-0.883071 34:-1.372624 35:-1.233143 36:0.158403 37:0.058141 38:0.764835 39:2.575353 40:-0.343113 41:0.155596 42:0.724866 43:-2.215121 44:-1.931908 45:-1.051637 46:0.172673 47:-0.661127 48:-0.955745 49:-1.442037 50:1.366423 51:1.284779 52:-0.253414 53:-0.954097 54:0.687535 55:0.520187 56:-1.079941 57:1.994828 58:0.440666 59:-0.463267 60:-0.034263 61:-0.158590 62:-0.252499 63:1.068002 64:0.547353 65:1.178732 66:1.250570 67:-0.501525 68:1.249942 69:0.247526 70:0.126669
-1 1:-0.025053 2:0.279374 3:-0.206484 4:0.186450 5:1.440128 6:1.677087 7:2.010782 8:-1.147090 9:-0.343005 10:2.008082 11:-1.502999 12:0.032085 13:-1.036428 14:-0.295828 15:0.148252 16:-0.731887 17:0.483234 18:0.896771 19:-0.809208 20:-0.724335 21:-0.877944 22:-0.010329 23:2.026654 24:1.368382 25:1.048190 26:1.361352 27:-1.179180 28:1.029723 29:0.590229 30:0.364013 31:-1.023677 32:-0.302906 33:-0.434641 34:-1.981296 35:1.250388 36:-2.020010 37:-0.215316 38:-0.112655 39:-1.534977 40:0.836532 41:0.907633 42:1.421003 43:-0.401161 44:-0.563828 45:-0.749746 46:0.189522 47:0.877253 48:-0.190201 49:1.083250 50:0.485429 51:0.368554 52:0.777989 53:1.239719 54:-1.732893 55:0.543291 56:0.252452 57:-0.322533 58:1.439173 59:-0.648980 60:-0.896402 61:-0.731336 62:2.582320 63:-1.592865 64:0.614856 65:-0.546602 66:-0.804475 67:-0.444867 68:0.560537 69:1.208228 70:-0.017645
-1 1:-2.070866 2:0.482180 3:1.385160 4:-0.926930 5:0.082266 6:-0.525116 7:0.495055 8:-2.585446 9:0.766261 10:-0.020454 11:-0.535054 12:0.726971 13:-0.886621 14:1.299479 15:1.591209 16:-1.279920 17:1.302474 18:0.196911 19:-0.943817 20:0.868882 21:1.209781 22:-0.514844 23:-1.306897 24:-1.412366 25:-1.077557 26:1.946439 27:0.751159 28:0.404976 29:-1.149095 30:0.445802 31:0.624727 32:-2.164012 33:0.954170 34:-0.293431 35:-1.400937 36:-1.937526 37:0.200814 38:-0.677155 39:1.017738 40:0.641917 41:-0.643117 42:-0.225039 43:-0.381612 44:-0.446547 45:1.085072 46:-0.875740 47:1.155363 48:0.960273 49:-0.812153 50:0.595149 51:0.356943 52:-1.521867 53:2.040736 54:-1.604622 55:-1.894911 56:0.307472 57:0.294764 58:-0.751324 59:-0.183009 60:1.922424 61:-2.222527 62:-0.458707 63:-0.886957 64:1.729440 65:-0.641034 66:1.184890 67:0.487631 68:-1.183441 69:0.013396 70:-0.838377
-1 1:0.879081 2:1.848328 3:0.165027 4:-1.716626 5:-0.165033 6:0.189558 7:0.772752 8:0.477468 9:1.555355 10:-0.126768 11:-0.799960 12:0.008579 13:3.174113 14:0.444312 15:1.264703 16:0.252628 17:0.178641 18:1.801613 19:0.688917 20:1.067613 21:2.328125 22:1.276113 23:1.563706 24:0.076782 25:0.709168 26:0.911783 27:2.636706 28:0.147637 29:0.781650 30:-0.609178 31:0.847860 32:-1.021670 33:-1.042312 34:1.542409 35:0.092345 36:1.983961 37:-0.607473 38:-0.129290 39:2.264676 40:1.988460 41:-0.991557 42:-0.579462 43:-1.409515 44:-0.341121 45:-3.462933 46:1.383045 47:-0.873023 48:1.165393 49:-0.623049 50:-0.085698 51:1.095113 52:-0.522808 53:-1.538141 54:0.502287 55:0.510145 56:0.357910 57:-0.120313 58:-0.463038 59:-1.028957 60:0.231673 61:0.400289 62:-0.458702 63:0.115952 64:-0.142637 65:-2.489006 66:0.666053 67:-1.268451 68:-0.188174 69:-0.372791 70:-0.499814
-1 1:-0.696056 2:-1.010462 3:-0.571587 4:-0.333898 5:0.194697 6:1.508648 7:0.525029 8:-0.407758 9:-0.555915 10:1.001760 11:0.183062 12:1.333431 13:-0.585913 14:-1.637196 15:0.802232 16:-0.226347 17:0.774188 18:-2.758295 19:-0.031012 20:-0.365491 21:1.282284 22:1.676679 23:1.593890 24:-0.423874 25:1.427094 26:-0.627212 27:-0.399824 28:-1.197120 29:-3.397062 30:0.907656 31:-0.113886 32:0.894624 33:0.509287 34:0.189893 35:1.370855 36:0.982590 37:-0.516775 38:-0.551045 39:0.672586 40:0.156208 41:-0.544594 42:2.014662 43:0.552193 44:-0.549431 45:-0.154242 46:0.480760 47:0.739760 48:-0.620692 49:0.804802 50:-0.266726 51:0.085073 52:-0.148412 53:-0.384348 54:-0.675976 55:-1.214275 56:-1.175739 57:0.264858 58:-0.701020 59:-0.577780 60:-1.441964 61:1.723203 62:-0.008094 63:0.117938 64:-0.115273 65:0.187212 66:1.399451 67:-1.379335 68:-0.076994 69:-1.282638 70:-0.883307
-1 1:-0.250381 2:-0.534619 3:0.061279 4:0.150827 5:1.628450 6:-1.246633 7:0.191753 8:-0.731876 9:-0.764622 10:-1.502699 11:-1.849065 12:0.248990 13:0.307224 14:2.146336 15:0.343993 16:-0.812375 17:0.702836 18:-0.553185 19:-1.106783 20:0.367032 21:1.280093 22:0.935570 23:1.783498 24:0.399984 25:2.552795 26:-0.080229 27:0.893964 28:0.045258 29:0.366735 30:-0.076023 31:1.298312 32:1.657781 33:-1.034685 34:0.111128 35:-0.562926 36:-1.673506 37:0.248856 38:-0.314983 39:1.322026 40:-1.696959 41:-1.260296 42:-0.394526 43:0.269810 44:0.731791 45:0.260854 46:-0.771212 47:0.052108 48:-0.105824 49:2.465610 50:-0.966320 51:-1.317423 52:1.491110 53:-0.382497 54:0.276596 55:-0.481203 56:1.092540 57:0.171244 58:0.001773 59:0.871734 60:0.067848 61:-0.046158 62:1.319092 63:1.044840 64:-0.437884 65:-1.105182 66:-1.080365 67:0.292212 68:2.057692 69:-0.374687 70:0.646493
-1 1:-0.131451 2:-1.166490 3:-0.510127 4:0.696346 5:-1.184069 6:0.733704 7:-1.003597 8:-1.456040 9:-0.497021 10:0.603399 11:0.271799 12:-0.968646 13:0.695657 14:1.441319 15:-0.374935 16:1.204742 17:0.968029 18:3.305336 19:-0.676579 20:-1.184746 21:-0.909897 22:1.250425 23:-0.577012 24:-0.813453 25:-1.192299 26:-0.890115 27:-0.030864 28:-2.472930 29:-1.419893 30:-0.354222 31:0.580796 32:-0.691771 33:-0.140024 34:1.173221 35:0.677428 36:0.208207 37:-2.267506 38:0.416928 39:-1.501681 40:0.357002 41:-0.769624 42:-0.149311 43:1.090121 44:-0.557416 45:-1.058471 46:0.165050 47:1.350549 48:-0.879073 49:0.077616 50:0.325587 51:-0.051357 52:0.660161 53:1.353189 54:-0.166883 55:-2.191367 56:0.741138 57:0.060279 58:-2.058746 59:0.073006 60:1.214323 61:0.272873 62:-0.129976 63:-0.828706 64:0.330391 65:-2.047054 66:0.419615 67:0.040056 68:-0.043692 69:0.047165 70:0.280247
-1 1:1.716066 2:-1.368948 3:1.142501 4:-1.430517 5:-0.843922 6:-0.961796 7:-0.479152 8:0.418887 9:1.424495 10:-0.626366 11:-2.107705 12:0.423107 13:-0.458016 14:0.481514 15:1.397713 16:1.426495 17:0.071914 18:0.549450 19:-0.179615 20:-0.541664 21:-1.580869 22:0.183459 23:0.517241 24:0.080989 25:-1.285034 26:-0.797980 27:-0.396436 28:-1.424100 29:0.738318 30:-1.850580 31:-1.554438 32:0.028977 33:-0.700133 34:-0.376311 35:1.754997 36:-0.216159 37:0.093946 38:0.208913 39:-0.072935 40:0.716085 41:-0.572527 42:-0.575987 43:0.528399 44:-0.243082 45:0.304986 46:-1.916990 47:-0.841754 48:-1.543154 49:0.318551 50:0.190420 51:-0.073435 52:1.293307 53:1.406537 54:-1.163085 55:-0.045219 56:0.171603 57:0.234649 58:-0.204206 59:-0.024820 60:0.831024 61:2.154326 62:-1.624102 63:1.127681 64:-1.253225 65:0.960424 66:0.167314 67:-0.910482 68:0.050276 69:-1.567694 70:-1.411318
-1 1:1.067223 2:0.063684 3:-0.395929 4:-0.007220 5:-0.304233 6:-0.853945 7:-0.480809 8:0.205425 9:1.202075 10:0.880780 11:0.496586 12:0.967106 13:-0.343130 14:-0.853749 15:-0.802115 16:-0.565259 17:-0.312247 18:-1.360406 19:-0.422157 20:0.048854 21:-0.953537 22:2.160259 23:-1.161053 24:1.750410 25:-0.709373 26:-1.937282 27:0.697249 28:-0.945231 29:0.663519 30:-0.422966 31:1.006937 32:-1.303706 33:0.358661 34:-0.830908 35:0.260284 36:-0.388115 37:0.488258 38:1.424283 39:-1.315969 40:-1.309548 41:-1.109280 42:1.830263 43:0.559278 44:-0.492493 45:0.590794 46:2.173760 47:-0.444145 48:-0.450959 49:0.082005 50:0.490721 51:-0.223407 52:1.418238 53:-0.787532 54:-1.832216 55:0.096859 56:0.697559 57:1.426663 58:-0.306736 59:0.040607 60:1.381260 61:0.440603 62:-0.995983 63:-0.556077 64:0.939773 65:0.606999 66:0.396564 67:-1.212053 68:1.148657 69:1.802251 70:-0.338554
-1 1:-0.324163 2:0.381139 3:1.811020 4:0.367348 5:0.068996 6:0.185507 7:-0.756925 8:-1.076154 9:-0.972601 10:-0.168896 11:0.013774 12:-1.397113 13:0.336810 14:1.300229 15:-1.240562 16:-0.011585 17:-1.240513 18:0.754680 19:-0.529659 20:0.366134 21:-0.469616 22:0.418595 23:-0.314821 24:-1.130887 25:0.171579 26:-0.652859 27:1.943071 28:0.146177 29:0.986840 30:-0.149513 31:0.225643 32:0.499090 33:2.285589 34:-2.411379 35:-0.046752 36:0.109241 37:1.697416 38:0.910979 39:-0.110688 40:-1.890036 41:-0.370807 42:0.562356 43:0.640725 44:0.768989 45:-0.948399 46:-0.439321 47:0.332889 48:1.184619 49:0.174254 50:0.056123 51:-1.360367 52:0.346276 53:1.246324 54:0.500666 55:-0.589537 56:-0.648086 57:-0.856366 58:0.605336 59:0.473952 60:0.252745 61:0.595009 62:-0.939792 63:-1.166775 64:-0.174935 65:-0.592591 66:-0.473991 67:-0.301831 68:-0.095028 69:-0.784142 70:1.377357
-1 1:0.157246 2:0.011861 3:0.741302 4:-0.686123 5:1.461747 6:-1.135724 7:0.323796 8:-0.744984 9:-0.895602 10:0.896853 11:0.183675 12:-1.762296 13:-0.686768 14:1.170837 15:0.065407 16:-1.231831 17:1.171998 18:0.280413 19:0.728727 20:0.815448 21:-0.758261 22:1.408530 23:1.155731 24:1.211698 25:0.142023 26:-0.892478 27:1.791911 28:0.344230 29:0.001723 30:0.490433 31:-0.273087 32:0.405293 33:-0.167773 34:-0.326326 35:0.306787 36:0.918977 37:1.085033 38:1.748513 39:-0.050861 40:0.002465 41:0.083978 42:1.129262 43:0.040212 44:0.819278 45:0.948036 46:1.092592 47:-0.398095 48:0.089596 49:0.074896 50:-0.551219 51:0.446488 52:-0.936933 53:0.130008 54:-0.433835 55:-1.391014 56:-1.582772 57:-0.321325 58:-0.123005 59:2.275073 60:1.202416 61:-1.650401 62:-0.081857 63:-0.982572 64:-0.923791 65:0.953233 66:-0.886498 67:0.487091 68:1.214716 69:-1.153135 70:0.305146
-1 1:0.152307 2:-0.233607 3:-0.944127 4:-1.380884 5:0.728837 6:0.183821 7:-0.964336 8:-0.648452 9:0.024444 10:0.127306 11:0.798326 12:1.084195 13:1.890383 14:0.473731 15:-0.373869 16:1.508590 17:-0.767150 18:-0.076005 19:-0.359776 20:-1.142427 21:0.070388 22:0.242298 23:0.031621 24:-0.400667 25:0.740711 26:-0.883494 27:0.326919 28:1.182767 29:-1.607152 30:-0.161529 31:-0.755261 32:-1.029287 33:-0.261474 34:-0.537303 35:-0.673550 36:-1.990409 37:-0.324612 38:-0.057883 39:0.197059 40:0.268631 41:-2.187350 42:-0.534427 43:0.785499 44:-0.292345 45:0.016248 46:-1.064816 47:0.602684 48:0.335254 49:0.878089 50:1.103867 51:-0.146266 52:-1.056194 53:-1.492968 54:-1.026210 55:0.190983 56:-0.480750 57:1.674126 58:-0.493733 59:0.997707 60:-1.269048 61:1.052840 62:0.635519 63:-0.318105 64:-1.148189 65:0.741488 66:0.075907 67:-0.002330 68:0.580864 69:-1.411564 70:0.084428
-1 1:0.168854 2:1.316945 3:1.549913 4:0.794051 5:-1.385188 6:0.329707 7:0.439435 8:1.035302 9:-0.905008 10:-0.052860 11:-0.096873 12:-0.920896 13:0.842262 14:-0.757551 15:-1.157175 16:-1.175729 17:1.434751 18:-1.572131 19:-0.096361 20:-0.517164 21:2.335529 22:-1.098436 23:-0.590590 24:-0.014586 25:-0.097077 26:0.464946 27:-0.865393 28:-0.532197 29:-0.277127 30:-0.586619 31:-0.454821 32:1.780185 33:0.140463 34:-1.945517 35:0.114745 36:0.979745 37:0.117162 38:-0.109059 39:0.491883 40:-0.747078 41:0.719083 42:0.994620 43:1.303176 44:-0.250900 45:-0.984870 46:0.512915 47:-1.937759 48:0.887997 49:0.325111 50:-2.828240 51:-0.236199 52:0.445091 53:1.186793 54:-0.492563 55:0.764412 56:-2.050393 57:0.511415 58:1.264063 59:1.719496 60:0.944854 61:-0.815152 62:0.531259 63:-1.941054 64:-0.002454 65:1.789630 66:1.469058 67:-1.322262 68:-0.299872 69:-0.962905 70:-0.563545
-1 1:0.195965 2:0.452148 3:0.961827 4:0.946583 5:1.206891 6:-1.811459 7:-0.424993 8:-0.272697 9:-1.923089 10:-1.041573 11:1.139885 12:0.935322 13:0.196447 14:-0.921061 15:1.606147 16:-2.050622 17:-1.018051 18:0.657816 19:-1.349855 20:1.652289 21:-0.952552 22:-0.140256 23:0.876677 24:0.287746 25:-1.610235 26:0.642612 27:-0.247595 28:1.859946 29:-0.599528 30:-0.538415 31:-0.650103 32:-0.900014 33:-1.060706 34:0.284155 35:0.685217 36:-1.332943 37:-0.735399 38:3.506603 39:0.243226 40:-0.191049 41:-1.778516 42:0.524987 43:-0.376238 44:0.615233 45:0.090524 46:-1.618912 47:-0.019055 48:-0.744987 49:-0.134371 50:-0.612256 51:-0.222158 52:-1.318630 53:1.266534 54:0.281857 55:0.848352 56:0.556573 57:-0.885491 58:0.033179 59:1.120258 60:-0.322217 61:-0.280582 62:1.526611 63:0.995305 64:-0.271140 65:0.388098 66:-0.501542 67:-1.279982 68:-0.099227 69:-0.387185 70:-0.656368
-1 1:-1.969356 2:0.442830 3:-0.198409 4:-1.041427 5:0.751516 6:-0.835306 7:0.203538 8:-0.454594 9:-1.108927 10:-0.725065 11:0.022180 12:0.665227 13:-0.255291 14:-0.126558 15:0.202812 16:0.306836 17:-0.743419 18:-0.435726 19:-0.485877 20:0.131109 21:0.410851 22:-0.283018 23:-0.237213 24:1.455608 25:0.535729 26:0.614793 27:0.153158 28:0.027499 29:-0.785747 30:0.075875 31:-0.162037 32:-0.130530 33:-1.008908 34:-0.475990 35:-2.378941 36:-1.611751 37:-0.183221 38:0.737359 39:-0.956813 40:-0.645098 41:1.755270 42:-1.619979 43:-0.772025 44:-1.528282 45:-0.593076 46:0.386702 47:0.871060 48:-0.080730 49:-0.132478 50:-0.273021 51:-1.368330 52:1.262351 53:0.908275 54:0.889631 55:-0.458940 56:-1.274813 57:0.065011 58:-1.241423 59:-1.603144 60:0.422731 61:1.270389 62:1.446830 63:0.175474 64:-0.652023 65:0.317530 66:0.173727 67:-0.727950 68:-1.198547 69:0.647164 70:0.621650
-1 1:-1.656747 2:-0.235385 3:-0.841050 4:0.171866 5:0.414678 6:0.618167 7:0.794076 8:0.650663 9:-0.144433 10:0.572462 11:-1.001606 12:-1.353688 13:-0.253564 14:-0.165956 15:-1.815175 16:-0.254622 17:-0.468883 18:0.282555 19:0.141584 20:-0.555458 21:0.418039 22:-0.547314 23:0.426718 24:0.622011 25:-1.669774 26:-0.889959 27:0.244035 28:-0.463072 29:-1.135989 30:-1.069368 31:-0.262887 32:-0.290155 33:-0.797253 34:0.528937 35:-0.446398 36:-0.721119 37:-1.362917 38:-1.237610 39:-0.019911 40:-0.171183 41:-0.470219 42:1.600909 43:-0.239019 44:0.100241 45:0.022299 46:-0.086311 47:-0.682549 48:-0.602396 49:2.186399 50:-1.416798 51:-0.192014 52:-0.996424 53:-0.795207 54:-0.617165 55:-0.469217 56:1.227297 57:-1.473565 58:0.169564 59:0.255223 60:0.173842 61:0.290544 62:0.730670 63:0.167446 64:0.318475 65:-1.482292 66:0.361053 67:-0.283938 68:-0.745819 69:0.133985 70:-0.431822
-1 1:0.014365 2:2.126599 3:-2.723216 4:0.569267 5:-0.663377 6:-0.135386 7:-1.413306 8:-0.942828 9:0.090211 10:-0.140065 11:-0.782963 12:-1.775732 13:0.548364 14:-0.363885 15:-0.090513 16:0.673230 17:1.419155 18:-0.066768 19:-1.927114 20:1.752687 21:0.680680 22:0.239956 23:-1.596125 24:0.509910 25:-0.492558 26:-0.197535 27:0.126991 28:-0.873927 29:0.784276 30:-1.146646 31:-0.178800 32:1.150683 33:-1.438598 34:0.198790 35:0.820772 36:0.485648 37:0.041760 38:1.153188 39:-1.040415 40:0.843594 41:0.763127 42:-0.307795 43:0.700277 44:0.065973 45:2.116949 46:-0.514648 47:0.583932 48:-0.805988 49:0.362769 50:-0.995207 51:0.779895 52:0.402300 53:-0.642114 54:1.965439 55:-0.141363 56:0.534461 57:-1.256430 58:0.675199 59:-0.056580 60:2.931879 61:-0.164809 62:-1.151942 63:-0.974160 64:0.963273 65:-1.230630 66:-0.346705 67:0.416572 68:-1.237197 69:-0.125393 70:0.052539
-1 1:-0.519810 2:-1.997901 3:0.252473 4:-1.860958 5:-0.192953 6:1.235912 7:-0.011288 8:-0.189357 9:-0.947904 10:1.114323 11:1.458134 12:-0.283394 13:-0.104678 14:-0.054850 15:-0.110434 16:0.278220 17:1.136864 18:-0.192660 19:0.177529 20:-1.083944 21:-0.252434 22:1.699136 23:0.824822 24:0.069465 25:0.506808 26:-1.203299 27:0.968247 28:1.551523 29:-0.443867 30:-1.353959 31:0.756087 32:-0.816842 33:1.849832 34:0.555807 35:-1.308685 36:-0.379003 37:-1.635086 38:-0.577839 39:-1.143601 40:0.557147 41:1.066295 42:-0.399514 43:1.410288 44:0.710113 45:-1.559040 46:0.070091 47:-0.131478 48:-1.149635 49:1.174019 50:0.647081 51:-1.633376 52:-0.654757 53:1.523386 54:1.314916 55:0.554838 56:0.436884 57:-0.010517 58:0.913140 59:-1.497875 60:0.530946 61:-1.681819 62:-0.964798 63:-0.325270 64:-0.232215 65:-1.415313 66:0.357336 67:-0.791150 68:-0.016378 69:-0.733480 70:1.113334
-1 1:0.162194 2:0.006984 3:0.636078 4:-0.515955 5:-0.645269 6:-0.700497 7:-0.127792 8:-1.080178 9:0.951613 10:-1.321746 11:1.089249 12:0.069015 13:-1.249417 14:0.649959 15:0.085245 16:0.025203 17:-0.168067 18:-0.408771 19:-0.727355 20:0.521981 21:-2.123931 22:-0.733544 23:-1.403473 24:0.563481 25:-1.357804 26:0.273070 27:-0.682803 28:0.667061 29:-0.152199 30:-1.291793 31:0.378768 32:0.181961 33:0.742100 34:0.316328 35:0.026045 36:-0.212237 37:0.008988 38:0.835887 39:0.064267 40:1.635608 41:-0.286224 42:-0.813189 43:-2.211692 44:-0.297675 45:0.091600 46:-0.645932 47:-0.585368 48:1.008083 49:1.489269 50:-0.106444 51:-0.082636 52:0.514592 53:-0.441086 54:0.557708 55:-1.111067 56:-1.075300 57:0.385942 58:-0.166548 59:1.472381 60:0.103255 61:-0.337390 62:-0.018408 63:-1.077449 64:-0.007873 65:-1.076935 66:-0.897043 67:0.134035 68:1.110891 69:0.988533 70:1.468418
-1 1:-1.767334 2:-0.850444 3:0.590619 4:-0.007243 5:-1.932787 6:-1.259294 7:1.925912 8:2.189611 9:-0.945633 10:1.708359 11:1.058237 12:-0.252015 13:0.525014 14:1.709896 15:-0.200587 16:-1.192427 17:1.642508 18:0.351293 19:0.357493 20:-0.896592 21:-0.101330 22:0.136085 23:-0.147931 24:-1.389963 25:1.408438 26:0.536017 27:0.532767 28:0.262840 29:0.759847 30:-1.412686 31:-2.225757 32:0.190235 33:0.334154 34:1.284587 35:1.515687 36:-0.543735 37:0.376621 38:-1.646081 39:-0.348638 40:-0.589098 41:0.773892 42:-1.086697 43:0.300561 44:-0.329897 45:-0.115856 46:0.715363 47:2.386115 48:0.824834 49:-1.979931 50:0.426166 51:-0.172842 52:-0.298338 53:1.421169 54:-0.919627 55:-1.708138 56:0.641269 57:1.340726 58:-0.267038 59:1.592583 60:0.784769 61:0.296398 62:0.104179 63:1.219088 64:-2.944291 65:0.201023 66:-2.204591 67:0.526481 68:0.995194 69:-0.218552 70:-0.664236
-1 1:-0.470289 2:0.679726 3:-0.814675 4:-0.321290 5:-0.622948 6:-0.667509 7:-0.261614 8:-0.808956 9:-0.992951 10:0.867290 11:-0.204655 12:1.935879 13:0.020150 14:-1.359542 15:-0.943740 16:-0.029058 17:-0.380336 18:-1.565787 19:0.974311 20:1.339581 21:-1.259602 22:-0.161566 23:-0.333962 24:1.009332 25:-1.097438 26:-1.058979 27:0.182138 28:1.933416 29:-0.321553 30:0.822029 31:0.073354 32:-0.132302 33:-0.867294 34:-0.926145 35:0.157749 36:-1.055967 37:-0.737135 38:-1.417102 39:2.335589 40:-0.135323 41:0.499795 42:0.197129 43:-2.371457 44:-0.517479 45:1.230321 46:-0.978646 47:0.155687 48:0.782369 49:0.442394 50:-0.883602 51:0.557414 52:-1.685648 53:0.654506 54:1.602766 55:1.450509 56:0.630929 57:-0.159500 58:0.351137 59:-0.292291 60:-1.507884 61:-0.372177 62:1.165705 63:0.161576 64:1.100908 65:-0.129136 66:1.821958 67:-1.423334 68:-1.158023 69:1.073032 70:0.805843
-1 1:1.109564 2:0.205814 3:0.063454 4:0.287333 5:0.863810 6:-0.952765 7:-0.065825 8:-2.007796 9:-0.556255 10:-0.048826 11:-0.020563 12:0.499819 13:1.841930 14:0.631825 15:-1.138303 16:0.682441 17:0.592091 18:-0.148697 19:0.532130 20:-0.408053 21:-0.879245 22:-0.163486 23:0.947107 24:0.180156 25:0.262761 26:-1.012571 27:0.697152 28:0.725777 29:-0.773692 30:1.292823 31:0.067830 32:-1.132198 33:0.304880 34:0.711485 35:-0.006805 36:-0.953906 37:-0.969275 38:-1.839148 39:0.633191 40:-1.005904 41:-0.334080 42:-0.365541 43:0.396074 44:-1.841764 45:-0.307950 46:-0.920928 47:-0.967482 48:-0.609862 49:-0.840789 50:-0.369948 51:1.029222 52:0.850703 53:0.857941 54:-0.337291 55:0.062712 56:-0.081102 57:0.732812 58:0.082555 59:1.404490 60:0.155942 61:0.948007 62:0.063953 63:-0.935298 64:1.403122 65:0.575231 66:1.329772 67:-0.360329 68:-0.152368 69:0.892120 70:0.861707
-1 1:0.370257 2:-1.180721 3:-0.116825 4:0.280966 5:1.062379 6:0.753349 7:0.583894 8:-0.141847 9:0.645055 10:-0.876792 11:-0.172417 12:1.222408 13:0.563972 14:1.383697 15:1.749847 16:-1.200588 17:1.004772 18:1.937650 19:0.029372 20:0.971168 21:0.268699 22:-0.166771 23:0.756994 24:0.601906 25:-0.284086 26:-2.372495 27:-0.268537 28:0.034680 29:-1.898193 30:-1.260798 31:0.254969 32:-1.362157 33:-1.032770 34:0.476575 35:-0.781237 36:-0.561280 37:0.441479 38:0.766272 39:1.406920 40:-0.099849 41:-0.182259 42:-1.512239 43:0.512175 44:-0.233343 45:-2.169744 46:1.498866 47:-0.293995 48:-1.332777 49:-0.416195 50:-1.593405 51:0.073735 52:-1.811066 53:0.280229 54:0.457904 55:1.155196 56:-0.919034 57:-0.004236 58:0.499144 59:0.133402 60:0.098668 61:0.415113 62:1.098497 63:0.064676 64:1.774216 65:-0.194426 66:-0.673469 67:-0.557084 68:0.801464 69:0.966035 70:0.996555
-1 1:0.887253 2:-0.941943 3:1.086429 4:0.464691 5:0.167751 6:-1.454227 7:1.202806 8:0.108142 9:-0.131533 10:-0.534789 11:1.069256 12:-0.228035 13:0.446597 14:1.385456 15:-0.750363 16:0.432962 17:1.248695 18:-0.028133 19:1.156475 20:-0.850125 21:0.745864 22:1.060061 23:1.128899 24:-1.710948 25:0.273275 26:0.253585 27:0.466159 28:-1.485335 29:0.299951 30:-1.055862 31:0.628637 32:-1.376678 33:0.214321 34:0.817901 35:-0.672588 36:0.450107 37:0.816103 38:-0.238215 39:-0.946169 40:0.200829 41:-0.185019 42:0.899691 43:1.357612 44:0.512522 45:-0.423865 46:0.036629 47:-0.602866 48:-0.939889 49:-0.343482 50:-0.279103 51:-0.124391 52:-0.601336 53:0.738528 54:1.418883 55:-0.282446 56:-0.069701 57:-1.345401 58:0.290895 59:-1.333611 60:1.718472 61:-0.419303 62:-0.595185 63:0.214897 64:0.321750 65:2.284526 66:0.198081 67:0.164768 68:0.746188 69:0.921342 70:-0.808637
-1 1:-0.651541 2:-0.502831 3:-0.300792 4:0.766137 5:1.041535 6:-0.872788 7:0.405608 8:0.106549 9:1.059199 10:0.678909 11:0.989737 12:-0.847466 13:1.815885 14:-1.406939 15:1.340056 16:1.708233 17:0.672367 18:-0.973385 19:0.539001 20:0.494516 21:1.292890 22:-0.416664 23:0.185701 24:-0.194196 25:1.338476 26:-0.722113 27:1.017414 28:-0.902226 29:0.956389 30:0.298811 31:-0.309160 32:-0.685204 33:-0.011767 34:-0.543918 35:-0.252386 36:2.114297 37:1.007318 38:-1.326027 39:0.658531 40:0.100032 41:-0.867792 42:0.388169 43:0.694072 44:0.139834 45:1.428897 46:0.680507 47:-0.768502 48:0.429718 49:0.233791 50:0.332720 51:0.649667 52:-0.577172 53:0.114871 54:0.674618 55:0.468188 56:-0.276646 57:-0.104863 58:0.565129 59:-2.005401 60:-0.004062 61:-1.289264 62:0.094039 63:0.302586 64:0.286803 65:-0.172177 66:0.114228 67:0.220739 68:0.153017 69:1.474862 70:-0.491635
-1 1:0.734172 2:-0.220683 3:0.299656 4:0.271826 5:0.455174 6:-1.387286 7:0.539063 8:-0.095181 9:-0.582101 10:0.503377 11:0.766517 12:-0.570342 13:-0.187607 14:1.966146 15:0.486834 16:1.949169 17:0.020035 18:-0.502933 19:1.441181 20:0.331290 21:0.005935 22:-0.635243 23:2.212305 24:0.597007 25:0.407691 26:-0.240499 27:1.084052 28:-0.224748 29:-0.713480 30:-0.688733 31:-0.513930 32:-0.602070 33:-0.091139 34:0.056824 35:0.172623 36:-0.092928 37:0.515516 38:1.438675 39:0.148354 40:1.634366 41:-0.683914 42:0.228004 43:0.969074 44:1.064897 45:2.617711 46:0.804415 47:-0.225388 48:-0.728568 49:-1.249122 50:-0.153924 51:-0.272365 52:1.478170 53:0.445952 54:-0.751115 55:-0.439344 56:-0.431711 57:-0.942251 58:1.419538 59:-1.929099 60:-0.818906 61:-0.132306 62:-1.586510 63:0.896467 64:0.619001 65:-0.191045 66:0.977569 67:-0.695581 68:-0.229535 69:-0.918433 70:0.233694
-1 1:-0.500810 2:0.869515 3:-1.244609 4:-0.063492 5:-0.093239 6:1.036664 7:-0.642055 8:0.844285 9:-0.346246 10:-1.409833 11:-0.225620 12:-1.334457 13:1.510379 14:0.574544 15:0.962647 16:-0.049841 17:0.638499 18:0.759366 19:-0.424422 20:-0.142111 21:0.632438 22:-1.671709 23:0.388729 24:0.181604 25:0.150473 26:1.102910 27:-1.071107 28:0.758945 29:0.408319 30:0.055016 31:-0.969079 32:1.761334 33:0.367093 34:0.583528 35:-2.374443 36:0.710701 37:-1.016449 38:0.147928 39:1.404851 40:0.019485 41:1.392143 42:-0.660531 43:-0.090671 44:-0.549742 45:0.681089 46:-1.580310 47:-1.333911 48:-1.446724 49:-0.035133 50:0.975284 51:-0.804653 52:-0.101873 53:-0.015911 54:1.108729 55:1.087006 56:-0.490347 57:0.858141 58:1.478159 59:-0.868869 60:-0.034178 61:1.646701 62:-1.950420 63:-1.146587 64:-0.536522 65:0.282268 66:-0.365371 67:0.318869 68:1.064378 69:0.185377 70:-0.517235
-1 1:1.647152 2:0.719936 3:0.447337 4:0.504006 5:0.908211 6:-1.229897 7:0.701075 8:0.137106 9:1.466444 10:0.195746 11:-1.163450 12:0.125559 13:0.945009 14:1.031977 15:-0.487612 16:0.936058 17:-1.062769 18:0.115698 19:-0.658370 20:1.254172 21:0.321748 22:-0.801347 23:-2.461746 24:1.443717 25:1.404240 26:-2.291607 27:0.799366 28:0.410254 29:1.709640 30:1.951769 31:-1.271492 32:0.499684 33:-1.108903 34:0.050998 35:-0.427879 36:1.051160 37:-1.463718 38:1.430818 39:1.164031 40:0.881343 41:-0.578055 42:0.010306 43:0.129093 44:0.404349 45:1.454811 46:0.451871 47:0.566086 48:-0.102444 49:-0.762228 50:-0.397235 51:0.176142 52:1.310286 53:-0.662339 54:0.604000 55:1.260841 56:0.059836 57:0.993447 58:-1.307326 59:0.176450 60:-1.636805 61:0.170277 62:-1.233330 63:-0.984886 64:-0.489097 65:0.088484 66:-0.204837 67:-0.527593 68:0.441889 69:-1.645588 70:0.609699
-1 1:-0.011468 2:-0.703501 3:0.658696 4:0.313271 5:1.208417 6:-1.285062 7:0.044241 8:1.632050 9:0.317143 10:-1.526628 11:-2.017255 12:1.148396 13:1.134358 14:-1.196351 15:1.099888 16:0.481839 17:0.562560 18:0.900645 19:1.244002 20:-1.605091 21:0.767383 22:-0.641995 23:-0.692261 24:-0.178588 25:-0.525951 26:0.982314 27:0.708441 28:0.115917 29:-0.337969 30:-0.392490 31:0.322141 32:1.175210 33:0.231822 34:-0.262555 35:-1.260316 36:1.013644 37:0.037548 38:-0.175900 39:0.001578 40:0.953099 41:0.422752 42:1.500656 43:-0.116196 44:0.126996 45:-0.287866 46:0.151511 47:0.475274 48:0.220998 49:1.916411 50:0.030583 51:0.369545 52:0.525161 53:0.609296 54:-1.138667 55:-2.105608 56:-1.891133 57:1.502960 58:0.327079 59:-2.350717 60:0.166448 61:0.200820 62:-0.648486 63:0.479161 64:0.403466 65:-1.486360 66:-0.469128 67:-0.376796 68:-0.749107 69:-0.607502 70:0.954437
-1 1:0.174826 2:-0.694791 3:1.665887 4:0.590278 5:-1.684520 6:0.583551 7:-0.915815 8:1.039761 9:0.804989 10:-0.856511 11:-0.848377 12:-0.275368 13:-0.955795 14:-0.393349 15:1.389165 16:-0.354377 17:1.336354 18:0.541939 19:0.186035 20:-1.873431 21:-0.662972 22:-0.537712 23:-0.045066 24:0.437102 25:-2.072206 26:0.787347 27:-1.378893 28:-0.764043 29:0.307029 30:-0.013042 31:0.636052 32:-0.387397 33:-0.441901 34:-1.309504 35:1.041836 36:0.294300 37:0.498536 38:1.238472 39:0.297846 40:-0.799400 41:-1.780933 42:-0.725045 43:-1.220264 44:-2.296712 45:0.174395 46:-0.103263 47:0.872458 48:-1.025266 49:0.096239 50:-0.581248 51:1.168834 52:-0.338956 53:-0.900260 54:1.031892 55:-0.023711 56:0.544476 57:-0.086069 58:-2.101567 59:0.412918 60:1.934486 61:-0.809545 62:-2.020317 63:-0.196905 64:0.478942 65:-0.301538 66:-0.252576 67:0.203175 68:0.511265 69:-1.789572 70:0.782212
-1 1:0.359290 2:1.845305 3:0.488530 4:1.476607 5:-0.922107 6:-0.924587 7:0.105601 8:0.267015 9:1.082067 10:0.689478 11:0.051112 12:0.370801 13:-0.074602 14:0.495027 15:0.676184 16:1.208104 17:0.456523 18:0.309551 19:-2.563770 20:-0.137744 21:0.797185 22:-1.884828 23:-0.967783 24:0.388582 25:-1.233886 26:1.095925 27:0.165321 28:1.054896 29:0.651965 30:0.422507 31:-0.605893 32:-0.393776 33:1.601385 34:0.163534 35:0.250242 36:0.662310 37:1.359031 38:-0.581677 39:0.627066 40:0.467363 41:-0.728907 42:-0.448199 43:-1.971481 44:1.143498 45:-2.096634 46:0.002778 47:1.703345 48:-0.496781 49:-0.149288 50:0.085073 51:-0.509680 52:0.100531 53:0.731529 54:0.644791 55:-1.309982 56:0.061820 57:1.415458 58:-0.270143 59:0.681811 60:-0.757115 61:1.595345 62:1.172703 63:2.394507 64:-0.169375 65:0.761172 66:-0.554259 67:-1.626711 68:1.141756 69:-0.142274 70:0.650689
-1 1:0.685441 2:-0.180072 3:-1.227614 4:-0.895350 5:0.491497 6:0.484664 7:0.959335 8:-1.414249 9:0.089006 10:1.566104 11:-1.462172 12:-0.806693 13:1.189672 14:0.581323 15:-0.637637 16:0.669265 17:-0.347690 18:0.802756 19:-0.314301 20:-0.331411 21:-0.835818 22:-1.692455 23:0.697860 24:-0.067739 25:0.050209 26:-0.600639 27:-0.007134 28:0.145987 29:0.711097 30:-0.193192 31:0.451778 32:0.024754 33:0.733137 34:0.486861 35:-0.463333 36:1.651991 37:-0.633849 38:-0.080806 39:-0.827735 40:1.205498 41:1.295513 42:0.912716 43:-0.067648 44:1.741521 45:-1.347192 46:0.703272 47:0.268481 48:0.065469 49:0.646675 50:0.454872 51:-1.239992 52:-1.793741 53:-0.035520 54:-0.775187 55:2.437305 56:0.745163 57:-1.008321 58:-0.380206 59:1.022708 60:0.225827 61:-0.422263 62:-0.823013 63:-0.405059 64:-0.283706 65:-0.542647 66:1.466303 67:0.820667 68:-0.542531 69:0.059482 70:-0.028393
-1 1:-1.547510 2:0.483367 3:0.767090 4:-1.909974 5:0.064388 6:-0.239872 7:1.364053 8:2.238035 9:-0.735748 10:-1.017538 11:-0.623710 12:-1.081290 13:0.642146 14:-1.444285 15:0.172016 16:-1.221407 17:-1.813891 18:0.310118 19:-0.941558 20:0.036508 21:-0.299966 22:-0.078171 23:-0.510447 24:0.423582 25:-0.766853 26:2.247773 27:1.324334 28:-3.287632 29:-0.254031 30:0.921627 31:-0.051029 32:0.906868 33:-0.950765 34:0.190342 35:-0.269477 36:-0.313672 37:0.347583 38:0.641771 39:-0.468026 40:0.839579 41:-1.387518 42:-0.276486 43:-0.826548 44:-0.049018 45:2.100423 46:0.122219 47:-1.368441 48:0.795026 49:1.756237 50:0.334944 51:-0.430776 52:1.064085 53:-1.244844 54:0.211641 55:0.179523 56:1.434344 57:-0.231583 58:0.605233 59:-0.280348 60:-1.450858 61:-0.386356 62:0.418472 63:-0.012873 64:0.837501 65:0.772170 66:-0.181170 67:-0.125748 68:-0.727994 69:0.729192 70:-2.077069
-1 1:-0.509895 2:2.602947 3:0.595756 4:0.169862 5:-0.761989 6:0.717147 7:1.020412 8:1.610437 9:-1.344231 10:-0.058283 11:-0.574383 12:0.480508 13:1.049998 14:0.203785 15:-0.869996 16:-0.635170 17:-0.639963 18:0.269407 19:0.916627 20:0.125539 21:1.797619 22:-1.945052 23:3.044354 24:1.043599 25:2.108616 26:0.712632 27:-1.779333 28:-1.275516 29:-0.404046 30:0.130218 31:-1.020112 32:-0.488744 33:-0.443551 34:-2.171144 35:-1.110463 36:1.747844 37:-0.587662 38:0.159083 39:0.813832 40:0.727039 41:0.454278 42:3.209008 43:-1.577201 44:-0.270536 45:-1.524894 46:0.672029 47:1.422676 48:0.288713 49:-1.360824 50:-1.616723 51:1.142360 52:-0.286001 53:-0.337078 54:-0.859087 55:0.800703 56:0.520670 57:-0.922041 58:-1.007294 59:1.232805 60:1.478194 61:-0.085962 62:-0.658062 63:-0.201906 64:2.420912 65:-0.800206 66:0.258023 67:1.272553 68:-0.295524 69:-1.175682 70:-0.567545
-1 1:1.933112 2:0.492280 3:1.243724 4:-0.630474 5:-0.706612 6:0.320533 7:0.744132 8:-0.790602 9:-2.462149 10:-0.800562 11:0.268570 12:-0.802792 13:0.497978 14:1.371901 15:0.957756 16:-2.464277 17:0.633202 18:0.573060 19:0.704759 20:-2.505439 21:-0.165347 22:-1.077224 23:-0.193663 24:0.182459 25:1.554217 26:-2.104961 27:-0.990678 28:-0.221850 29:0.356653 30:0.602473 31:-0.571076 32:1.145833 33:-0.462347 34:1.033234 35:1.500123 36:0.252894 37:-0.400874 38:1.171799 39:0.593115 40:0.377161 41:0.212525 42:0.385946 43:0.612059 44:-0.768609 45:-1.125928 46:0.220165 47:-0.644070 48:1.284047 49:1.148750 50:-0.916142 51:0.554260 52:-0.043771 53:-0.210138 54:0.310144 55:1.440021 56:-2.283005 57:0.278988 58:0.500451 59:1.554342 60:3.229648 61:-0.178021 62:1.084818 63:-2.212885 64:0.412346 65:0.320530 66:-2.240140 67:-1.438090 68:-1.021815 69:0.279504 70:-1.155986
-1 1:-0.642422 2:-0.161655 3:0.407580 4:-0.088168 5:-0.684553 6:-0.595047 7:0.066057 8:-0.884248 9:0.818073 10:0.300893 11:-0.043297 12:-0.405854 13:1.441285 14:-0.179225 15:-0.593133 16:-1.345592 17:-1.083556 18:-1.036942 19:0.162291 20:-0.129582 21:1.210825 22:-0.521022 23:0.386724 24:-2.284766 25:0.461074 26:-1.392744 27:0.617658 28:-0.104632 29:-1.603197 30:0.618091 31:-1.374803 32:-0.007747 33:-0.262642 34:-0.910808 35:-0.993945 36:-1.392388 37:-0.099797 38:1.159669 39:0.279632 40:-0.668123 41:0.144939 42:0.756688 43:0.355352 44:1.386604 45:0.468194 46:0.106626 47:-0.621940 48:-0.340025 49:-0.549508 50:0.197580 51:0.059521 52:-0.815684 53:-0.261896 54:1.594450 55:1.415486 56:-0.421393 57:0.886075 58:1.188194 59:-0.411661 60:-0.790085 61:0.561631 62:0.537061 63:0.000798 64:0.026966 65:0.885184 66:1.178907 67:2.255553 68:0.949503 69:1.407708 70:-0.423876
-1 1:-1.221596 2:1.173433 3:-1.515157 4:-0.383784 5:-1.115531 6:-0.612901 7:-0.236553 8:0.216384 9:-1.412972 10:-0.669382 11:0.459883 12:-1.316399 13:0.643700 14:-1.337147 15:-1.333013 16:1.498923 17:0.437860 18:0.392014 19:-1.446215 20:1.422452 21:0.168158 22:-1.348572 23:-0.075275 24:-0.490701 25:1.113857 26:0.550364 27:-0.481873 28:-0.218543 29:-2.370463 30:1.551595 31:-0.894088 32:0.896822 33:0.346528 34:0.361158 35:-0.262605 36:-0.029258 37:-0.386793 38:-0.800870 39:-0.670252 40:-0.875320 41:0.527804 42:-1.754068 43:-0.141150 44:0.858790 45:-0.339460 46:-0.585287 47:0.666366 48:-0.951554 49:-0.281317 50:0.385847 51:0.218300 52:0.507965 53:-2.564114 54:-0.155748 55:0.768343 56:-0.734778 57:0.535528 58:-1.834613 59:-0.823331 60:0.422895 61:0.596157 62:0.154944 63:0.872622 64:0.897090 65:0.362682 66:1.693197 67:0.922548 68:1.095318 69:0.289090 70:-0.356513
-1 1:-1.868650 2:2.652796 3:-1.038361 4:-1.498002 5:-0.024121 6:-0.171485 7:0.462158 8:0.050467 9:0.896260 10:1.610276 11:0.295167 12:-0.135766 13:1.394378 14:1.642632 15:-1.987868 16:0.241056 17:-1.509738 18:-1.905083 19:-0.104081 20:-1.715873 21:-1.543681 22:-0.415576 23:-0.998016 24:-1.280819 25:0.781104 26:0.955820 27:-1.416917 28:0.461475 29:0.418496 30:-0.603334 31:0.003834 32:1.108993 33:0.082616 34:-0.348813 35:-0.710827 36:-0.822174 37:-0.367264 38:-1.746050 39:-0.715091 40:0.293034 41:1.283586 42:0.248000 43:-1.003378 44:-0.027486 45:-0.474131 46:-0.205174 47:0.543730 48:-1.478351 49:1.034212 50:-0.424620 51:0.167104 52:0.478547 53:0.325456 54:1.430532 55:-1.234038 56:-0.155618 57:-1.620700 58:-1.569452 59:0.581133 60:-0.679159 61:-0.921069 62:1.884306 63:0.577463 64:0.768307 65:-1.694270 66:-1.106535 67:1.785583 68:0.761799 69:0.634015 70:-0.574646
-1 1:0.202590 2:0.410033 3:-0.572465 4:-1.302952 5:-0.980336 6:-0.036757 7:-0.653372 8:-2.064731 9:-1.173445 10:0.640942 11:0.291711 12:0.480095 13:1.550143 14:0.811102 15:-0.108879 16:0.468831 17:-0.627004 18:-0.092930 19:-0.192163 20:-1.840943 21:1.538647 22:0.221214 23:-1.466670 24:1.099959 25:1.340849 26:-1.789078 27:-0.031889 28:0.454214 29:-0.798412 30:0.766838 31:-0.152564 32:1.098723 33:-0.157939 34:-1.257758 35:-1.554537 36:0.188467 37:-1.067568 38:2.755759 39:0.323437 40:-0.841828 41:1.676126 42:-1.360601 43:-1.616412 44:1.638491 45:0.860042 46:-0.400940 47:-1.192695 48:0.594951 49:-1.052366 50:0.549394 51:-0.701418 52:0.037944 53:0.842780 54:0.279152 55:-0.814256 56:3.257865 57:-0.988207 58:-1.301635 59:-0.336591 60:0.649952 61:-1.457879 62:-0.947896 63:2.048471 64:1.001105 65:0.761113 66:-1.413730 67:-0.426330 68:0.316183 69:0.081427 70:-1.333865
-1 1:-0.231583 2:0.653323 3:-0.641495 4:0.456632 5:0.624620 6:0.316495 7:-0.742984 8:0.303040 9:-0.121856 10:1.406864 11:2.152616 12:1.617386 13:-0.680291 14:-0.872713 15:-1.239036 16:-1.526103 17:0.124500 18:-2.202678 19:-1.196093 20:-0.356851 21:-1.916227 22:0.059831 23:1.332053 24:1.126455 25:0.145182 26:1.335345 27:0.944284 28:0.441223 29:0.348644 30:0.932655 31:0.998395 32:0.994945 33:-0.942274 34:0.161602 35:0.656599 36:-0.151069 37:-0.847743 38:0.717148 39:1.114749 40:0.613440 41:0.176052 42:1.260922 43:-0.361654 44:-1.252565 45:-0.648398 46:-0.613807 47:0.726020 48:0.055610 49:-1.718221 50:-0.513900 51:0.132896 52:-0.474502 53:-0.791831 54:-0.356444 55:-1.453270 56:0.989974 57:-0.181485 58:1.138200 59:-2.113881 60:0.864714 61:-1.846493 62:-0.245568 63:-0.628790 64:-0.944464 65:0.332907 66:-1.192488 67:-0.908301 68:-0.908686 69:-0.363176 70:0.303420
-1 1:0.308704 2:-1.315184 3:-2.237433 4:0.360481 5:1.132226 6:0.557800 7:0.616324 8:-0.720909 9:0.821431 10:0.235976 11:1.164835 12:0.669407 13:0.767408 14:0.106882 15:0.412666 16:-0.569981 17:0.554289 18:0.189615 19:0.768734 20:-0.090410 21:2.764033 22:-1.051273 23:1.372100 24:0.594354 25:-2.107784 26:-0.232775 27:-1.872851 28:0.136892 29:-1.971270 30:0.661775 31:0.591911 32:-0.679827 33:1.668869 34:-0.136856 35:0.325475 36:0.083160 37:0.647845 38:-1.752834 39:0.777759 40:-0.312459 41:0.397222 42:0.997116 43:-1.657021 44:-1.907208 45:0.856614 46:0.621218 47:0.612520 48:-0.494337 49:-0.679907 50:-0.324035 51:1.917596 52:0.010918 53:-0.733645 54:1.031555 55:-1.385612 56:-0.173304 57:-1.283647 58:1.121234 59:-1.364621 60:0.022200 61:-0.088222 62:-0.221392 63:0.041543 64:-2.242945 65:0.235472 66:0.077666 67:0.595840 68:1.067033 69:-0.032720 70:-0.859449
-1 1:1.760141 2:-0.442428 3:-0.168558 4:-0.723315 5:-1.225232 6:0.605059 7:0.283954 8:0.611823 9:0.865934 10:-0.196751 11:-0.557777 12:-0.318113 13:0.279417 14:0.070796 15:1.672489 16:0.130002 17:-0.358383 18:1.208188 19:0.286912 20:1.787165 21:-0.080457 22:-0.390236 23:1.586393 24:-0.258235 25:-0.665668 26:0.457375 27:-0.184787 28:-0.159846 29:-0.028228 30:1.121104 31:0.758883 32:0.578302 33:0.761843 34:0.204893 35:1.688150 36:-0.564736 37:-0.885229 38:-1.388040 39:0.451378 40:1.329337 41:-1.562686 42:-0.606746 43:-1.703028 44:1.881337 45:-1.194356 46:-0.129095 47:0.614966 48:0.045379 49:1.033727 50:0.616583 51:-0.166525 52:-0.893965 53:-1.211836 54:-0.651141 55:-1.074916 56:0.242729 57:-0.546229 58:-0.168659 59:-1.324858 60:0.922316 61:-0.285088 62:1.893237 63:-0.276825 64:-2.527798 65:-0.441368 66:1.506546 67:1.497112 68:-1.082851 69:1.164226 70:-1.853637
-1 1:1.908262 2:-0.785694 3:-1.623726 4:0.772093 5:1.142957 6:-0.168591 7:-2.172253 8:-1.529408 9:0.773308 10:0.449447 11:-0.675725 12:0.967072 13:-0.103544 14:-1.343739 15:-0.114353 16:-0.660536 17:0.996947 18:0.325947 19:1.958278 20:-0.081649 21:1.680557 22:0.330519 23:0.328788 24:-0.871249 25:1.508502 26:0.867307 27:-0.236373 28:-0.760091 29:-0.256802 30:1.033984 31:0.108933 32:0.846471 33:0.974745 34:1.320709 35:-0.956525 36:-0.924977 37:-1.563333 38:-0.839295 39:1.969467 40:-0.121766 41:-0.565692 42:-0.096454 43:0.748367 44:-0.029918 45:3.292155 46:-0.364422 47:0.001151 48:-0.043551 49:-0.264541 50:-0.962797 51:-0.438890 52:-1.434282 53:0.106710 54:1.412548 55:-0.713446 56:-1.155783 57:0.184797 58:0.186978 59:1.830980 60:1.772239 61:0.774049 62:-0.937285 63:-0.143566 64:0.065432 65:3.193168 66:-0.126524 67:0.682799 68:-0.887607 69:1.759402 70:0.552067
-1 1:1.316142 2:0.166837 3:0.815821 4:0.239031 5:0.246863 6:0.180738 7:0.573181 8:1.640087 9:-0.012473 10:0.823065 11:0.103126 12:2.082323 13:0.551759 14:0.026166 15:0.944840 16:-0.565240 17:-0.131034 18:-1.812868 19:0.174840 20:-0.461764 21:0.171158 22:-1.524304 23:-2.642054 24:1.599202 25:-0.711952 26:0.109661 27:0.796153 28:1.058357 29:-1.554260 30:2.451343 31:1.754317 32:0.115875 33:1.335473 34:-0.008505 35:0.033327 36:-0.049804 37:-1.745214 38:0.699304 39:-1.711977 40:0.793924 41:1.800805 42:0.920186 43:-1.077542 44:-0.262971 45:-1.323280 46:0.265096 47:-0.923855 48:1.021577 49:0.697651 50:0.957358 51:-0.054175 52:2.129944 53:-0.725253 54:-0.816779 55:-0.455924 56:-0.969412 57:-0.135070 58:1.310624 59:-0.490033 60:0.073858 61:-0.391786 62:0.246282 63:-0.597074 64:-1.109079 65:1.319943 66:2.031862 67:0.828790 68:0.169455 69:-0.079247 70:0.791460
-1 1:0.972379 2:0.128087 3:-0.795778 4:1.057257 5:-0.055278 6:-0.394055 7:-1.268177 8:1.646050 9:0.695989 10:0.748971 11:-0.259982 12:-0.002075 13:0.417064 14:-1.346351 15:-1.819161 16:-0.891192 17:-1.552600 18:-0.673167 19:0.751613 20:1.347504 21:-0.159518 22:0.773546 23:-1.901418 24:0.159237 25:0.070161 26:0.613762 27:-0.966311 28:-0.755091 29:1.479076 30:-0.261218 31:-0.071407 32:-0.613182 33:-0.822817 34:0.071324 35:-1.448045 36:0.323203 37:0.245723 38:-0.169414 39:-0.299879 40:-0.814960 41:-0.648462 42:0.175372 43:1.089710 44:-1.864295 45:-0.655839 46:0.227430 47:1.095452 48:-0.610765 49:-0.168310 50:-0.066862 51:0.861146 52:-1.528517 53:1.290259 54:0.944234 55:-0.268777 56:-0.993533 57:1.572814 58:-0.377897 59:-0.692321 60:-1.175679 61:1.086874 62:-1.136411 63:-2.092429 64:0.676658 65:-0.445511 66:1.205514 67:-1.286659 68:-0.375162 69:-0.491004 70:1.172839
-1 1:0.315787 2:-2.743870 3:0.744283 4:0.976016 5:1.516211 6:-1.365962 7:-0.149597 8:-0.464931 9:-0.393738 10:0.622290 11:0.993693 12:-0.363442 13:0.602464 14:0.189631 15:0.041247 16:0.579645 17:-0.789931 18:-0.281358 19:-2.146683 20:-0.365901 21:0.823116 22:1.414782 23:-0.974843 24:-1.318611 25:0.007947 26:-1.658735 27:0.223198 28:-0.006999 29:0.673033 30:0.471688 31:0.252088 32:0.617760 33:0.176342 34:0.286375 35:0.915331 36:-1.944730 37:-0.203024 38:-0.770957 39:0.390331 40:0.472003 41:-0.069067 42:-0.227338 43:0.736888 44:0.258238 45:0.519133 46:-0.264669 47:-2.042703 48:2.036109 49:-0.427139 50:0.721646 51:-2.219193 52:0.502363 53:-0.464350 54:0.653063 55:-0.564465 56:-1.535816 57:0.783855 58:-0.619050 59:0.728766 60:-0.393888 61:-1.351518 62:1.033020 63:0.761754 64:-0.696703 65:-0.279117 66:1.087333 67:-1.371175 68:-1.893303 69:0.085293 70:-0.335429
-1 1:-0.520912 2:1.636705 3:0.940942 4:-1.003431 5:-0.230526 6:-0.959692 7:-0.206561 8:-0.398682 9:-0.121780 10:0.252854 11:0.776480 12:-0.460737 13:0.558993 14:0.434407 15:-0.723208 16:-2.079004 17:-0.803294 18:-0.604682 19:0.995840 20:0.880023 21:0.605898 22:1.045353 23:-1.333494 24:1.938171 25:0.267826 26:-0.583457 27:0.097733 28:-0.105977 29:2.425272 30:2.071221 31:-0.092306 32:-0.653723 33:-0.267950 34:-0.108210 35:2.123582 36:-0.565052 37:0.045899 38:-0.595645 39:0.253195 40:-1.799725 41:0.300456 42:2.270105 43:-0.139137 44:0.964560 45:-0.450882 46:-0.571349 47:-0.119228 48:-0.746121 49:-0.278361 50:-0.171035 51:-0.547720 52:-0.513682 53:0.194607 54:-0.537868 55:-1.383734 56:0.396728 57:0.180274 58:0.735577 59:-1.680862 60:-0.612775 61:-0.240695 62:-1.979963 63:-0.116762 64:1.441756 65:-1.177383 66:-1.289429 67:-0.607281 68:-0.890656 69:-0.971160 70:-0.302916
-1 1:-1.596054 2:1.442039 3:1.367807 4:0.514019 5:-0.664398 6:-0.236846 7:-0.720373 8:-0.465043 9:-0.932956 10:0.942634 11:-1.274288 12:0.118823 13:0.203914 14:0.650067 15:1.468604 16:-0.771133 17:2.681397 18:0.268332 19:-0.137253 20:-1.930839 21:0.965106 22:-0.182802 23:-0.132115 24:-0.431970 25:-1.005561 26:-1.069805 27:0.099889 28:-0.040071 29:0.347570 30:-0.263583 31:0.243044 32:0.346733 33:-0.984065 34:-0.721303 35:-0.626992 36:0.372378 37:-1.836321 38:0.350946 39:0.603971 40:0.335599 41:0.455159 42:0.469350 43:1.019401 44:0.295492 45:0.424310 46:-1.201603 47:1.165732 48:0.295930 49:1.664178 50:0.159974 51:-0.956352 52:1.256789 53:-2.503632 54:-0.066780 55:-0.441878 56:-0.705075 57:1.463875 58:-2.674163 59:0.311132 60:-0.598321 61:1.010487 62:0.387472 63:1.229014 64:-1.464019 65:-0.242884 66:-0.911878 67:-0.656005 68:-0.304956 69:-0.681002 70:-0.142746
-1 1:-0.215763 2:-0.043416 3:-0.234523 4:1.192645 5:2.449745 6:-1.203633 7:-1.818886 8:1.842822 9:-0.952056 10:0.591041 11:0.433870 12:-1.566638 13:-0.027915 14:0.111330 15:1.594174 16:-1.553607 17:0.253138 18:1.126755 19:-1.333730 20:-0.811373 21:-0.198947 22:0.329096 23:-0.220203 24:-0.198617 25:0.213934 26:-1.764150 27:0.691178 28:0.177340 29:-3.212918 30:0.207902 31:-0.713970 32:2.160677 33:0.321040 34:-2.111275 35:0.259379 36:0.237405 37:1.290063 38:0.108153 39:-1.140463 40:-0.324210 41:-0.994614 42:0.097037 43:0.094382 44:-0.732033 45:-0.568472 46:2.021367 47:0.727332 48:-1.588703 49:1.121736 50:-0.512615 51:-0.774354 52:-1.041635 53:-2.298115 54:0.757258 55:-1.496832 56:0.677933 57:-0.781593 58:-1.494554 59:-0.044033 60:0.360297 61:0.252465 62:-0.363731 63:0.035970 64:0.687181 65:-1.342985 66:-0.848969 67:0.670427 68:0.149559 69:-0.142086 70:0.579562
-1 1:-0.922705 2:-0.238296 3:-0.749601 4:-0.026705 5:-1.092285 6:-1.014603 7:0.029460 8:0.526408 9:-1.719609 10:-0.184685 11:-0.215076 12:0.996198 13:-0.103268 14:2.079204 15:1.681929 16:-1.146643 17:0.252251 18:-0.934025 19:0.784076 20:-0.220099 21:-0.123669 22:-0.614879 23:-0.440200 24:-0.270325 25:-1.380176 26:-2.346621 27:1.301550 28:0.885508 29:0.085534 30:-0.583709 31:1.394926 32:0.422926 33:-0.068404 34:2.033534 35:-0.572799 36:1.835472 37:-0.170808 38:0.354959 39:-1.528946 40:0.343400 41:0.947075 42:-0.496471 43:-0.774037 44:-0.911757 45:0.783213 46:-1.220800 47:-0.035229 48:-0.043240 49:0.674012 50:-0.545426 51:-0.920185 52:-1.722856 53:-0.734683 54:0.623430 55:-0.889436 56:-0.523332 57:0.918508 58:1.003341 59:1.078963 60:-0.839911 61:-1.108079 62:2.332495 63:-0.504701 64:-1.882151 65:0.947520 66:0.116897 67:-0.716675 68:1.672256 69:-1.273027 70:-0.360398
-1 1:-0.223204 2:0.385872 3:0.561366 4:-0.868805 5:0.665607 6:-0.170157 7:-0.031513 8:0.980899 9:2.016259 10:0.427338 11:-1.370421 12:0.009560 13:0.426743 14:-0.997437 15:0.609589 16:-0.088624 17:0.754366 18:0.737430 19:-2.950285 20:-0.328288 21:-1.068253 22:-0.068643 23:-1.576377 24:-0.603157 25:-0.591208 26:0.028453 27:0.702046 28:0.591693 29:1.002582 30:-1.469389 31:-0.885622 32:-0.558162 33:0.174182 34:-0.145102 35:0.051290 36:-1.577677 37:0.388288 38:-0.092199 39:-1.020936 40:-0.653350 41:-1.443963 42:-1.073319 43:2.362176 44:0.087239 45:-1.450926 46:-0.022567 47:1.259728 48:-1.109460 49:-1.606491 50:1.268645 51:0.674683 52:-2.378202 53:1.290065 54:-0.362405 55:0.995967 56:-0.114086 57:0.674640 58:0.497605 59:-1.354999 60:-0.245876 61:1.903062 62:-1.505846 63:1.517821 64:-2.082713 65:-0.407686 66:-0.631253 67:-0.293581 68:1.317810 69:-0.079902 70:0.116376
-1 1:-0.055763 2:1.336052 3:-0.808443 4:0.822573 5:-0.712618 6:0.310728 7:0.177040 8:-0.569975 9:-1.282270 10:-1.277165 11:-0.048802 12:0.161857 13:-0.883307 14:-0.100365 15:1.174382 16:1.008972 17:-0.375558 18:0.407890 19:-0.633826 20:-1.186714 21:0.318410 22:0.625389 23:0.434432 24:-0.969336 25:0.706620 26:1.314765 27:0.786408 28:-0.258630 29:-0.287255 30:0.383628 31:0.037513 32:-1.896817 33:0.136738 34:-0.367742 35:0.723370 36:-0.867283 37:1.167455 38:0.729524 39:-2.473488 40:-1.166584 41:0.897719 42:-1.863426 43:-0.914691 44:-0.432330 45:-1.133828 46:0.233937 47:0.188222 48:1.363210 49:0.773784 50:-0.273716 51:-0.429105 52:0.987885 53:0.979383 54:-0.487948 55:-2.582360 56:-0.097343 57:-0.177595 58:-0.999055 59:-0.534852 60:0.133013 61:0.269921 62:1.185302 63:1.328275 64:0.051690 65:-0.584154 66:0.483739 67:1.410957 68:-0.661485 69:0.241124 70:-0.603511
-1 1:-1.148025 2:2.388129 3:-0.676703 4:-0.066947 5:-0.065240 6:1.090817 7:-0.798306 8:-1.461118 9:-0.835720 10:0.048481 11:2.093590 12:-0.920181 13:0.627221 14:-2.097643 15:-1.518829 16:0.548531 17:0.331602 18:0.057490 19:-1.773007 20:-0.844638 21:-1.965728 22:-0.667088 23:-1.053429 24:-0.708118 25:0.788215 26:0.435394 27:0.460981 28:-0.452114 29:0.273024 30:0.277824 31:0.300059 32:0.641658 33:-1.025887 34:-0.828448 35:0.016967 36:0.672662 37:-0.906840 38:-1.148565 39:0.443198 40:-1.369008 41:1.040794 42:0.432323 43:0.001978 44:-0.272382 45:0.744786 46:-0.003411 47:-0.366324 48:2.150038 49:1.292591 50:-0.949194 51:-0.719999 52:1.384760 53:-0.585057 54:-0.329870 55:-0.152982 56:-0.001153 57:0.749713 58:-0.391435 59:0.166978 60:0.499700 61:0.271216 62:-0.411398 63:0.482138 64:0.550579 65:2.043334 66:1.032103 67:-0.902073 68:0.730466 69:0.350392 70:1.206541
-1 1:-0.374413 2:-0.499373 3:-0.192696 4:-1.086452 5:-0.247644 6:-0.546912 7:-1.104315 8:-0.297307 9:0.685888 10:0.175048 11:-0.558907 12:-1.126813 13:-0.474037 14:-0.855865 15:0.290341 16:1.489974 17:-1.346334 18:0.503063 19:1.559674 20:-1.793711 21:1.174107 22:1.530970 23:0.929843 24:-0.141661 25:-0.969419 26:-0.631458 27:-0.253407 28:-0.956672 29:0.377843 30:-2.260815 31:0.168212 32:-1.625806 33:-0.948685 34:0.825818 35:0.425421 36:1.761966 37:-0.033813 38:-1.298196 39:-1.691920 40:0.042098 41:0.636340 42:0.886834 43:0.224688 44:0.733238 45:-0.562608 46:-1.177439 47:-0.916910 48:1.004189 49:-2.580022 50:-0.874520 51:-1.206668 52:0.493854 53:-0.700424 54:1.441073 55:-1.300987 56:-0.678766 57:-0.637332 58:0.345626 59:-0.563131 60:2.036798 61:1.495945 62:-0.414341 63:-1.148902 64:0.631771 65:-1.269251 66:-0.695091 67:-0.018375 68:-0.992008 69:-1.425307 70:0.119104
-1 1:-0.715939 2:-0.978030 3:2.140535 4:0.030925 5:0.395921 6:0.360771 7:-1.161972 8:0.067857 9:-0.968915 10:-1.382465 11:1.059413 12:1.647890 13:1.552583 14:-0.891198 15:-0.536232 16:1.001619 17:-0.986619 18:0.080948 19:-0.488937 20:-2.011194 21:-2.500676 22:0.027707 23:0.397090 24:0.939087 25:-2.607649 26:1.065722 27:-1.142092 28:1.329765 29:-0.819657 30:0.641369 31:0.303018 32:-0.435440 33:1.361498 34:-0.555651 35:2.229827 36:0.911608 37:-0.539834 38:-1.791820 39:-0.520399 40:-0.396139 41:0.167675 42:-1.763866 43:-0.952416 44:-0.539928 45:0.103925 46:0.685642 47:1.123652 48:-0.986950 49:0.037163 50:0.975743 51:-0.153330 52:-0.163908 53:0.053440 54:1.600747 55:0.913904 56:0.411400 57:0.189928 58:1.836989 59:0.068268 60:-0.635101 61:0.366164 62:0.895591 63:-0.507419 64:0.219068 65:0.129311 66:-0.031820 67:0.592677 68:3.001600 69:-0.132542 70:-0.833673
-1 1:0.325962 2:0.412280 3:-0.051106 4:2.131864 5:0.160200 6:-1.070683 7:0.734103 8:0.611333 9:1.098415 10:0.736731 11:-0.277958 12:1.361651 13:1.442653 14:0.318873 15:-0.844285 16:0.855646 17:0.331872 18:1.408200 19:-0.876788 20:-0.833602 21:0.306152 22:-0.909323 23:-0.198928 24:1.704275 25:-0.040025 26:0.347192 27:0.828026 28:-1.264225 29:0.666124 30:-0.069090 31:-0.944370 32:0.010343 33:0.542530 34:-0.106145 35:0.045129 36:0.433541 37:-0.918937 38:1.116551 39:-1.016023 40:0.013865 41:0.418243 42:-0.124990 43:0.773897 44:-1.031140 45:-1.714975 46:-0.996805 47:2.523505 48:0.257415 49:-0.521365 50:1.135837 51:-0.109619 52:-0.930522 53:-0.344280 54:-0.467001 55:0.992127 56:-0.109822 57:-0.082193 58:-0.157513 59:-0.243466 60:-0.881033 61:-0.503872 62:-0.045195 63:1.272702 64:-1.286821 65:-0.365087 66:0.370181 67:-0.870975 68:0.282586 69:-0.974304 70:-1.285720
-1 1:-0.355793 2:0.386797 3:-1.474308 4:1.138498 5:-0.473649 6:0.826620 7:-0.709410 8:-0.467895 9:1.943286 10:0.111486 11:-2.012250 12:-0.269384 13:0.160654 14:-0.389673 15:0.202540 16:-0.311167 17:0.365445 18:-0.155434 19:-0.796368 20:-1.135134 21:-0.090755 22:1.898848 23:1.445114 24:-1.453933 25:-0.825565 26:1.323263 27:0.049060 28:1.146042 29:-0.289220 30:-0.979979 31:-0.170350 32:1.390621 33:-0.284072 34:-1.480479 35:0.957751 36:-0.624158 37:1.705070 38:-0.205541 39:-0.106829 40:0.199174 41:-0.585111 42:-0.722267 43:0.046013 44:-0.604311 45:-0.973564 46:-0.715649 47:0.392989 48:0.878376 49:0.415640 50:-1.174661 51:-0.014911 52:-0.680099 53:1.223970 54:1.287780 55:-1.540825 56:-1.184720 57:-0.681783 58:0.778703 59:-0.891719 60:0.333545 61:-0.506300 62:-0.721801 63:0.497872 64:-1.812891 65:0.480854 66:0.175998 67:-0.794361 68:-1.652507 69:1.443245 70:0.151663
-1 1:0.824234 2:0.298105 3:0.963184 4:0.213767 5:0.712776 6:-0.126827 7:-0.235547 8:-1.060042 9:-1.532013 10:-1.514144 11:1.366471 12:0.268465 13:-0.358433 14:2.365550 15:-1.334166 16:0.643275 17:0.387077 18:-0.215172 19:1.710498 20:-1.059887 21:0.209656 22:-0.368485 23:-1.496390 24:1.666269 25:1.413240 26:-0.143426 27:1.307364 28:-0.982686 29:0.373665 30:-0.378486 31:2.345169 32:-0.323365 33:0.719412 34:0.789206 35:-1.095658 36:0.282980 37:0.212511 38:-0.928300 39:-0.930308 40:1.083066 41:-0.741130 42:-1.491498 43:-0.377571 44:0.660910 45:-2.133984 46:0.551651 47:1.457990 48:0.772647 49:0.062329 50:-0.445976 51:0.323846 52:-0.538206 53:1.597861 54:-0.341682 55:-1.043913 56:0.307164 57:0.753935 58:0.353864 59:1.100134 60:-0.594459 61:1.230479 62:-1.182538 63:-1.050409 64:0.427774 65:0.879020 66:-0.335511 67:-0.414704 68:1.434204 69:0.969016 70:0.433446
-1 1:0.789928 2:0.365484 3:0.601667 4:2.428944 5:0.368493 6:1.757319 7:0.971774 8:0.168123 9:-0.602200 10:-1.323241 11:-0.312954 12:0.145415 13:-0.692511 14:1.711301 15:0.792011 16:-0.570470 17:0.404520 18:0.122340 19:-0.098002 20:-0.305735 21:0.156856 22:0.186626 23:-1.124541 24:-0.398127 25:1.404346 26:-1.092647 27:1.086899 28:0.257629 29:-0.654326 30:-0.548289 31:0.937243 32:1.817557 33:-0.485179 34:-0.578999 35:-1.774207 36:0.599405 37:0.933783 38:0.676352 39:0.659902 40:-0.009489 41:2.228868 42:0.137884 43:-1.200327 44:-0.135306 45:-0.940372 46:1.571799 47:1.351690 48:0.122838 49:-1.402081 50:0.461622 51:-0.137876 52:1.797238 53:-1.790330 54:-0.040013 55:0.458695 56:0.290510 57:-0.927639 58:-0.416737 59:-1.203011 60:0.555038 61:0.758258 62:-1.133143 63:-0.027599 64:0.462718 65:-1.059268 66:0.495179 67:0.950643 68:0.296857 69:-0.216165 70:-2.238837
-1 1:1.366483 2:0.648782 3:0.271051 4:0.608396 5:0.031237 6:1.240831 7:-0.171924 8:-1.633836 9:-0.849422 10:0.445314 11:0.510577 12:0.461273 13:-0.473980 14:-0.986543 15:1.202661 16:-0.153171 17:1.314753 18:1.231446 19:0.964326 20:0.717027 21:-1.740389 22:0.502169 23:-0.008257 24:-0.399884 25:-1.187531 26:-0.202453 27:0.754694 28:-0.411255 29:-0.740534 30:-1.018812 31:0.907280 32:-0.121300 33:-1.455938 34:0.751761 35:0.820567 36:0.062373 37:0.659843 38:2.409208 39:-1.088303 40:0.238516 41:0.081682 42:-0.120141 43:-2.390172 44:-0.296254 45:-0.975042 46:-1.522297 47:-0.433817 48:-0.414371 49:-0.471761 50:-2.473963 51:-0.642308 52:-0.602231 53:-0.977543 54:0.737460 55:0.462724 56:-1.117459 57:-0.755708 58:0.447614 59:-0.032708 60:1.043865 61:1.705556 62:-0.196157 63:1.670513 64:-0.949381 65:0.953135 66:1.182164 67:-0.855721 68:-1.242181 69:-0.957337 70:0.501088
-1 1:0.226234 2:-1.863623 3:-0.925766 4:0.695075 5:1.046114 6:0.016302 7:1.270660 8:1.846126 9:1.209715 10:-0.567578 11:-0.281862 12:-0.970696 13:0.703077 14:0.124398 15:1.456854 16:1.620409 17:0.458708 18:0.224649 19:-0.504517 20:0.991864 21:0.526824 22:-1.308604 23:-1.246508 24:-1.804915 25:0.492064 26:-0.066228 27:0.896725 28:1.241258 29:-1.122192 30:-0.759096 31:-0.235832 32:-0.120222 33:1.475407 34:0.587823 35:-1.500552 36:-0.296627 37:0.211256 38:0.421955 39:-0.002840 40:-0.797488 41:0.340196 42:-0.246192 43:-0.559615 44:-1.284699 45:0.742051 46:-1.594799 47:1.826845 48:-0.778138 49:-0.403865 50:0.165050 51:0.425060 52:-0.001940 53:0.778493 54:-0.952448 55:-0.122635 56:-1.020246 57:-0.080117 58:-0.341320 59:1.222851 60:0.427650 61:-1.501045 62:-1.271949 63:-1.611271 64:-0.313101 65:0.052946 66:1.461842 67:0.802261 68:0.316762 69:0.638825 70:0.886660
-1 1:2.053544 2:0.865606 3:0.529818 4:0.727267 5:-0.802014 6:0.331022 7:1.084510 8:-0.668663 9:0.551805 10:-0.156480 11:-0.565158 12:0.943257 13:3.185664 14:-0.700638 15:-1.367927 16:-0.331471 17:-0.792392 18:-1.268414 19:1.959017 20:0.723039 21:1.862755 22:-0.403802 23:1.856751 24:-1.112077 25:-0.221445 26:1.111648 27:-2.298781 28:1.022426 29:0.036445 30:-1.058827 31:0.558614 32:-0.036571 33:2.400871 34:-2.006692 35:-0.513385 36:-0.418192 37:0.443664 38:-0.048833 39:-2.819825 40:-0.509474 41:1.185776 42:0.264463 43:0.809157 44:0.889582 45:0.717483 46:2.771056 47:0.737717 48:-1.777812 49:0.425635 50:2.576813 51:0.627531 52:1.004603 53:-1.403330 54:-0.431697 55:-1.096523 56:-0.720229 57:0.048934 58:-1.501581 59:0.415788 60:1.444717 61:0.742138 62:-0.007580 63:-0.926327 64:-0.173747 65:0.533553 66:-1.187785 67:0.767403 68:-2.270047 69:-0.549151 70:0.996059
-1 1:-1.245565 2:0.201270 3:0.952796 4:-0.946116 5:-0.728208 6:2.991143 7:0.827895 8:0.470149 9:0.331122 10:-0.884659 11:0.779536 12:-1.540274 13:-1.234967 14:0.268263 15:-0.057497 16:-0.307302 17:-0.627234 18:-0.215409 19:1.575935 20:0.106442 21:-1.222319 22:0.137383 23:-1.079844 24:0.170318 25:-1.265202 26:-0.734635 27:0.682602 28:0.020285 29:-0.582749 30:0.941269 31:-0.376088 32:1.645975 33:0.792201 34:0.451417 35:0.767863 36:0.219415 37:0.569027 38:-2.309614 39:-0.973611 40:-0.033477 41:-1.326147 42:-2.126775 43:-0.469761 44:-0.210437 45:-0.493130 46:0.641679 47:1.922251 48:-0.621704 49:-0.081924 50:0.465152 51:-0.101461 52:0.752201 53:-1.075461 54:0.783906 55:1.692313 56:-0.237518 57:-0.959788 58:1.435988 59:-1.575428 60:-0.848191 61:-0.659995 62:-0.773250 63:-2.304043 64:0.459688 65:0.299004 66:-0.924480 67:1.076629 68:-0.999279 69:0.040188 70:0.796859
-1 1:1.529920 2:0.989749 3:1.695240 4:0.620425 5:-0.032509 6:0.220328 7:0.920837 8:1.797499 9:0.951584 10:-1.180209 11:0.109479 12:0.062891 13:-1.526292 14:0.704170 15:1.149618 16:-0.156674 17:1.239595 18:1.230656 19:0.776397 20:1.221930 21:1.015978 22:2.040975 23:0.670065 24:0.268943 25:0.971698 26:0.847125 27:-0.159205 28:0.312175 29:1.612755 30:0.343105 31:-0.463300 32:1.043114 33:0.431628 34:0.387764 35:-0.754869 36:-0.277213 37:-0.582715 38:-1.217166 39:-0.253819 40:-0.255791 41:0.578421 42:-1.274734 43:-0.056849 44:0.088381 45:-0.806066 46:-1.330648 47:1.949553 48:1.107439 49:0.595518 50:0.587845 51:-1.823131 52:0.572979 53:-0.879931 54:1.499884 55:1.257203 56:1.717796 57:0.522783 58:-0.603329 59:1.233455 60:-0.948032 61:0.614083 62:1.001895 63:0.035462 64:-0.873548 65:0.331420 66:0.018735 67:0.125798 68:-0.271340 69:1.615638 70:1.389253
-1 1:-0.837761 2:-1.329417 3:-0.454674 4:0.880701 5:-2.490117 6:-0.877237 7:0.978742 8:0.768766 9:1.112694 10:-0.420568 11:0.156293 12:-0.187871 13:-1.265704 14:0.386340 15:0.416772 16:1.775507 17:0.177452 18:1.393104 19:0.645012 20:0.655733 21:-0.896156 22:0.470446 23:-1.484924 24:-1.694894 25:-1.477904 26:-0.891407 27:0.361388 28:-0.068231 29:0.351215 30:0.949301 31:0.363631 32:0.369308 33:0.780820 34:1.170217 35:1.478065 36:-1.005523 37:-0.974300 38:0.418407 39:-0.034285 40:-1.966660 41:-0.986879 42:-0.026574 43:-2.076961 44:0.575438 45:0.516824 46:0.331486 47:1.548804 48:0.289190 49:0.688469 50:0.310272 51:-0.319555 52:-0.768864 53:-0.859853 54:0.805798 55:-0.381920 56:0.422359 57:0.348885 58:-0.682780 59:-0.529205 60:-0.694876 61:-1.206971 62:-2.743213 63:-0.465257 64:-1.221634 65:0.694887 66:-1.579886 67:0.406897 68:-0.293904 69:0.163846 70:0.464824
-1 1:-0.488503 2:0.876739 3:-0.036042 4:-0.210123 5:-0.159820 6:0.541784 7:-0.734851 8:-0.970222 9:0.920738 10:-1.723362 11:-1.296197 12:0.575712 13:-0.291340 14:2.189432 15:0.443984 16:2.315147 17:1.881605 18:1.169067 19:-0.292501 20:1.019814 21:-1.760477 22:-0.247383 23:-0.875245 24:-0.696567 25:-1.703640 26:-1.460808 27:-1.567105 28:1.011327 29:1.185645 30:1.004773 31:-1.271749 32:1.174764 33:-0.294336 34:0.951221 35:-0.398351 36:-1.243095 37:-0.562676 38:2.335370 39:-0.784952 40:0.401651 41:1.247957 42:-1.651772 43:-0.757735 44:-0.361984 45:0.450785 46:0.529789 47:-2.391881 48:0.111742 49:-0.218358 50:0.797483 51:0.034392 52:0.065617 53:-0.008466 54:1.578983 55:0.724180 56:-0.097051 57:-1.054633 58:0.329402 59:-1.192026 60:1.197243 61:-1.957986 62:0.393192 63:0.654666 64:0.834674 65:-0.349024 66:0.703717 67:-0.068652 68:-0.455527 69:0.378916 70:1.361078
-1 1:0.650167 2:-0.349175 3:-0.808569 4:-2.454248 5:0.533402 6:0.561240 7:0.678230 8:2.818760 9:-0.675917 10:-0.301875 11:-0.402019 12:-1.437252 13:1.109844 14:-1.038737 15:1.505318 16:0.628740 17:-1.715411 18:-0.266784 19:-0.670147 20:1.194332 21:-0.792212 22:1.068409 23:0.869199 24:0.766361 25:1.069911 26:-1.967726 27:1.029236 28:1.172652 29:-0.447705 30:-0.002606 31:0.454798 32:-0.178507 33:0.881410 34:1.082719 35:-0.022817 36:-0.162790 37:0.554512 38:1.370135 39:-1.306522 40:-1.563543 41:-1.708516 42:0.456406 43:2.111402 44:-0.374982 45:-1.876099 46:-1.268679 47:-0.070126 48:1.552245 49:-0.077070 50:2.046739 51:0.688313 52:1.321016 53:0.126231 54:1.300149 55:-0.479626 56:0.335853 57:0.254272 58:1.107695 59:-0.345795 60:-0.586099 61:-0.504456 62:0.482433 63:-0.410474 64:0.035295 65:-0.009943 66:0.202379 67:-0.682250 68:-0.471957 69:0.582786 70:0.408586
-1 1:0.729329 2:1.014227 3:-0.453671 4:-0.340809 5:0.484845 6:1.225676 7:0.747686 8:0.836910 9:-0.618342 10:0.834276 11:-2.276465 12:-1.005331 13:-0.755423 14:0.958496 15:0.444902 16:-1.033275 17:0.014837 18:0.370595 19:-1.312662 20:0.755892 21:0.176981 22:0.724829 23:0.063832 24:-0.129189 25:-1.095602 26:-1.210940 27:-1.064433 28:-0.695241 29:0.600123 30:-1.464100 31:-0.576439 32:2.063482 33:0.062511 34:0.351621 35:-1.109539 36:-0.405254 37:-0.432144 38:0.151447 39:0.949559 40:1.320903 41:-1.268248 42:0.926373 43:-0.046200 44:0.317684 45:0.114824 46:0.531064 47:0.279064 48:1.067732 49:0.819985 50:-0.309492 51:0.000278 52:0.435689 53:-0.376146 54:-0.582766 55:-1.075993 56:-1.148680 57:0.255127 58:-1.577147 59:0.329621 60:0.463669 61:0.280761 62:-1.882360 63:-0.022836 64:0.503213 65:-0.557377 66:0.815442 67:0.085015 68:0.471504 69:0.064815 70:-0.318508
-1 1:-0.169007 2:-0.081534 3:0.722800 4:-1.589880 5:0.061316 6:1.305605 7:0.524386 8:-0.127102 9:0.166166 10:0.288011 11:2.416722 12:0.112631 13:0.059840 14:0.264725 15:-0.892897 16:0.294822 17:1.619348 18:0.325974 19:-0.212185 20:-1.813591 21:-1.926898 22:1.274039 23:-0.345400 24:-1.964667 25:0.216333 26:0.839834 27:2.354894 28:0.861390 29:-0.421901 30:0.286546 31:-0.525291 32:1.170111 33:0.112021 34:0.410494 35:-1.194026 36:0.821099 37:1.694278 38:-0.058191 39:1.138068 40:-0.099011 41:-1.113879 42:-0.277936 43:-0.895483 44:-0.472271 45:1.871834 46:1.345752 47:-0.089386 48:1.066670 49:-1.366764 50:0.134584 51:-0.050399 52:-0.390604 53:1.967251 54:-0.229010 55:-1.341921 56:-0.967844 57:0.375564 58:0.127246 59:-0.955603 60:-1.034135 61:0.925557 62:-1.265150 63:-2.269533 64:-0.299118 65:-0.034961 66:-1.117383 67:0.415131 68:1.044717 69:0.359104 70:0.799345
-1 1:0.376829 2:0.988785 3:-2.904558 4:0.047039 5:-0.411750 6:-0.349451 7:0.007311 8:0.672571 9:0.523807 10:0.946149 11:-0.034352 12:0.769694 13:0.707200 14:0.087800 15:-0.038856 16:0.110762 17:-1.382048 18:1.310693 19:1.300490 20:-1.313316 21:-2.364491 22:-1.110034 23:0.426458 24:-0.755057 25:-1.136662 26:0.519005 27:0.812775 28:-0.945171 29:0.328962 30:-0.532046 31:0.928115 32:-0.405037 33:1.508837 34:1.294295 35:0.379409 36:-1.045127 37:0.354335 38:-1.202005 39:0.408364 40:1.303910 41:-1.413016 42:-0.066411 43:1.287252 44:-1.022451 45:-1.137332 46:-1.284538 47:0.072535 48:-0.503210 49:-1.464119 50:1.178649 51:-1.766797 52:1.598876 53:0.787268 54:-1.129634 55:0.908161 56:2.303173 57:0.153172 58:-2.225752 59:1.190131 60:0.507884 61:-0.628806 62:0.995668 63:-0.220823 64:1.930793 65:0.741185 66:-0.903169 67:-0.081307 68:-0.523247 69:0.090491 70:0.095417
-1 1:0.144378 2:-0.841951 3:-0.502752 4:0.528289 5:-0.716378 6:2.324707 7:1.041772 8:-0.317054 9:-0.708127 10:0.139976 11:-0.632001 12:-1.914514 13:-1.002108 14:-1.304679 15:-0.220942 16:-1.170246 17:-1.661266 18:-0.671544 19:2.454827 20:1.278751 21:-0.492381 22:-0.211407 23:0.039922 24:-1.063899 25:-0.118996 26:-0.170808 27:-0.243693 28:0.785993 29:1.580126 30:-0.442091 31:-0.277433 32:-1.316682 33:1.205996 34:1.923997 35:0.450167 36:0.468717 37:0.653196 38:-0.775073 39:-1.841932 40:-0.029508 41:1.479940 42:0.473483 43:-0.592566 44:0.747244 45:1.389634 46:0.152084 47:0.536391 48:-1.086473 49:0.669326 50:-2.270077 51:1.621154 52:-0.670891 53:1.242188 54:1.969895 55:0.385012 56:2.060001 57:0.733182 58:0.753026 59:-0.640915 60:-2.613234 61:1.119282 62:-1.256976 63:1.016485 64:-1.569897 65:-0.358328 66:0.280351 67:-1.071402 68:1.016870 69:0.301116 70:0.266432
-1 1:-1.455134 2:-0.882543 3:-1.797703 4:-0.481923 5:-0.671087 6:-0.305901 7:-0.516225 8:-1.181062 9:-1.594285 10:0.226183 11:0.043064 12:-0.324750 13:-0.176246 14:-1.844771 15:-0.120831 16:0.314583 17:2.095420 18:0.054452 19:-1.157487 20:-0.326823 21:0.563434 22:-0.328661 23:-1.589085 24:0.064333 25:1.105588 26:-0.289801 27:2.929661 28:-1.072359 29:-0.994086 30:1.508793 31:0.828279 32:-0.207242 33:0.503915 34:-1.662507 35:-1.216085 36:1.035694 37:-0.154018 38:-0.873993 39:1.495961 40:-0.733342 41:1.711912 42:1.932168 43:1.190118 44:-0.761845 45:-2.046306 46:0.861763 47:0.157223 48:-1.674392 49:-0.606602 50:-0.068683 51:0.729059 52:-0.550196 53:-0.677130 54:-0.958890 55:-0.697440 56:-0.908727 57:1.115204 58:0.382829 59:1.160173 60:0.416215 61:0.752838 62:0.582640 63:-1.077846 64:0.157701 65:0.746117 66:0.237938 67:-0.071268 68:-1.778299 69:0.518119 70:0.706469
-1 1:0.289360 2:-0.810207 3:0.864644 4:0.054048 5:0.501611 6:1.089701 7:-0.272866 8:0.100130 9:0.834782 10:-0.579587 11:-0.319424 12:0.076447 13:-0.232385 14:-0.772697 15:0.577858 16:2.282575 17:1.370948 18:2.132791 19:1.920413 20:-0.011093 21:-0.354917 22:-0.382151 23:-1.630349 24:0.680635 25:0.500489 26:1.443707 27:0.213072 28:-0.439997 29:0.365626 30:-0.423881 31:1.428348 32:-0.193909 33:-0.120462 34:0.703679 35:0.018109 36:-0.581009 37:0.144182 38:0.459784 39:1.116823 40:-0.988236 41:1.298841 42:0.026763 43:-0.936757 44:-0.662645 45:0.828575 46:-0.699003 47:-0.072752 48:0.601373 49:-1.475187 50:-1.522368 51:-0.607541 52:-0.112328 53:0.049943 54:-1.751114 55:-1.599120 56:-1.860070 57:-0.186484 58:0.178725 59:1.007245 60:0.496467 61:0.547088 62:-1.314200 63:1.505750 64:-0.951107 65:0.350127 66:0.639111 67:-0.789084 68:-0.098971 69:0.735583 70:0.909897
-1 1:1.235237 2:0.562564 3:0.670962 4:0.965400 5:0.123431 6:-0.406403 7:-1.167859 8:0.331078 9:0.257610 10:0.187865 11:-0.131523 12:0.922266 13:-1.013594 14:-0.004177 15:-1.191856 16:0.110570 17:-0.824873 18:-0.484594 19:0.499620 20:0.432353 21:2.175263 22:0.712310 23:-0.716845 24:1.020002 25:-0.019778 26:-0.412308 27:0.841720 28:-2.325563 29:0.377571 30:-0.902128 31:0.553878 32:-0.098746 33:1.109002 34:0.174475 35:-0.309643 36:1.237411 37:-0.681849 38:-1.242148 39:-0.371099 40:0.069329 41:-0.771466 42:1.318917 43:-0.400870 44:-0.920231 45:0.094151 46:0.916562 47:-1.139408 48:1.401624 49:0.406608 50:-0.752500 51:-0.635834 52:-1.762182 53:-1.175529 54:0.570284 55:-1.038902 56:-0.438921 57:-0.019257 58:1.127288 59:-2.182939 60:-0.888993 61:0.344135 62:0.721296 63:-0.804993 64:0.589143 65:-0.078928 66:-0.279524 67:-0.996659 68:0.243935 69:0.556754 70:-2.483094
-1 1:-2.772837 2:1.980765 3:1.014703 4:1.079779 5:-0.122624 6:-0.646088 7:-0.872425 8:0.048704 9:-0.031673 10:-0.434835 11:-1.532694 12:-0.384386 13:0.369320 14:-0.096314 15:0.432527 16:-0.964114 17:-1.602283 18:1.058774 19:0.514792 20:-2.187177 21:0.592165 22:0.868124 23:0.740320 24:0.399865 25:1.272366 26:0.606995 27:-0.080371 28:-2.225496 29:1.476580 30:-0.141852 31:-0.565413 32:-0.330880 33:0.982553 34:-0.342817 35:0.536832 36:0.483828 37:-0.619924 38:1.580941 39:1.042173 40:-1.576223 41:-0.244577 42:-0.025335 43:0.876526 44:-1.212720 45:-2.240659 46:0.366834 47:-0.280203 48:0.614516 49:0.381492 50:-2.782932 51:-0.132016 52:1.303435 53:-0.852263 54:-0.627447 55:0.192965 56:0.180568 57:-0.547379 58:-0.422592 59:-0.640360 60:0.905267 61:0.603961 62:0.970337 63:-0.458902 64:0.146131 65:-0.496006 66:-1.422534 67:0.799675 68:0.073059 69:-0.330708 70:0.434287
-1 1:-1.355470 2:-0.216179 3:-0.234658 4:0.686605 5:0.129051 6:-0.388732 7:-0.972748 8:-0.570000 9:0.703530 10:-0.368679 11:0.346894 12:-0.390786 13:0.337390 14:-0.301115 15:0.768653 16:-0.081338 17:-1.695463 18:0.609423 19:-0.550386 20:-0.760090 21:0.671084 22:0.242910 23:0.629044 24:0.589234 25:0.236461 26:0.697047 27:0.350732 28:2.432120 29:-1.158200 30:0.904801 31:-0.086636 32:-0.107014 33:0.040105 34:-0.478071 35:-0.997973 36:-0.410344 37:0.580740 38:1.602387 39:-0.586867 40:-0.104030 41:-0.946420 42:0.597923 43:-1.821273 44:1.267358 45:0.807982 46:0.940666 47:0.659451 48:1.681068 49:-1.034457 50:-0.159205 51:0.537807 52:-0.066103 53:-0.056999 54:-1.051730 55:0.268981 56:0.901402 57:-1.646054 58:0.142491 59:-0.406317 60:-0.142998 61:0.453492 62:0.595833 63:-1.063782 64:-1.329152 65:0.684704 66:1.195374 67:-0.533257 68:-0.358080 69:0.311258 70:-0.273570
-1 1:0.294865 2:-1.142503 3:1.331905 4:1.160297 5:0.551083 6:0.578055 7:1.825350 8:-0.226614 9:1.138489 10:0.860465 11:-0.891473 12:-1.032757 13:-0.751911 14:0.097046 15:0.385259 16:-0.456070 17:-0.455857 18:-1.369514 19:-1.135646 20:-0.191473 21:1.180017 22:0.512093 23:-0.907224 24:-0.185377 25:1.368978 26:-0.514213 27:0.190452 28:0.908125 29:0.080001 30:-0.262029 31:-1.137761 32:-0.319342 33:0.459729 34:1.489087 35:-0.875157 36:-0.492094 37:-0.476566 38:-0.899591 39:0.117560 40:0.588094 41:-1.302922 42:0.605512 43:0.545574 44:1.062739 45:-0.288808 46:-1.465818 47:1.835760 48:0.722384 49:-0.719207 50:-0.134923 51:0.486547 52:-1.463692 53:-0.071421 54:0.674316 55:0.940841 56:0.388903 57:0.447897 58:-0.685782 59:1.221983 60:0.004524 61:-1.608731 62:0.396738 63:-0.961117 64:-0.400954 65:0.823848 66:0.722421 67:-1.328836 68:0.834145 69:1.524332 70:-0.345906
-1 1:0.166528 2:0.963604 3:0.280935 4:-0.850509 5:-0.115883 6:0.106517 7:0.348721 8:0.988538 9:-1.256178 10:-1.704475 11:-1.303155 12:-0.174386 13:0.169199 14:0.106498 15:-1.082652 16:0.249466 17:-0.086577 18:0.138960 19:0.953814 20:-0.297728 21:1.127720 22:0.301951 23:1.758278 24:1.030976 25:1.082897 26:-1.584878 27:-0.698733 28:-1.830197 29:1.000233 30:-0.442396 31:-1.620440 32:1.140634 33:-0.390953 34:0.493264 35:0.541069 36:1.601270 37:0.851168 38:0.515029 39:-1.027223 40:1.218128 41:1.235899 42:-0.565942 43:-0.960266 44:1.149287 45:-1.996354 46:0.727906 47:-1.578055 48:0.761706 49:-2.225992 50:-0.324950 51:1.624195 52:1.000177 53:0.094737 54:0.492758 55:-0.076089 56:-1.225406 57:-1.873993 58:1.748296 59:-0.458406 60:-0.490139 61:0.274641 62:1.515882 63:-2.389914 64:1.075952 65:0.651775 66:-0.542789 67:-0.631640 68:1.515086 69:0.089034 70:0.408525
-1 1:-0.402160 2:0.090937 3:0.597239 4:1.936280 5:-1.454444 6:-0.729615 7:1.038353 8:1.433543 9:0.766318 10:1.758722 11:0.935786 12:-0.300208 13:1.330958 14:-1.634439 15:-0.036043 16:0.748883 17:0.597537 18:0.912641 19:0.130252 20:0.265322 21:1.489682 22:-0.120860 23:1.689971 24:-0.921326 25:1.382692 26:0.590879 27:0.229735 28:2.326668 29:-0.412451 30:0.093917 31:-1.384346 32:0.334011 33:-0.193394 34:-0.164958 35:-1.354126 36:0.150300 37:-0.154809 38:-0.342995 39:-0.185384 40:-1.841207 41:-0.519979 42:0.343494 43:-0.697473 44:-0.727589 45:1.000795 46:0.957654 47:-1.591410 48:1.305863 49:0.481057 50:-1.270130 51:-0.999488 52:-0.056157 53:-0.882196 54:-0.358208 55:0.203501 56:0.408784 57:-0.576171 58:1.042415 59:1.213909 60:0.248744 61:-1.338880 62:-1.370518 63:-1.586901 64:0.452750 65:0.734389 66:-1.531205 67:-0.499651 68:0.914720 69:1.183901 70:0.206698
-1 1:-0.422403 2:0.113597 3:1.596989 4:1.347624 5:-1.625371 6:-0.532243 7:1.037160 8:0.400911 9:-0.386852 10:-0.854629 11:-0.935737 12:-1.749835 13:-0.700964 14:0.620019 15:0.838266 16:-0.169741 17:-1.364123 18:1.283530 19:1.331478 20:1.725389 21:0.686914 22:1.566146 23:-1.447382 24:-0.776548 25:0.740995 26:-1.218968 27:-0.889164 28:-0.592376 29:-1.774190 30:0.416061 31:0.299128 32:-0.447823 33:0.897832 34:-0.199650 35:-1.274552 36:0.778691 37:1.821995 38:-0.989437 39:1.251262 40:1.213413 41:-1.313469 42:1.142147 43:-0.562934 44:0.368322 45:0.021988 46:-1.097986 47:-1.019995 48:-0.174024 49:-0.166412 50:-0.693835 51:-1.373716 52:-1.417430 53:0.371607 54:-0.642942 55:0.962444 56:-2.033017 57:-1.007178 58:0.714096 59:-0.354982 60:-0.365039 61:0.338515 62:-0.852417 63:-0.080163 64:-1.448978 65:-0.012591 66:-0.737138 67:1.313139 68:0.519767 69:0.979113 70:-1.115473
-1 1:1.149098 2:-3.092189 3:-2.034663 4:0.716929 5:0.488100 6:-1.520111 7:0.729554 8:0.271577 9:2.343544 10:0.089223 11:-1.106523 12:-1.315104 13:0.435702 14:-1.057932 15:-0.342719 16:-0.252359 17:0.762152 18:1.337630 19:-0.972592 20:0.125962 21:-0.066311 22:-0.118573 23:-0.144345 24:-1.643469 25:0.098186 26:-0.191135 27:-0.182035 28:-0.462151 29:-1.250432 30:0.797708 31:-1.409633 32:-0.295017 33:0.488403 34:-0.050661 35:0.246112 36:-1.102375 37:-0.037757 38:-0.150640 39:-0.275155 40:-0.521486 41:-0.326349 42:-0.503711 43:-0.445708 44:-0.335179 45:-1.890170 46:-0.609580 47:1.210610 48:-0.852003 49:-0.066875 50:0.038520 51:0.867579 52:-2.725182 53:-0.043313 54:0.274924 55:0.512755 56:0.541486 57:-1.005654 58:0.482352 59:0.650962 60:-1.116607 61:-2.064698 62:0.087036 63:0.233567 64:-1.966574 65:-2.692620 66:-2.539029 67:0.014208 68:1.582797 69:1.068764 70:0.786279
-1 1:0.488315 2:-0.222161 3:-0.308250 4:0.614870 5:-0.625983 6:2.997748 7:-1.755709 8:0.427554 9:0.446471 10:0.107517 11:-1.273397 12:-0.092159 13:0.260288 14:-1.123818 15:-2.204119 16:-0.847498 17:-0.728734 18:-1.278700 19:0.278545 20:-0.174668 21:-0.723028 22:-0.948380 23:1.084196 24:1.779763 25:0.509360 26:-1.376111 27:0.307100 28:0.569135 29:-0.884063 30:-1.125738 31:0.041459 32:1.215583 33:0.322392 34:0.587336 35:1.455337 36:-0.549552 37:0.063257 38:-0.370185 39:0.297773 40:0.122878 41:0.352557 42:0.205967 43:0.833357 44:0.602467 45:0.905054 46:-0.234914 47:-0.284205 48:-2.353572 49:-1.016973 50:-1.061667 51:0.727894 52:0.634075 53:0.282644 54:0.725779 55:-1.459683 56:-1.584458 57:-1.587186 58:-0.538566 59:-0.042130 60:0.938435 61:-1.736265 62:0.427862 63:-0.073657 64:0.932623 65:-0.350603 66:-1.312540 67:0.109473 68:-0.179332 69:-0.890194 70:-0.342940
-1 1:0.103652 2:1.105136 3:-0.293026 4:-0.389742 5:1.408083 6:-1.160113 7:-0.401309 8:-0.447500 9:-1.050188 10:0.744050 11:-0.045139 12:-0.054633 13:-0.635476 14:0.006913 15:-0.006814 16:-0.216985 17:-1.651763 18:0.144319 19:1.381561 20:-0.565492 21:0.617315 22:0.514072 23:-0.975839 24:0.500955 25:0.203757 26:-0.555149 27:1.905841 28:0.032064 29:-0.451558 30:0.014673 31:1.335752 32:0.252533 33:-2.182770 34:-0.029856 35:0.251348 36:0.866490 37:2.512290 38:2.197930 39:-0.782314 40:-0.982050 41:-0.743301 42:-0.831416 43:0.702843 44:-1.686876 45:-0.476838 46:-0.452942 47:-1.657349 48:0.601323 49:0.168450 50:0.169965 51:-1.005221 52:0.798525 53:-1.660117 54:1.598278 55:-2.188981 56:-0.924497 57:0.346276 58:1.375574 59:-0.268605 60:1.991647 61:-1.787538 62:-0.458325 63:0.073250 64:-0.497117 65:0.513926 66:-1.837209 67:0.066856 68:-0.383786 69:-0.087074 70:0.187278
-1 1:0.336522 2:0.526315 3:-0.817427 4:1.189393 5:2.682095 6:-0.133946 7:0.023661 8:-1.485192 9:-0.363479 10:0.392564 11:-0.191162 12:-2.430299 13:1.264560 14:-1.205406 15:-0.354171 16:1.676340 17:-0.128684 18:-0.397613 19:1.220782 20:0.259421 21:0.788429 22:-0.102071 23:-0.736710 24:-0.511417 25:-1.459472 26:-0.094802 27:1.347650 28:0.473961 29:0.326406 30:-1.899040 31:-0.444520 32:1.569013 33:-0.959041 34:-0.375791 35:0.337416 36:-0.606260 37:1.346920 38:-0.417295 39:-0.191967 40:0.937956 41:0.303335 42:0.083091 43:-0.310617 44:-1.074148 45:-0.959154 46:-0.109814 47:0.707174 48:-0.196194 49:1.151879 50:0.553359 51:1.176991 52:0.369051 53:1.985317 54:0.378002 55:0.262422 56:0.764495 57:-0.186631 58:-3.063916 59:-1.727729 60:1.161435 61:0.701571 62:-2.139016 63:-0.168550 64:0.110928 65:-0.948870 66:-0.810673 67:-0.850321 68:-0.048996 69:-1.137963 70:-0.125207
-1 1:-0.080976 2:0.944340 3:-0.963365 4:0.797638 5:-0.022993 6:0.364945 7:-0.834991 8:-1.888046 9:-0.087933 10:-0.100801 11:-1.653426 12:1.752654 13:0.139162 14:-0.628397 15:0.687787 16:1.282079 17:-0.625246 18:0.489150 19:0.619263 20:1.740089 21:1.303486 22:0.771097 23:-0.146189 24:-0.916270 25:0.294761 26:0.846192 27:1.203936 28:2.065757 29:0.937914 30:0.673680 31:-0.237109 32:0.883123 33:0.058097 34:-0.625783 35:-0.344497 36:0.945080 37:1.241448 38:-1.072082 39:-0.690340 40:-1.004407 41:-0.795224 42:-0.766436 43:-0.515208 44:0.877194 45:-0.709506 46:0.342950 47:0.954011 48:0.877399 49:1.067327 50:2.371430 51:0.841326 52:-1.781872 53:-0.407742 54:-0.472066 55:-0.741828 56:-0.311009 57:0.651955 58:-0.671616 59:0.397255 60:-0.533704 61:-0.637743 62:-0.000595 63:1.592781 64:-0.156142 65:0.614389 66:-0.991211 67:0.506410 68:-0.445867 69:0.503304 70:1.073504
-1 1:1.455669 2:1.074287 3:-0.745422 4:1.613941 5:-0.691463 6:-0.640988 7:-0.996911 8:0.638048 9:-0.119225 10:1.979255 11:-0.559661 12:2.651380 13:1.029771 14:-0.624679 15:0.303722 16:-1.088719 17:0.633672 18:0.852799 19:-1.487961 20:-1.692966 21:1.281310 22:1.221281 23:-0.401226 24:-0.080937 25:-1.170862 26:0.651968 27:0.001669 28:1.119605 29:-0.390621 30:-0.182693 31:-0.663459 32:-0.372080 33:1.973181 34:-0.042112 35:-1.862823 36:0.461543 37:-0.117631 38:1.525249 39:-0.507100 40:1.594793 41:-0.775316 42:-0.780441 43:0.407311 44:0.526874 45:1.229402 46:-1.167378 47:0.649137 48:-0.446803 49:0.499086 50:-1.316072 51:-2.273406 52:-0.550792 53:0.608741 54:-0.832737 55:-0.413784 56:-0.055984 57:0.338244 58:-1.032827 59:-0.735268 60:-0.809936 61:0.373107 62:0.268389 63:-0.024847 64:-0.744118 65:-2.262912 66:-1.388086 67:1.431408 68:-0.983702 69:-0.575560 70:0.514266
-1 1:0.449554 2:1.075176 3:0.211816 4:0.932886 5:0.922187 6:-0.449027 7:-0.492562 8:-0.216704 9:0.159561 10:0.257664 11:-0.154001 12:-0.150110 13:-0.108665 14:-0.121217 15:1.571461 16:-0.211136 17:0.642394 18:0.162747 19:1.346299 20:-0.421618 21:-1.297189 22:-0.014431 23:-0.240337 24:-0.604059 25:-1.778387 26:-1.599614 27:-2.201728 28:0.120736 29:-1.019664 30:-0.597910 31:-0.244677 32:-0.788298 33:0.468065 34:-0.136050 35:0.141721 36:0.229827 37:0.027076 38:-0.515261 39:-0.667913 40:-1.498594 41:0.244302 42:0.837369 43:3.094992 44:-1.232314 45:1.265969 46:1.137328 47:0.693867 48:0.165069 49:0.946633 50:-0.445893 51:1.875393 52:0.835102 53:-0.537707 54:0.005419 55:-0.484839 56:-2.455773 57:-0.900102 58:-0.476497 59:-0.404236 60:0.104209 61:0.099619 62:1.714675 63:0.682514 64:0.802329 65:-1.973256 66:0.469815 67:-0.275814 68:-0.403731 69:0.112230 70:-1.293756
-1 1:-1.358280 2:-0.719778 3:-0.139482 4:-0.079056 5:0.380725 6:1.166820 7:0.470316 8:-0.697181 9:0.219225 10:0.050084 11:1.981171 12:1.718302 13:0.834022 14:-0.199612 15:-0.775191 16:-1.137524 17:1.172285 18:0.048371 19:-1.732610 20:0.639532 21:-0.291850 22:-0.710412 23:-0.220730 24:0.304399 25:1.400459 26:0.788213 27:1.332923 28:0.168861 29:1.292906 30:-1.484361 31:1.261489 32:-1.093910 33:-1.548329 34:-1.002272 35:-0.528590 36:-0.317802 37:1.165159 38:0.433519 39:1.798928 40:0.482314 41:1.181531 42:-2.605476 43:-0.535178 44:0.344400 45:0.205130 46:-0.943100 47:0.853409 48:0.927264 49:2.131635 50:-1.725752 51:1.096613 52:0.460219 53:-0.104018 54:0.727418 55:1.093637 56:-0.155193 57:0.034732 58:0.960326 59:0.251086 60:2.282361 61:-1.035658 62:1.545194 63:0.441736 64:-0.279069 65:0.168622 66:1.403935 67:1.912620 68:0.267352 69:-0.352380 70:-0.062254
-1 1:0.791799 2:-0.737522 3:1.099534 4:1.933854 5:1.030021 6:-0.789750 7:0.295991 8:-0.253471 9:-0.207562 10:1.210063 11:0.774073 12:0.557084 13:0.753973 14:-1.487898 15:-1.707194 16:1.427229 17:0.106580 18:1.008166 19:0.508057 20:0.845316 21:1.085756 22:-1.583661 23:-0.026329 24:-1.999022 25:1.728376 26:0.194178 27:0.779865 28:0.635575 29:0.287731 30:0.112233 31:0.260461 32:-0.243311 33:-0.033710 34:0.030944 35:1.176701 36:-0.424728 37:-0.603606 38:-0.804802 39:1.756516 40:0.229774 41:-2.234392 42:-1.172207 43:-0.183913 44:-1.759808 45:-0.599809 46:-0.296646 47:-0.363946 48:-2.078359 49:0.462290 50:2.814621 51:0.452597 52:-1.942827 53:0.638271 54:-1.690751 55:0.336607 56:-2.339268 57:-2.408327 58:1.664234 59:-1.301273 60:-0.657210 61:-0.997801 62:0.417451 63:-1.687527 64:1.845921 65:0.870104 66:-0.503171 67:-0.178082 68:-1.014928 69:-0.636740 70:-0.542290
-1 1:-1.144121 2:-0.345803 3:-0.604837 4:-1.622946 5:-1.968213 6:-2.277085 7:0.855092 8:-0.650969 9:2.284923 10:0.326386 11:1.337142 12:0.220213 13:0.587189 14:0.957587 15:1.930011 16:0.597905 17:-0.358004 18:0.445643 19:0.000352 20:-0.380312 21:0.975502 22:0.848178 23:-0.047674 24:-0.678207 25:-1.311562 26:-1.678165 27:1.293900 28:-0.116098 29:0.424878 30:-2.081953 31:1.736502 32:-0.841538 33:0.016613 34:-0.603295 35:1.867834 36:-0.174273 37:0.164551 38:-0.185174 39:0.846780 40:1.068139 41:-1.486630 42:-1.522918 43:-0.826062 44:0.194139 45:0.135216 46:-1.514617 47:2.352052 48:-0.359094 49:-0.377755 50:-1.061304 51:-1.195584 52:-0.026815 53:1.243581 54:-0.184620 55:0.955789 56:0.948933 57:1.172629 58:0.636409 59:0.399752 60:1.217498 61:0.903375 62:-1.785378 63:-0.195684 64:0.210371 65:0.143782 66:0.086213 67:-0.218108 68:-1.485419 69:-0.152660 70:1.028509
-1 1:0.361869 2:0.610548 3:-0.561283 4:0.737586 5:2.088941 6:0.043365 7:0.420189 8:-0.082996 9:0.507842 10:0.918481 11:-0.815039 12:1.030525 13:-2.142665 14:-1.256440 15:-0.858286 16:-1.506752 17:0.632006 18:0.689531 19:-2.751122 20:1.816500 21:0.309294 22:-0.589033 23:2.402448 24:0.402129 25:-0.150797 26:0.742198 27:-1.466771 28:-1.167828 29:-0.249489 30:0.097296 31:-0.770723 32:-0.538987 33:-0.979031 34:1.071230 35:1.633277 36:-0.679063 37:-1.913104 38:-0.837920 39:-1.578815 40:1.146517 41:-0.603122 42:0.425596 43:0.424160 44:1.775931 45:-0.321504 46:-0.942243 47:1.225365 48:-2.542693 49:-0.194037 50:0.366893 51:-0.297279 52:-0.040874 53:0.055197 54:-1.052704 55:2.761632 56:0.172851 57:-0.577172 58:0.386916 59:-0.199715 60:0.144893 61:-1.092492 62:-0.242035 63:0.187107 64:-0.150731 65:2.246016 66:-0.005658 67:2.605474 68:0.757979 69:0.427995 70:0.633201
-1 1:0.427888 2:-0.005788 3:-0.309463 4:0.158917 5:-0.666509 6:0.434615 7:0.698454 8:-1.008689 9:1.018874 10:0.855129 11:-1.116943 12:-0.208723 13:0.518994 14:0.361274 15:1.613891 16:1.570417 17:0.330121 18:0.364605 19:0.129827 20:-0.824247 21:1.044281 22:-0.138098 23:0.345525 24:-0.469407 25:-0.711713 26:0.411043 27:0.945894 28:-1.252327 29:-0.603798 30:0.571381 31:0.269819 32:-0.237816 33:-0.125525 34:-2.369675 35:-1.007547 36:0.068394 37:0.722004 38:0.085252 39:-0.021166 40:1.360366 41:-0.742049 42:0.170483 43:-0.684790 44:-0.502249 45:1.577905 46:0.729350 47:1.252821 48:0.383161 49:-2.357367 50:0.019389 51:0.671490 52:-1.491826 53:0.851972 54:1.462061 55:-0.877949 56:-2.495214 57:-0.792115 58:-0.839189 59:-0.164696 60:-0.531398 61:-0.548944 62:0.417390 63:0.833057 64:0.461389 65:0.376354 66:0.733309 67:-0.950346 68:0.196735 69:0.250559 70:0.817099
-1 1:-1.158493 2:0.861108 3:-0.959876 4:0.873011 5:-0.452858 6:0.705010 7:-1.013586 8:-0.580447 9:-0.207499 10:0.353976 11:-0.404126 12:1.207151 13:-0.739101 14:-2.702272 15:1.873830 16:0.106187 17:0.204357 18:1.180371 19:-0.265999 20:-0.516366 21:-1.563760 22:-0.248457 23:-0.070880 24:1.203700 25:0.353857 26:0.773595 27:0.403412 28:-0.579662 29:0.301144 30:-1.218362 31:-0.805067 32:0.791851 33:-0.783727 34:-1.660369 35:-1.975612 36:-0.598112 37:1.127378 38:1.511230 39:-1.319768 40:-1.450186 41:-0.373841 42:1.172125 43:0.624786 44:0.305577 45:-0.358373 46:0.168658 47:-1.570818 48:-0.354391 49:-1.113749 50:0.038627 51:-0.719764 52:0.585593 53:-0.483361 54:-0.835628 55:0.406460 56:-1.742081 57:0.415251 58:-0.828782 59:-0.090000 60:-0.038483 61:1.264595 62:0.283543 63:0.481376 64:0.965523 65:0.107121 66:0.119951 67:0.431494 68:-1.707172 69:1.819366 70:-0.154901
-1 1:0.734105 2:0.065432 3:-0.045630 4:2.294420 5:-1.404913 6:-0.337888 7:-0.970570 8:-0.157457 9:0.718034 10:1.025197 11:-1.456748 12:0.255556 13:-0.548329 14:-0.352018 15:1.570041 16:-0.675705 17:1.612490 18:0.737157 19:0.070518 20:-0.474735 21:1.120900 22:0.151569 23:-0.708135 24:-0.782856 25:0.664128 26:0.475701 27:0.214897 28:-0.076373 29:1.015479 30:0.796197 31:-0.463839 32:-0.807237 33:0.064045 34:0.613690 35:1.853994 36:1.180278 37:-0.392341 38:0.894760 39:-1.809510 40:-0.892187 41:-0.047243 42:0.907520 43:-1.401326 44:-1.348155 45:-0.643718 46:-1.773719 47:-1.426609 48:0.365574 49:-0.660355 50:0.887835 51:-1.187808 52:-0.332516 53:0.635802 54:-1.040825 55:-1.149183 56:0.439826 57:0.878886 58:0.475428 59:-1.643434 60:1.737703 61:-0.125049 62:-0.041017 63:-0.447925 64:1.450764 65:-0.147037 66:0.883449 67:1.950096 68:1.204441 69:0.392485 70:0.387116
-1 1:-0.259503 2:-0.649012 3:1.470779 4:-0.648543 5:0.179518 6:0.157439 7:0.170031 8:0.606417 9:-0.543011 10:0.838959 11:-0.911306 12:1.308449 13:-0.268593 14:1.858844 15:0.077523 16:0.195781 17:-0.065734 18:0.193002 19:-0.977342 20:2.060709 21:-0.441141 22:1.431926 23:0.120494 24:-1.190837 25:0.556922 26:-0.883503 27:1.126561 28:-1.218881 29:-0.253341 30:-0.813169 31:0.945738 32:0.954812 33:-0.706328 34:-2.137334 35:-0.256807 36:-1.253604 37:-0.065344 38:0.848443 39:-1.016887 40:1.031244 41:-0.402533 42:0.314477 43:0.983567 44:-2.256082 45:-1.705207 46:0.201557 47:-0.936499 48:1.608951 49:-0.964261 50:-1.249668 51:0.576135 52:1.087235 53:0.623214 54:1.866397 55:-0.062077 56:0.854164 57:-1.489747 58:-0.128825 59:-0.200078 60:0.517807 61:-0.699672 62:-0.380252 63:0.309654 64:1.730266 65:0.196191 66:0.103044 67:-0.569089 68:-2.063900 69:-2.096955 70:0.119761
-1 1:0.959859 2:0.354417 3:0.883128 4:0.157530 5:1.209445 6:0.691063 7:0.159582 8:-1.201657 9:0.326133 10:-0.209375 11:-0.108302 12:0.180549 13:0.209391 14:-1.550156 15:0.476150 16:0.132251 17:1.678198 18:0.368183 19:0.028735 20:-0.037248 21:0.184202 22:0.203982 23:1.253925 24:-0.054565 25:-0.336595 26:0.814721 27:0.902456 28:0.805368 29:0.202785 30:1.478296 31:0.154658 32:-0.327490 33:1.754835 34:-0.291116 35:-1.284967 36:0.530267 37:0.707951 38:0.433752 39:-2.233369 40:-0.429315 41:0.440699 42:-1.633842 43:1.137908 44:0.234694 45:0.267648 46:-1.897183 47:-0.321406 48:1.282304 49:1.946358 50:0.606067 51:0.931274 52:-1.198210 53:-1.658060 54:-0.515615 55:0.036904 56:-2.719503 57:0.124309 58:-0.707002 59:-1.058809 60:-0.402448 61:0.134184 62:0.097767 63:-1.291563 64:-0.781074 65:-0.767827 66:0.288031 67:2.409482 68:0.284606 69:0.699326 70:0.067242
-1 1:0.821168 2:-0.071452 3:1.100512 4:0.902978 5:1.278155 6:-0.120597 7:0.282398 8:-0.316814 9:-0.351631 10:-0.008570 11:-1.631780 12:-0.115288 13:1.759991 14:-2.130456 15:0.376070 16:0.228576 17:1.754868 18:1.149514 19:-0.812777 20:0.501075 21:0.247812 22:-0.360811 23:2.034136 24:-0.658562 25:-0.708148 26:-0.750502 27:-1.812309 28:-0.584424 29:0.840631 30:-0.938801 31:0.863212 32:1.781931 33:0.297179 34:0.799737 35:0.254974 36:0.735758 37:-1.661320 38:1.436280 39:0.348703 40:-0.620716 41:0.764087 42:-0.226356 43:-1.365061 44:-0.524270 45:-1.894189 46:-0.083212 47:0.454286 48:2.069183 49:-2.199512 50:-0.481508 51:0.254587 52:0.067687 53:-1.102650 54:1.276136 55:-1.934784 56:1.485859 57:0.406759 58:0.872221 59:-0.351815 60:0.419305 61:0.252650 62:0.591294 63:-0.072552 64:0.008242 65:0.278318 66:-1.428379 67:-0.437536 68:1.438908 69:-1.286007 70:0.213801
-1 1:-1.763003 2:-1.079666 3:0.042956 4:0.714927 5:0.516214 6:-0.279925 7:0.085827 8:0.861126 9:2.985180 10:0.659772 11:0.007564 12:1.648619 13:-1.043382 14:0.134778 15:-1.881605 16:0.860703 17:-0.521455 18:-1.121928 19:-0.228058 20:-0.760910 21:0.880290 22:1.516851 23:0.073642 24:0.576983 25:1.711881 26:0.527341 27:0.370186 28:-1.141994 29:1.151166 30:0.258674 31:-0.610444 32:0.291006 33:0.502513 34:-1.229839 35:0.308735 36:1.328848 37:1.167137 38:0.018389 39:0.422756 40:-0.130699 41:-1.395839 42:-0.379012 43:0.300063 44:0.365821 45:-0.224472 46:-1.031837 47:0.870298 48:0.221777 49:-0.752709 50:-1.628887 51:-1.451857 52:0.365007 53:-1.176732 54:-1.233651 55:-1.328076 56:-1.394563 57:-0.726189 58:-0.866594 59:-0.473351 60:0.085117 61:0.196160 62:-0.475218 63:-0.312588 64:-0.283382 65:-1.131221 66:0.139884 67:0.013802 68:-1.048982 69:-1.067020 70:-0.681259
-1 1:1.642469 2:0.196066 3:1.450780 4:-0.200845 5:-1.190592 6:-1.151064 7:-1.024183 8:0.076686 9:0.942971 10:-0.866197 11:0.882220 12:0.805080 13:-0.459052 14:-1.781318 15:-0.815194 16:-0.338361 17:0.435353 18:-0.236969 19:0.462248 20:1.609490 21:0.186671 22:-0.845561 23:-0.213001 24:-1.056307 25:0.710539 26:0.138716 27:1.781460 28:-0.194515 29:-0.388807 30:-0.048729 31:0.212153 32:0.909684 33:-0.342827 34:-0.075105 35:-0.382512 36:-0.829454 37:-0.143941 38:-1.241516 39:1.164083 40:0.333506 41:0.012470 42:1.727796 43:-0.310849 44:-1.737096 45:-0.526303 46:-0.616050 47:-0.251654 48:1.101044 49:-0.530776 50:-1.138929 51:-0.203369 52:-0.302735 53:-0.702680 54:1.500170 55:-1.712819 56:0.457637 57:1.118382 58:0.825596 59:0.445156 60:-0.758743 61:-0.094839 62:-1.009117 63:-0.383897 64:0.887407 65:-0.599794 66:1.078403 67:-0.075296 68:0.428898 69:1.337403 70:-0.424474
-1 1:-1.316398 2:0.282449 3:0.654797 4:2.224042 5:0.659101 6:-1.535174 7:-1.147488 8:0.197041 9:-0.209931 10:-0.337445 11:0.519141 12:0.315326 13:0.257010 14:-0.922604 15:1.107904 16:0.852595 17:-1.986938 18:-1.670516 19:0.343263 20:-1.635348 21:0.250448 22:0.162801 23:0.435688 24:0.971090 25:-1.771110 26:0.224042 27:-0.812785 28:-2.166749 29:0.702121 30:-1.860836 31:1.286881 32:-0.350783 33:1.445551 34:1.064638 35:-0.616287 36:0.808237 37:-2.298166 38:0.796856 39:-0.567078 40:-0.289176 41:-1.759460 42:-1.217907 43:0.679783 44:-0.533949 45:-1.200989 46:-0.393270 47:1.240854 48:-1.367391 49:0.141325 50:-0.332950 51:0.193885 52:-0.364623 53:-0.963899 54:-1.306438 55:1.080936 56:0.694425 57:-0.190271 58:-0.542171 59:-0.276529 60:-0.751290 61:0.727801 62:-0.290154 63:0.359268 64:-0.406586 65:-0.546935 66:1.419213 67:-0.227350 68:0.039518 69:0.730911 70:0.301549
-1 1:1.233823 2:1.859406 3:0.529832 4:0.928144 5:-1.410308 6:-2.326725 7:0.895184 8:0.010120 9:0.843467 10:-1.332972 11:-0.077712 12:-0.791792 13:1.364935 14:-1.319384 15:-1.722687 16:-1.070315 17:-0.000100 18:-0.514734 19:-1.811494 20:-1.696378 21:0.522283 22:-0.660618 23:1.823955 24:-0.578759 25:-1.886316 26:0.630500 27:-0.680939 28:0.128020 29:1.166302 30:-1.283535 31:-0.725364 32:2.093633 33:0.144498 34:0.063861 35:-0.005870 36:0.117638 37:1.479939 38:0.367992 39:-0.349060 40:2.179078 41:-2.635723 42:-1.200212 43:1.790704 44:2.604722 45:-0.007404 46:-0.306480 47:-0.384356 48:0.090572 49:1.013851 50:-0.019923 51:-1.593663 52:1.154867 53:0.127412 54:-0.596188 55:-1.197194 56:1.087660 57:-1.382469 58:-0.637671 59:0.085777 60:1.596633 61:0.594866 62:0.115730 63:-0.699987 64:-0.170706 65:0.318202 66:0.240240 67:0.725686 68:0.718299 69:0.528642 70:0.970875
-1 1:-0.112873 2:1.250712 3:0.017966 4:0.102627 5:0.353093 6:0.275666 7:-0.371676 8:-0.040775 9:-0.773532 10:0.534122 11:0.295038 12:0.088534 13:1.673584 14:0.483178 15:-0.127791 16:-1.214853 17:1.483846 18:-0.434775 19:-0.874538 20:0.516920 21:1.780956 22:0.027940 23:-2.017723 24:-1.016738 25:-1.048788 26:-0.977478 27:-0.093926 28:-0.291870 29:-0.413509 30:0.097712 31:0.711472 32:1.396446 33:0.273038 34:0.174025 35:-0.032796 36:0.027573 37:-0.096716 38:0.065077 39:-0.346968 40:0.855239 41:-0.944766 42:1.225059 43:0.298441 44:0.399894 45:0.978104 46:1.691581 47:-0.590720 48:-0.288887 49:1.573395 50:-0.118890 51:-0.814042 52:0.737074 53:0.905537 54:-0.780132 55:1.466361 56:0.241985 57:0.012381 58:0.633711 59:0.064789 60:-0.826337 61:-2.286115 62:0.001479 63:0.297773 64:-0.071163 65:-0.360119 66:-1.400722 67:-0.661129 68:0.285099 69:0.719424 70:-0.159178
-1 1:-0.232542 2:0.532014 3:-0.272467 4:1.803396 5:1.104614 6:-1.080534 7:1.691347 8:0.476642 9:-0.419187 10:0.599186 11:-0.422958 12:-0.786527 13:-0.833111 14:-0.984210 15:-0.333746 16:-0.511707 17:1.409159 18:1.596331 19:1.162086 20:-0.877645 21:0.326764 22:-1.254551 23:1.752131 24:1.447362 25:1.329351 26:0.740222 27:0.145523 28:-0.436581 29:-0.655808 30:2.151581 31:0.553624 32:0.929330 33:-1.360602 34:0.744756 35:-0.797292 36:-2.086618 37:0.652522 38:-0.605351 39:1.574176 40:1.003504 41:-1.479239 42:-1.257119 43:0.103737 44:-0.682921 45:0.442585 46:-0.283925 47:0.984574 48:0.369427 49:-1.635965 50:-0.291815 51:1.603280 52:-0.424730 53:-1.135790 54:1.286801 55:1.698665 56:-0.697464 57:0.443043 58:0.853264 59:-0.061113 60:-0.300835 61:1.703981 62:-0.833245 63:-0.859362 64:-0.265164 65:0.477344 66:1.040604 67:0.959279 68:-1.451427 69:0.868572 70:0.560353
-1 1:2.160329 2:-1.640988 3:-1.629374 4:-0.666336 5:-1.150423 6:-0.420702 7:-0.333337 8:-1.851831 9:0.002980 10:-0.809785 11:1.021716 12:0.282596 13:-0.503928 14:1.884662 15:0.875682 16:0.125593 17:-0.154549 18:0.013872 19:-0.028479 20:-2.801667 21:-1.284668 22:1.404911 23:-0.188655 24:-0.296782 25:0.004746 26:0.274448 27:-0.187589 28:-0.506399 29:0.159876 30:-0.847730 31:0.417235 32:-1.101141 33:0.581860 34:0.166659 35:0.606704 36:1.231786 37:-0.000922 38:0.934552 39:-0.487154 40:0.051582 41:0.275729 42:-1.544560 43:-1.482652 44:-0.444072 45:0.794823 46:-1.299684 47:0.185034 48:1.064108 49:-1.778215 50:0.831668 51:-0.325599 52:1.089637 53:-0.331402 54:0.138125 55:0.695155 56:1.922273 57:0.330656 58:0.912322 59:0.754502 60:1.191217 61:0.260364 62:0.007360 63:-1.580895 64:-0.695552 65:-1.123719 66:0.453355 67:1.522310 68:-1.461832 69:0.420048 70:-1.729700
-1 1:-0.997749 2:-0.364919 3:-1.281106 4:0.961548 5:-0.455177 6:-1.041153 7:-2.068445 8:0.286790 9:1.165563 10:0.981510 11:0.366569 12:0.290942 13:0.103074 14:-0.151685 15:0.858835 16:0.076987 17:-0.882271 18:-0.295059 19:0.128193 20:-0.227465 21:1.648141 22:-0.327523 23:-0.301317 24:0.421470 25:-3.435334 26:0.673078 27:0.130803 28:-0.064566 29:1.234121 30:1.024839 31:0.745008 32:-1.703564 33:1.472880 34:1.249438 35:-2.471383 36:-0.589112 37:-1.238817 38:-0.781763 39:0.248508 40:1.261601 41:1.312884 42:-0.842343 43:-0.006436 44:-0.841370 45:1.151746 46:-0.338215 47:0.548587 48:-1.040309 49:1.235023 50:-0.191757 51:1.343338 52:0.485137 53:-0.166482 54:-0.123741 55:-0.631207 56:-0.956062 57:1.729339 58:-1.532017 59:-1.593095 60:-0.161730 61:0.572564 62:1.185817 63:1.539861 64:-0.207641 65:-0.042871 66:-1.225067 67:1.425583 68:1.070231 69:0.083376 70:0.963935
-1 1:1.311882 2:2.059353 3:-0.121527 4:0.011105 5:0.693145 6:1.707839 7:-0.672211 8:-0.625347 9:-0.002606 10:-0.816388 11:1.500319 12:0.066310 13:0.840286 14:-0.443246 15:0.191499 16:0.443274 17:0.357904 18:2.372321 19:-0.080880 20:0.283766 21:-0.186394 22:-0.059270 23:-0.187683 24:0.006427 25:-1.210396 26:-2.489000 27:-0.892236 28:1.352191 29:0.554045 30:0.640617 31:-2.584008 32:-0.556481 33:0.722528 34:-0.567253 35:-1.288963 36:-0.813283 37:-1.705898 38:-0.118108 39:0.485684 40:0.079018 41:-0.988016 42:0.685577 43:-0.202349 44:0.353776 45:1.147251 46:-0.394390 47:1.491449 48:-0.308117 49:-0.287237 50:-0.531902 51:-0.122310 52:-0.511052 53:1.078440 54:-0.531436 55:1.319623 56:1.319200 57:1.746835 58:-0.661843 59:-0.011433 60:1.101049 61:1.094303 62:-1.050456 63:-1.334995 64:-0.021569 65:-0.855452 66:0.584464 67:-0.640146 68:-1.515521 69:0.036139 70:-0.389922
-1 1:0.008528 2:0.791817 3:-2.118053 4:-1.189313 5:-0.307859 6:0.789252 7:-1.190637 8:-0.176876 9:0.202628 10:-1.444094 11:1.327909 12:0.550897 13:0.562253 14:-1.001080 15:0.409861 16:1.733025 17:-0.716782 18:1.204276 19:-0.635205 20:-1.085339 21:-1.467752 22:-0.231756 23:-1.227287 24:-0.292757 25:-0.633893 26:-0.204139 27:-1.970775 28:0.491012 29:-0.542229 30:-0.602559 31:-0.637921 32:-2.073775 33:-0.198493 34:0.622508 35:1.185355 36:-1.139429 37:-1.024377 38:-1.846335 39:1.480881 40:-0.835764 41:0.263794 42:-0.440105 43:0.898590 44:0.777708 45:0.630253 46:0.353971 47:1.212046 48:-0.785210 49:-0.395867 50:1.451627 51:0.827441 52:-1.087754 53:1.036775 54:-1.018749 55:0.466027 56:1.902145 57:0.463904 58:-0.164279 59:-0.742127 60:0.204843 61:-0.293190 62:-0.553601 63:-0.709789 64:-1.420448 65:2.384486 66:-1.629702 67:0.981765 68:0.493667 69:-0.391384 70:0.135464
-1 1:0.745707 2:-0.575264 3:1.331786 4:0.114115 5:0.029113 6:-0.758955 7:0.536663 8:-0.249169 9:-0.608866 10:-0.932104 11:-0.297836 12:-0.194561 13:-0.827613 14:0.281042 15:0.260323 16:1.174376 17:0.131329 18:-0.294558 19:0.180530 20:0.716328 21:-1.912615 22:-1.202104 23:-0.844632 24:-0.938674 25:-1.214239 26:0.192851 27:-1.057559 28:-0.624420 29:-0.400550 30:0.328375 31:-0.548174 32:-0.184359 33:1.529744 34:-0.637847 35:-0.810519 36:-0.540022 37:1.245689 38:0.474863 39:-0.520206 40:1.445836 41:-0.082270 42:-0.243480 43:1.132426 44:0.199608 45:1.128315 46:1.103869 47:0.805138 48:-0.191788 49:0.818540 50:-0.702606 51:-0.361677 52:-1.544580 53:-1.906601 54:1.276465 55:-0.784537 56:0.301399 57:0.419964 58:1.207461 59:0.198363 60:-0.373566 61:0.786147 62:0.659226 63:-0.804595 64:-0.153185 65:0.393661 66:0.826526 67:-0.230305 68:-0.228282 69:-1.225027 70:0.410026
-1 1:1.888795 2:0.103209 3:-0.396104 4:-0.983398 5:-0.007376 6:-0.009479 7:-0.176513 8:-0.537443 9:-0.609912 10:-0.157847 11:1.358236 12:-0.929982 13:0.750185 14:-0.489717 15:2.115245 16:-0.383486 17:0.368699 18:0.864929 19:3.104187 20:-1.666101 21:-0.237020 22:-0.483828 23:-1.737191 24:0.096905 25:-1.311128 26:0.427379 27:-0.532454 28:-0.437575 29:-1.465401 30:-0.928162 31:0.199402 32:1.076918 33:-1.099535 34:-0.117791 35:-0.369767 36:-0.329828 37:-1.500616 38:0.503630 39:-1.189812 40:-2.542702 41:-1.307490 42:-1.123721 43:-1.803401 44:-1.170616 45:-1.715293 46:1.542285 47:-1.398291 48:-0.177893 49:1.350527 50:0.478576 51:-1.496183 52:1.149133 53:-1.190001 54:0.619204 55:1.442296 56:-0.793639 57:1.813755 58:0.243082 59:0.162914 60:0.097104 61:-0.476319 62:0.375877 63:0.315020 64:-0.323172 65:2.298520 66:-1.023055 67:-1.586617 68:-1.453684 69:-0.525341 70:1.501023
-1 1:-2.329934 2:-0.346084 3:1.492462 4:-0.797590 5:-0.696097 6:-0.251729 7:0.719293 8:0.763302 9:1.103038 10:-0.578339 11:0.795837 12:-0.815188 13:1.458085 14:0.990483 15:-1.266021 16:-0.561376 17:-0.966890 18:-0.070435 19:-1.037697 20:-0.192748 21:0.096327 22:-0.238912 23:-0.512708 24:-0.388945 25:1.375186 26:0.020971 27:0.115382 28:0.813265 29:2.174227 30:-1.589262 31:-1.163733 32:-0.141047 33:1.287918 34:-0.263100 35:-1.085459 36:-0.105266 37:0.302791 38:-1.560807 39:-0.291344 40:-0.392604 41:-0.481289 42:-1.235333 43:-0.237135 44:0.679554 45:1.102241 46:0.667130 47:-0.139413 48:-0.831840 49:0.537762 50:-1.131446 51:-0.027937 52:-0.032734 53:0.257120 54:-0.042764 55:-0.649087 56:1.135192 57:0.823165 58:0.056143 59:-0.581786 60:0.328287 61:-1.233378 62:0.078337 63:0.423048 64:0.033724 65:-0.375754 66:0.822272 67:0.957466 68:0.637212 69:0.422257 70:0.561324
-1 1:0.063140 2:-2.029585 3:-1.844077 4:-0.436764 5:-2.726717 6:0.461032 7:0.314239 8:0.013677 9:-1.132171 10:-1.268396 11:0.385222 12:1.351485 13:0.134888 14:1.358023 15:-0.189282 16:-1.881902 17:-0.466250 18:-0.177403 19:0.297856 20:0.458820 21:-0.430644 22:0.226939 23:0.574236 24:-0.458408 25:-1.009672 26:1.116230 27:-0.634160 28:-0.288860 29:1.976740 30:-1.442078 31:-0.154475 32:0.903227 33:1.055023 34:-0.712030 35:-0.548428 36:-0.541750 37:-2.530328 38:0.465367 39:0.363045 40:-1.331327 41:0.212947 42:-0.630364 43:0.118369 44:1.166219 45:-1.803102 46:0.522881 47:-0.358251 48:2.004799 49:1.416467 50:0.965272 51:-0.216316 52:1.653951 53:1.087841 54:-0.069390 55:-0.370034 56:0.727391 57:-0.710559 58:1.790430 59:0.077697 60:1.757739 61:-1.333107 62:-0.485828 63:-2.624325 64:-0.843567 65:0.770021 66:0.758031 67:-0.627498 68:-0.356582 69:-1.229541 70:-0.471095
-1 1:1.206157 2:-0.468929 3:-2.501962 4:-0.159086 5:-0.920204 6:-0.292622 7:0.418668 8:-0.503983 9:0.134667 10:-0.144421 11:0.093870 12:-0.351495 13:-1.483394 14:0.480645 15:-1.116771 16:0.196125 17:-0.134975 18:0.822716 19:0.275869 20:0.046702 21:0.907309 22:0.626885 23:-0.823611 24:-0.804369 25:-1.098044 26:-0.876967 27:-0.381364 28:-2.460118 29:1.818599 30:0.203661 31:-1.469296 32:1.290358 33:0.396317 34:-0.411093 35:0.720952 36:2.495090 37:0.884519 38:1.217732 39:1.049976 40:0.343989 41:-1.675299 42:-0.616227 43:-0.566871 44:-1.358767 45:-0.355792 46:0.371629 47:0.678153 48:-0.748956 49:1.743715 50:0.773981 51:-1.686413 52:-0.224640 53:-0.088129 54:0.592217 55:3.531209 56:0.130852 57:-0.133247 58:-0.692908 59:-0.100227 60:0.393421 61:0.498510 62:2.218270 63:-1.624546 64:-0.463136 65:-0.402168 66:0.538089 67:1.007201 68:0.327135 69:-0.444762 70:-0.895950
-1 1:-0.638802 2:0.978159 3:-1.094118 4:0.519141 5:0.108671 6:-0.504770 7:1.376706 8:-0.056338 9:0.557693 10:0.521864 11:-0.716175 12:-1.381853 13:-0.406516 14:-1.377784 15:-1.778089 16:0.376281 17:0.487435 18:-0.514117 19:-1.091941 20:-0.896786 21:0.291628 22:1.784584 23:0.573440 24:0.897180 25:-0.686744 26:0.144319 27:-1.336353 28:-3.020262 29:1.379096 30:0.187995 31:0.306056 32:1.151284 33:-1.163090 34:-0.843861 35:0.313093 36:-0.691367 37:-1.756575 38:-0.356420 39:-0.916111 40:-0.692389 41:1.568615 42:-1.474240 43:-0.398219 44:0.250352 45:-0.418199 46:-2.225097 47:-0.659300 48:-0.449674 49:-0.413070 50:1.139178 51:0.702486 52:1.126872 53:0.251234 54:1.203045 55:-0.560033 56:-0.054954 57:-0.763615 58:1.581192 59:-0.082792 60:1.140977 61:0.240519 62:0.726754 63:1.549807 64:1.692601 65:0.775459 66:-0.359042 67:1.092849 68:0.815625 69:0.587312 70:-1.211476
-1 1:2.134161 2:0.260054 3:-0.392190 4:0.193552 5:-0.496442 6:-0.121149 7:-1.054307 8:0.235256 9:-0.944503 10:1.044986 11:0.191480 12:-0.500003 13:-0.087321 14:-1.041269 15:0.997213 16:-1.720753 17:-0.529171 18:0.643874 19:1.414440 20:-0.592731 21:0.766250 22:0.706611 23:-0.065675 24:0.240860 25:-1.476165 26:-0.136842 27:0.923382 28:-0.333834 29:0.565694 30:0.074122 31:1.013387 32:0.781323 33:0.739233 34:-0.310287 35:0.855112 36:0.887130 37:-1.120142 38:-0.568882 39:-0.580820 40:0.151075 41:-0.027581 42:-0.597882 43:2.003029 44:-0.304556 45:-0.014499 46:0.153599 47:0.908761 48:-0.802677 49:-1.452706 50:-0.843374 51:-0.871341 52:-0.208507 53:0.108214 54:0.319686 55:0.214479 56:1.079500 57:-0.984357 58:0.042786 59:0.616054 60:1.009548 61:-0.215059 62:-0.977397 63:-0.493455 64:0.082411 65:-1.202397 66:-0.653893 67:-0.859931 68:0.172153 69:0.348691 70:0.408529
-1 1:-0.596302 2:-0.939229 3:0.006277 4:-0.704165 5:-0.482162 6:0.580902 7:-0.521301 8:0.173808 9:-0.027827 10:-0.389106 11:-1.093457 12:-0.438578 13:-1.183582 14:0.554160 15:-2.793184 16:-0.233104 17:-1.124178 18:-3.293573 19:0.168201 20:0.689590 21:-1.106276 22:0.283207 23:0.681325 24:0.428438 25:1.735232 26:0.069174 27:0.097129 28:0.982002 29:0.175536 30:1.961625 31:-0.104130 32:0.075617 33:-0.982258 34:-0.047175 35:0.152738 36:1.278353 37:-1.879777 38:-0.611342 39:-1.013573 40:-0.146380 41:-0.139907 42:-0.014712 43:0.989046 44:-0.800772 45:0.058805 46:-1.240167 47:0.270468 48:-1.783959 49:-1.360386 50:-0.681305 51:1.092041 52:0.276227 53:-0.834419 54:1.110230 55:0.783741 56:-0.356536 57:2.122335 58:1.682284 59:1.184555 60:0.089916 61:-0.021543 62:0.705877 63:0.042407 64:0.917645 65:-0.469598 66:2.574968 67:0.879858 68:0.468439 69:0.077517 70:-1.315124
-1 1:0.437214 2:0.779881 3:1.130673 4:-0.538420 5:-1.933499 6:0.969254 7:0.724996 8:-0.616736 9:-0.657576 10:-0.269607 11:-0.222370 12:-0.205913 13:1.925093 14:0.445097 15:1.118205 16:0.965866 17:0.304048 18:-0.647449 19:0.106953 20:1.447553 21:-1.555357 22:0.686307 23:1.894292 24:1.102497 25:0.977035 26:2.194828 27:-2.622656 28:1.403609 29:1.908556 30:0.104376 31:-0.153321 32:0.082017 33:-1.009419 34:1.162089 35:-1.393307 36:-1.275134 37:-1.568336 38:-0.668059 39:-0.099574 40:0.056153 41:0.092451 42:-1.050911 43:-0.828192 44:0.461262 45:0.970858 46:0.041417 47:-1.331665 48:0.085892 49:0.431998 50:1.139902 51:-1.732613 52:-1.337685 53:0.147188 54:1.162509 55:1.958343 56:-0.064487 57:0.619995 58:-0.622772 59:0.024743 60:0.246121 61:-0.350683 62:-0.034874 63:-0.749468 64:1.901913 65:0.564278 66:-1.392170 67:0.394843 68:0.538392 69:-0.230837 70:0.391137
-1 1:-0.580607 2:-0.422960 3:-1.301540 4:0.310754 5:-0.637333 6:0.794949 7:0.890846 8:-1.371232 9:1.250540 10:-1.418999 11:-0.002738 12:-2.653401 13:-0.306778 14:0.490136 15:1.088562 16:1.957950 17:-0.072491 18:1.826284 19:-0.768988 20:-1.579180 21:-0.696368 22:-0.067985 23:0.143898 24:1.058061 25:0.091824 26:-0.319880 27:-0.755104 28:0.880234 29:-2.091342 30:-1.060544 31:-0.312573 32:-0.684616 33:-0.369882 34:0.154039 35:-1.143228 36:0.238502 37:-0.229703 38:-0.661868 39:0.141457 40:-0.264356 41:0.489846 42:-0.876853 43:0.103994 44:0.009409 45:0.230796 46:-0.999307 47:0.616624 48:-0.326184 49:-1.096127 50:1.527087 51:-1.070118 52:0.848280 53:-0.377513 54:-0.997697 55:0.295216 56:0.413582 57:1.722847 58:-0.422831 59:0.009019 60:-0.601581 61:1.401169 62:-0.346770 63:-1.169268 64:-0.043864 65:0.366112 66:0.216858 67:-1.784667 68:-0.455796 69:-1.215846 70:-0.489994
-1 1:-1.812787 2:1.059996 3:1.642825 4:0.041144 5:-0.843123 6:-0.255934 7:-0.846692 8:0.302471 9:-0.336445 10:-1.742305 11:0.403144 12:-0.543286 13:-0.567238 14:-0.102253 15:-0.839098 16:-0.971087 17:1.224709 18:1.763446 19:2.220236 20:1.075394 21:-1.218198 22:-0.425901 23:-1.095317 24:-0.491051 25:-1.740557 26:-0.156280 27:-0.064348 28:0.706864 29:-0.277810 30:0.673621 31:-0.319095 32:1.221976 33:-0.019197 34:1.056382 35:-0.191985 36:-0.564874 37:-0.466042 38:0.233143 39:-0.260098 40:0.287845 41:-0.085564 42:-0.939949 43:-0.415154 44:0.861239 45:1.328065 46:0.530210 47:-1.425254 48:1.457859 49:1.977382 50:-1.123048 51:-0.462114 52:-0.514116 53:-0.603669 54:1.520608 55:-0.481497 56:-1.000092 57:-1.545682 58:0.717954 59:-0.442904 60:0.883563 61:1.314003 62:2.179267 63:-0.469687 64:-0.862579 65:-1.055851 66:-0.015211 67:0.614590 68:0.961553 69:-0.631178 70:-1.457101
-1 1:0.308049 2:-0.435342 3:-0.220867 4:-1.549962 5:0.264297 6:1.373666 7:-1.728805 8:0.684919 9:-0.589504 10:0.448227 11:0.978289 12:0.819979 13:2.892759 14:0.784604 15:-1.430651 16:-0.630299 17:0.093998 18:1.115700 19:-0.558381 20:0.160071 21:-0.923348 22:-0.573972 23:2.294934 24:1.239707 25:0.500163 26:-1.808908 27:1.194475 28:2.022438 29:1.487731 30:0.349865 31:-1.204262 32:-0.787900 33:0.783123 34:-1.060635 35:0.594458 36:0.134107 37:-0.590384 38:-1.658877 39:-1.458460 40:-1.818121 41:-0.564850 42:0.836744 43:1.308926 44:0.366209 45:-0.365295 46:0.765740 47:-1.311116 48:0.197304 49:0.496422 50:-2.054666 51:-0.086793 52:0.096905 53:-0.149197 54:0.197239 55:-0.389099 56:1.422287 57:1.942076 58:0.109002 59:0.560536 60:-0.192693 61:0.217432 62:-0.106317 63:1.374142 64:-0.028401 65:-0.602326 66:1.444282 67:-2.365893 68:1.369886 69:1.043127 70:1.004914
-1 1:0.554054 2:-0.195670 3:-0.885016 4:0.446915 5:-0.685411 6:-0.757622 7:0.292542 8:1.907813 9:-0.199817 10:0.673354 11:1.202573 12:-0.051768 13:1.057769 14:-0.085627 15:-1.147205 16:-0.131893 17:1.061450 18:0.702003 19:-0.808042 20:-0.741861 21:0.315876 22:0.863020 23:-0.347031 24:-0.863189 25:1.023117 26:-0.100729 27:-0.196424 28:1.296927 29:-0.091460 30:-0.168164 31:-0.086149 32:-0.179324 33:-0.142482 34:-0.346199 35:0.005281 36:0.089476 37:0.600107 38:0.358657 39:0.988049 40:-0.871923 41:1.406244 42:-0.052884 43:0.058787 44:0.825176 45:1.078647 46:-0.074718 47:0.227539 48:0.827120 49:0.478051 50:1.759439 51:1.459677 52:-0.246843 53:0.915079 54:-0.366061 55:-0.799915 56:0.653092 57:1.057433 58:1.155777 59:0.144751 60:0.266291 61:-1.497515 62:-0.665633 63:1.005777 64:0.479795 65:-0.125491 66:1.540240 67:-0.422502 68:0.642543 69:-3.529713 70:0.359406
-1 1:-1.471179 2:0.943996 3:0.952714 4:0.861017 5:0.305143 6:0.302254 7:-0.299848 8:-0.022434 9:-0.861463 10:-1.215472 11:-0.755615 12:-0.396106 13:0.097437 14:-0.338003 15:-0.672999 16:-0.740030 17:-1.376880 18:-1.992619 19:-1.090181 20:2.395229 21:-0.604177 22:-0.266305 23:0.109743 24:-0.711164 25:-0.376910 26:-0.563515 27:-0.933981 28:0.729053 29:-0.730613 30:0.240044 31:0.992973 32:-0.556831 33:0.155289 34:-0.948099 35:-0.428040 36:-0.683598 37:-1.858823 38:-1.245543 39:-2.411818 40:-1.321366 41:-0.572454 42:-0.316226 43:0.245364 44:0.727624 45:-0.566995 46:0.240087 47:0.019677 48:-0.899257 49:0.157284 50:-0.015628 51:1.128781 52:-0.791695 53:-0.225716 54:2.348857 55:1.386737 56:0.908356 57:1.421589 58:0.245994 59:1.575762 60:-0.181865 61:-3.169415 62:-0.654999 63:-0.480475 64:1.293633 65:0.341511 66:-1.298230 67:-0.130142 68:0.509301 69:-0.181084 70:0.290217
-1 1:0.646232 2:0.029442 3:0.305342 4:-0.069953 5:0.300428 6:-0.060558 7:-0.570133 8:-1.318688 9:0.614512 10:-0.354065 11:-2.079826 12:-0.394723 13:0.423758 14:-0.868659 15:-0.500926 16:-0.272377 17:-2.687277 18:1.049778 19:1.633265 20:-1.052640 21:-1.192171 22:1.592989 23:-0.284658 24:-0.041622 25:0.690521 26:-2.323024 27:-0.406619 28:0.111735 29:-1.388219 30:-0.459686 31:-0.747099 32:-0.662459 33:0.214112 34:0.451995 35:0.154622 36:0.259839 37:-0.654673 38:-1.496175 39:1.716433 40:-0.684560 41:0.055964 42:-0.156272 43:-1.117222 44:1.298221 45:0.059596 46:-0.790144 47:0.039121 48:-1.365902 49:0.480957 50:0.753745 51:1.068382 52:-0.354022 53:0.402372 54:0.445540 55:-1.521885 56:0.844668 57:-0.116595 58:-1.783045 59:-0.713537 60:-0.844421 61:-1.105742 62:-0.898432 63:-0.131210 64:-0.841759 65:0.070592 66:1.011151 67:-0.284555 68:0.309017 69:-0.960485 70:1.338505
-1 1:-0.537630 2:0.115540 3:-0.439976 4:1.007535 5:1.379878 6:-0.122854 7:0.727859 8:0.638529 9:-0.993963 10:1.398416 11:0.649061 12:-0.562268 13:-0.589251 14:1.929934 15:-0.384539 16:1.739370 17:1.686667 18:-0.874464 19:0.677396 20:1.070170 21:1.616971 22:-0.632310 23:0.092973 24:-1.445746 25:0.223714 26:-1.112955 27:-1.215868 28:-0.895224 29:0.106864 30:-1.049071 31:-0.893887 32:-2.560046 33:0.592347 34:1.192082 35:-0.938183 36:-0.086015 37:-1.038447 38:-1.832219 39:0.308759 40:1.322966 41:0.624110 42:0.635333 43:0.115115 44:-1.468147 45:-0.367186 46:-0.801614 47:0.877640 48:-0.319657 49:1.350200 50:-1.561036 51:0.219868 52:-0.658827 53:0.708317 54:-0.852244 55:0.468006 56:0.539917 57:1.129600 58:-0.848884 59:0.140927 60:-1.006637 61:0.809537 62:2.213315 63:1.048381 64:0.816263 65:-2.267161 66:1.670323 67:0.692203 68:-0.645456 69:0.098023 70:0.956681
-1 1:-1.929388 2:0.373937 3:-0.274947 4:-1.603774 5:-1.840091 6:0.859305 7:-1.967401 8:-1.148009 9:-0.844221 10:-1.262312 11:-1.559701 12:1.532577 13:-0.257149 14:-1.393625 15:-1.244299 16:0.740002 17:1.038830 18:0.152626 19:0.360582 20:2.280180 21:0.963925 22:1.839066 23:-0.382043 24:-0.131303 25:-0.680932 26:-0.941974 27:1.575799 28:0.615074 29:2.518128 30:-1.357900 31:0.592535 32:-0.400554 33:-0.706763 34:1.623885 35:-0.957365 36:1.241513 37:0.931832 38:0.885773 39:-0.848670 40:1.166479 41:1.814867 42:1.292568 43:-1.852549 44:-0.565853 45:0.420849 46:-0.952548 47:0.565404 48:0.674222 49:1.048225 50:0.290836 51:2.014388 52:-0.060830 53:-0.228150 54:0.282620 55:-0.734189 56:0.081452 57:0.586783 58:-0.503752 59:-2.286227 60:1.366040 61:0.375728 62:-1.094636 63:-0.297179 64:1.483383 65:-1.474886 66:1.161578 67:1.630304 68:-1.147877 69:0.988762 70:0.724503
-1 1:-0.966907 2:0.290422 3:0.899812 4:0.050402 5:-0.801869 6:0.174950 7:0.940957 8:0.161372 9:0.082961 10:0.432372 11:0.766761 12:-0.133899 13:-0.724399 14:0.471387 15:0.137300 16:1.487704 17:0.085354 18:-3.172073 19:-1.147880 20:0.287714 21:-2.071319 22:0.757367 23:0.522328 24:2.147695 25:-1.710503 26:0.680532 27:-0.183373 28:-1.315313 29:-1.183966 30:-0.164878 31:-0.389632 32:-1.122208 33:-1.037095 34:0.861169 35:-0.075988 36:-0.586930 37:-2.363100 38:-0.783693 39:-1.781354 40:0.119065 41:-1.008432 42:-0.713302 43:-0.329284 44:-0.560326 45:1.664921 46:-2.237534 47:-0.899616 48:0.583421 49:1.087794 50:-1.613105 51:-0.089179 52:0.849515 53:0.842661 54:-0.141583 55:0.136998 56:0.261675 57:-0.950456 58:1.058014 59:-0.206285 60:-0.315535 61:0.779965 62:2.699061 63:0.494292 64:-0.176961 65:0.118675 66:-0.369037 67:-0.238662 68:-0.524213 69:-0.044161 70:0.190905
-1 1:0.936526 2:0.090575 3:-0.333736 4:2.163447 5:0.022289 6:2.272894 7:2.430014 8:1.820131 9:-1.202284 10:-0.948503 11:-1.090469 12:-2.161259 13:-0.702039 14:0.472999 15:-0.129221 16:0.979309 17:-1.765389 18:0.620258 19:1.055371 20:1.453061 21:-0.042012 22:0.026699 23:0.793060 24:0.475605 25:-0.595546 26:-1.079481 27:0.398321 28:0.049247 29:0.690436 30:-0.100186 31:-1.676693 32:-0.685578 33:-1.650570 34:-1.227329 35:1.229075 36:-0.443240 37:-0.215686 38:-1.469914 39:-0.581262 40:0.422398 41:-2.785948 42:0.524117 43:-1.317762 44:-0.933583 45:0.211782 46:1.244390 47:-1.581792 48:-0.827931 49:-1.042024 50:0.218503 51:-0.664232 52:-0.873438 53:-0.061298 54:0.028069 55:1.718576 56:-0.437012 57:-0.385425 58:1.209399 59:0.609119 60:0.968456 61:0.482186 62:0.751148 63:0.546435 64:-0.551678 65:-2.237746 66:-0.386577 67:1.047679 68:0.542361 69:0.583005 70:-3.048551
-1 1:1.615575 2:-1.356974 3:0.350713 4:-0.068774 5:0.356914 6:-0.433417 7:-1.127518 8:-0.729756 9:-1.630078 10:-0.130583 11:-0.014733 12:0.160535 13:1.066602 14:0.821996 15:1.442119 16:2.164422 17:-0.399469 18:0.438102 19:-0.363738 20:1.249716 21:-0.115415 22:0.241224 23:-0.554249 24:0.384041 25:0.591257 26:-1.638018 27:0.700456 28:0.414774 29:-1.211384 30:-0.093081 31:1.012447 32:0.700247 33:0.473632 34:0.556504 35:-0.060575 36:-0.668439 37:0.363251 38:0.811236 39:-1.803130 40:-0.239998 41:-1.138580 42:0.461296 43:0.099029 44:-0.716743 45:0.053056 46:0.226600 47:0.370911 48:-0.232573 49:-0.201809 50:-1.952646 51:0.943600 52:-1.138787 53:-0.817677 54:-0.979460 55:0.169626 56:-0.318767 57:1.217962 58:1.360996 59:-0.036433 60:0.545477 61:0.928352 62:0.198963 63:-0.496659 64:1.109574 65:-0.798057 66:-0.302226 67:-0.459223 68:0.491717 69:0.099130 70:0.610182
-1 1:-0.606441 2:0.282128 3:0.165268 4:0.848237 5:-0.727601 6:-0.434581 7:-0.218470 8:-0.010144 9:1.508299 10:-0.839473 11:0.010033 12:0.233444 13:0.649675 14:-1.962263 15:-0.334078 16:-0.354811 17:0.777324 18:-0.922346 19:0.695700 20:-0.409967 21:1.829591 22:-0.373779 23:1.214183 24:-0.686940 25:-0.775710 26:0.544902 27:0.790125 28:-0.117082 29:0.177899 30:-0.455976 31:0.806638 32:0.833255 33:0.959057 34:-0.174715 35:1.747724 36:0.681652 37:-0.046379 38:-0.962890 39:1.638376 40:0.678537 41:0.947015 42:0.363647 43:0.446083 44:-1.258684 45:0.724877 46:-0.843967 47:-1.126951 48:0.421112 49:1.422073 50:-0.724695 51:-0.161278 52:0.952830 53:-0.188775 54:-0.268288 55:0.047784 56:-0.816723 57:0.059508 58:-0.369076 59:-0.391183 60:0.725515 61:-1.043328 62:0.436935 63:0.169868 64:-1.173466 65:-0.811688 66:0.441594 67:0.963821 68:-1.146687 69:-0.987270 70:1.431062
-1 1:-0.015368 2:-1.275061 3:-1.627548 4:1.917966 5:1.110090 6:0.736055 7:-0.105123 8:0.041768 9:-0.047388 10:0.988240 11:0.176848 12:-0.628437 13:0.040876 14:1.611104 15:0.337890 16:0.364031 17:-0.998404 18:-0.597821 19:1.113501 20:2.439610 21:0.544362 22:-0.669890 23:-1.150910 24:1.305165 25:-0.229523 26:-0.343223 27:0.249171 28:1.223308 29:-0.823427 30:-0.324271 31:-0.848421 32:0.344151 33:-0.483653 34:1.614261 35:-0.310637 36:0.996186 37:1.822490 38:-1.159268 39:-0.217143 40:0.877916 41:-0.187275 42:0.951832 43:-1.019301 44:-0.954957 45:-0.530982 46:-2.305113 47:1.087535 48:0.060081 49:-1.288183 50:-0.635227 51:-0.702333 52:-0.026264 53:-0.105358 54:-0.677555 55:-0.061619 56:-1.186600 57:-0.890582 58:-0.169618 59:1.688976 60:1.510632 61:0.836000 62:0.714512 63:2.078842 64:-0.754184 65:-0.934309 66:-0.685413 67:0.605799 68:-2.316007 69:-0.964734 70:-0.151408
-1 1:0.350234 2:0.945995 3:0.575765 4:0.451624 5:-0.425759 6:0.165160 7:0.440307 8:-0.332945 9:-1.083166 10:0.180507 11:0.535679 12:0.372713 13:0.739880 14:0.140489 15:0.943434 16:0.975732 17:0.471238 18:1.218023 19:1.621408 20:0.233914 21:-1.268795 22:-0.260533 23:1.851531 24:0.165372 25:-0.725624 26:0.673252 27:0.257730 28:1.622723 29:0.316265 30:-1.355134 31:1.491823 32:-2.324160 33:0.013113 34:1.083662 35:0.991634 36:-0.522926 37:-1.546391 38:1.529633 39:0.431465 40:0.033440 41:2.035200 42:-1.155082 43:0.050438 44:1.212032 45:1.007720 46:-0.610319 47:-0.690726 48:1.319519 49:0.780571 50:1.473609 51:-1.047388 52:-0.138095 53:0.227707 54:0.822768 55:-0.747704 56:-0.589649 57:-0.612435 58:0.115473 59:0.773006 60:-1.262027 61:1.703443 62:0.956834 63:0.090282 64:-0.507419 65:-2.443943 66:0.800125 67:2.241388 68:1.461045 69:0.012669 70:0.402518
-1 1:1.165192 2:-0.782130 3:-1.338033 4:0.761053 5:0.093870 6:1.682752 7:0.684610 8:-0.687250 9:1.166125 10:-0.798812 11:0.795523 12:1.641212 13:1.194530 14:0.344939 15:1.152140 16:0.250465 17:0.327238 18:-1.256424 19:1.241036 20:-1.972445 21:-0.417210 22:1.387958 23:-0.556251 24:0.267846 25:0.113793 26:-0.514609 27:0.093990 28:0.512429 29:-0.961876 30:-0.294972 31:-0.943671 32:0.378146 33:-0.743325 34:-1.129759 35:0.865764 36:0.355725 37:-0.379852 38:0.368514 39:1.793198 40:1.335233 41:0.707364 42:1.218121 43:-0.558863 44:0.239729 45:0.404398 46:-1.618192 47:-1.538596 48:1.120272 49:-2.252322 50:0.037017 51:-0.373074 52:1.558624 53:-1.007048 54:0.424611 55:1.357956 56:0.092596 57:0.047217 58:-0.882664 59:-0.472744 60:-0.371765 61:0.070890 62:1.113438 63:0.673097 64:-0.682924 65:1.432001 66:0.204485 67:-0.411148 68:-0.767671 69:0.397574 70:-0.989529
-1 1:-1.307727 2:0.469922 3:0.070277 4:1.315471 5:-0.038536 6:1.634631 7:2.707127 8:-0.519157 9:-0.567970 10:0.145139 11:0.165018 12:-0.327942 13:-0.071956 14:1.265721 15:-0.220442 16:-0.574322 17:0.001007 18:-0.155696 19:0.330084 20:-0.038243 21:0.352481 22:0.830362 23:-0.386955 24:-0.422510 25:-0.827243 26:1.278817 27:0.307436 28:1.836926 29:0.883865 30:-1.816855 31:1.057571 32:-1.341473 33:-0.505691 34:-0.603536 35:-0.003206 36:0.437237 37:0.904892 38:-0.988643 39:-0.780997 40:-1.048555 41:-0.474520 42:-0.845266 43:0.447984 44:0.886051 45:-0.177229 46:-0.228452 47:0.201077 48:-0.071271 49:0.188520 50:-0.907863 51:0.536547 52:0.337076 53:-0.419845 54:-0.273230 55:1.248520 56:-0.358177 57:0.049587 58:-2.542780 59:-1.109689 60:1.207043 61:-1.406650 62:-1.268216 63:-0.055861 64:1.282272 65:-0.288857 66:-1.332957 67:-0.841358 68:0.878432 69:0.236543 70:1.326760
-1 1:1.919886 2:-0.757561 3:-1.747013 4:-0.782663 5:-0.165519 6:-0.196298 7:0.372263 8:-0.244671 9:-0.292632 10:-0.811698 11:1.378391 12:-0.730416 13:-1.669912 14:0.474482 15:0.621269 16:-2.221121 17:-1.077450 18:1.488355 19:0.646137 20:-0.851320 21:-0.233862 22:-0.417812 23:0.508339 24:0.084806 25:-0.150346 26:-0.765629 27:0.809287 28:-1.113087 29:-1.076863 30:0.331245 31:-0.203843 32:-0.495413 33:0.129753 34:0.054599 35:-1.611960 36:-0.773588 37:-0.867804 38:0.055509 39:0.953064 40:-0.329044 41:-0.250932 42:-0.384800 43:-0.358525 44:0.489393 45:1.123552 46:-1.796329 47:-1.201013 48:-0.445979 49:1.341998 50:-0.173978 51:-0.493941 52:0.184252 53:-0.416234 54:0.148526 55:-0.753644 56:-0.153000 57:-0.123942 58:-1.473150 59:1.360209 60:-0.789520 61:-1.173153 62:-2.151912 63:-0.328005 64:0.354149 65:-0.257978 66:0.371676 67:0.655489 68:-2.143469 69:1.552345 70:0.808414
-1 1:0.266269 2:-0.102386 3:1.568307 4:1.099381 5:-1.336888 6:0.904001 7:1.015001 8:-1.454079 9:-0.489491 10:-1.061491 11:0.509859 12:0.867163 13:0.697713 14:-1.008982 15:-0.599488 16:1.613088 17:-0.636728 18:-0.513980 19:1.103511 20:-0.628513 21:0.718750 22:0.200056 23:-0.261655 24:-1.084498 25:-0.357485 26:1.467307 27:0.311589 28:1.170504 29:-1.187054 30:-1.721551 31:1.238153 32:-2.180218 33:-0.363532 34:-1.656127 35:0.438113 36:0.432462 37:0.883119 38:0.461395 39:-0.208684 40:0.043456 41:0.449220 42:-0.977016 43:-1.499134 44:0.111742 45:-1.480306 46:1.283059 47:-0.254166 48:-0.881332 49:1.079386 50:-0.618758 51:0.163093 52:-0.278765 53:0.391989 54:0.612915 55:-0.957583 56:0.516313 57:1.268181 58:-1.383716 59:-0.123479 60:0.416379 61:-1.970223 62:-0.332577 63:0.086346 64:0.327399 65:-1.132356 66:-0.390801 67:0.410819 68:0.289498 69:-0.764566 70:0.431432
-1 1:-1.499503 2:1.872068 3:-0.479772 4:0.704219 5:-0.069114 6:-0.027455 7:3.266142 8:1.312086 9:-0.028485 10:0.871344 11:0.887518 12:0.285106 13:-0.300510 14:0.123247 15:-0.874918 16:-0.888462 17:-1.766237 18:-0.097543 19:0.382231 20:0.026017 21:-0.978116 22:0.754745 23:-0.707695 24:-1.875725 25:0.246368 26:1.389553 27:0.442993 28:1.131536 29:-1.103585 30:-0.708253 31:-0.635065 32:-0.776580 33:-0.067120 34:0.256549 35:0.070100 36:0.801679 37:0.289228 38:0.238761 39:-0.075468 40:-1.010682 41:-0.560694 42:-0.223295 43:-1.146805 44:-0.136348 45:0.094093 46:-0.153689 47:1.538248 48:-0.054510 49:0.644261 50:-0.024053 51:0.319833 52:0.017467 53:-0.974989 54:-0.869021 55:-0.266350 56:-0.299061 57:0.593862 58:0.243432 59:-2.097319 60:-1.070422 61:0.141636 62:-1.500560 63:-0.351954 64:-0.155906 65:-1.060627 66:-0.770478 67:-2.450240 68:-1.629566 69:1.737693 70:-0.628088
-1 1:-0.868290 2:-0.298473 3:-1.502879 4:1.177956 5:-1.005035 6:1.194580 7:-1.084529 8:-0.486123 9:-0.230090 10:-0.359649 11:1.044575 12:0.314564 13:-0.060975 14:-2.137537 15:1.044274 16:-0.989514 17:-0.758111 18:1.710121 19:-0.715162 20:-0.432145 21:0.324870 22:0.307032 23:0.558773 24:-0.658271 25:1.715361 26:-0.845021 27:-0.457174 28:1.837827 29:-1.326714 30:0.583062 31:-0.328023 32:1.749661 33:0.766859 34:0.028460 35:-0.279473 36:-0.360218 37:1.397470 38:-0.423173 39:0.232362 40:-1.656401 41:0.850967 42:0.323290 43:0.876340 44:-1.880184 45:-1.572961 46:0.469883 47:0.981813 48:0.669542 49:0.853602 50:-2.221816 51:-1.514459 52:0.249179 53:-0.307402 54:-1.556718 55:1.709461 56:1.266240 57:-0.361314 58:0.539804 59:-0.446897 60:0.643442 61:-2.360429 62:1.226587 63:-1.156848 64:-1.416726 65:0.032451 66:0.659424 67:-0.127214 68:1.725347 69:-0.749249 70:0.407016
-1 1:0.487185 2:1.985902 3:0.452561 4:-0.868662 5:0.226391 6:-1.265062 7:0.050515 8:1.435629 9:-0.004027 10:0.963960 11:-1.818477 12:-1.938507 13:-1.650582 14:-0.077185 15:0.503733 16:0.541006 17:0.712512 18:0.489668 19:0.475354 20:0.458101 21:-1.082047 22:1.719992 23:0.000194 24:-0.278223 25:1.681173 26:-0.724210 27:-0.041599 28:1.288471 29:-0.031902 30:0.516340 31:-0.699156 32:0.021255 33:0.578437 34:0.840126 35:1.036075 36:-1.011585 37:-0.686736 38:-0.446054 39:-0.921090 40:2.469842 41:-1.178278 42:0.989930 43:-0.245073 44:0.213047 45:-0.478214 46:-0.857567 47:-0.006663 48:-0.372323 49:0.934154 50:-1.425647 51:-1.552569 52:-0.511085 53:1.172017 54:-1.230291 55:-1.094511 56:0.220043 57:-1.312629 58:-0.462107 59:1.586516 60:0.568652 61:0.515064 62:0.012276 63:-0.430401 64:-0.867596 65:0.095889 66:-2.019939 67:1.797023 68:-0.392536 69:0.305292 70:0.712707
-1 1:-0.501533 2:0.386606 3:1.186439 4:0.973860 5:-0.276156 6:-0.228642 7:-0.997174 8:0.986224 9:-0.274843 10:1.406972 11:0.479880 12:-1.224620 13:0.827383 14:1.234593 15:-1.568513 16:0.745546 17:0.116102 18:0.110514 19:0.048883 20:-1.990932 21:1.233526 22:-0.152751 23:0.490740 24:1.180248 25:-1.011158 26:0.192609 27:-0.812376 28:-2.250813 29:1.554387 30:0.467660 31:-0.240271 32:0.126894 33:0.599390 34:0.123412 35:0.462737 36:-0.115836 37:2.080719 38:0.662963 39:-0.050181 40:-0.461978 41:-0.776230 42:0.363679 43:-0.785621 44:0.097254 45:1.047612 46:-0.686576 47:1.766001 48:0.648323 49:0.548127 50:-1.132005 51:-0.083193 52:-0.263934 53:-0.662121 54:1.662236 55:1.146349 56:1.064910 57:-0.836161 58:-0.192968 59:0.615759 60:0.614976 61:-0.237682 62:0.116259 63:-0.174307 64:-1.443119 65:1.541247 66:0.774708 67:-1.473435 68:0.867592 69:-0.302871 70:-0.144639
-1 1:-2.050410 2:0.055046 3:0.204891 4:-0.414755 5:0.849391 6:0.778799 7:0.611784 8:1.000582 9:-0.010481 10:-1.260228 11:-1.293117 12:1.633717 13:2.608352 14:-0.334345 15:0.559659 16:0.955759 17:0.942352 18:0.598730 19:2.437632 20:-0.240681 21:0.863133 22:0.832857 23:-1.706151 24:-1.021757 25:0.820868 26:0.925326 27:-0.153818 28:-0.006642 29:0.951204 30:1.585356 31:-1.144966 32:-0.231497 33:-1.144346 34:-2.750935 35:-0.856572 36:0.610528 37:-1.103560 38:0.645974 39:0.167005 40:1.140176 41:0.114123 42:-0.834753 43:-0.077638 44:-0.532112 45:-0.127748 46:-0.617987 47:0.297864 48:-0.549797 49:-0.919829 50:-0.288701 51:1.712879 52:-1.624049 53:-1.760290 54:-1.347703 55:0.372167 56:-0.373557 57:0.900483 58:1.156155 59:-0.898534 60:0.517085 61:0.873725 62:1.127885 63:-0.477651 64:-1.669340 65:1.186887 66:-2.877119 67:-1.403861 68:0.164188 69:-0.402706 70:-0.417541
-1 1:0.613672 2:1.031212 3:0.116056 4:-1.491941 5:-0.458602 6:-1.513334 7:0.401241 8:0.080010 9:-0.260245 10:-0.345648 11:-0.539636 12:-2.011523 13:0.584695 14:-0.974852 15:0.623451 16:-0.512685 17:-0.035880 18:0.648284 19:0.415802 20:-1.066938 21:-0.253575 22:-0.199538 23:-0.513979 24:0.394781 25:-0.420966 26:0.657165 27:-0.507814 28:-1.148225 29:0.474075 30:1.231718 31:-0.089698 32:-0.705842 33:0.634960 34:-0.372992 35:-1.557585 36:0.282129 37:-1.659663 38:-1.955015 39:-0.614163 40:-1.062124 41:1.011120 42:1.851716 43:0.842798 44:1.084210 45:-0.755461 46:-1.210315 47:-1.659280 48:-0.753447 49:0.998754 50:-0.092148 51:0.378626 52:0.411315 53:0.419318 54:1.249637 55:1.323251 56:-2.097491 57:0.199903 58:-0.922915 59:0.546245 60:2.610668 61:-0.566457 62:1.256059 63:0.416033 64:-1.133730 65:-0.450201 66:-1.371655 67:-0.600036 68:-1.084136 69:-1.529812 70:1.683288
-1 1:-0.859037 2:0.452808 3:0.919150 4:1.144731 5:1.088182 6:-0.392791 7:-1.330369 8:0.572944 9:0.530347 10:2.090174 11:1.122864 12:0.737153 13:1.517962 14:-0.796235 15:-0.331646 16:-2.284043 17:-0.362161 18:0.120886 19:-0.375955 20:1.152708 21:-1.013633 22:-0.529198 23:-1.161259 24:0.011341 25:-0.066808 26:0.124332 27:2.516304 28:-0.560833 29:0.155886 30:0.404377 31:0.176871 32:-0.325151 33:-0.384152 34:-0.157672 35:0.084830 36:-0.599429 37:0.791334 38:0.688077 39:-0.500455 40:-0.655956 41:0.916769 42:0.657448 43:1.585496 44:-1.367046 45:0.238147 46:-0.354354 47:-1.188341 48:-0.319561 49:-1.505642 50:0.852605 51:-0.493610 52:-0.677718 53:0.761362 54:-0.115764 55:-0.135569 56:1.110210 57:-0.382815 58:-0.475558 59:2.109463 60:-0.929299 61:-1.205400 62:-0.544964 63:0.006010 64:-0.348358 65:1.618395 66:-0.562257 67:0.662117 68:0.169542 69:-1.736308 70:-0.324793
-1 1:-0.991556 2:-1.143938 3:0.704844 4:-0.584516 5:1.099529 6:1.066172 7:0.877757 8:-0.033399 9:0.526791 10:-0.076908 11:1.197772 12:1.190401 13:-0.213518 14:-0.957241 15:-1.530323 16:-0.630214 17:-1.651175 18:0.203392 19:-1.074985 20:2.013950 21:-1.823121 22:1.008459 23:2.000588 24:-1.422853 25:-1.469330 26:-0.925204 27:-1.939939 28:0.635362 29:0.710716 30:-1.197299 31:-0.190149 32:0.813017 33:-0.955649 34:-0.320244 35:-1.109568 36:-1.050983 37:0.378166 38:-1.498540 39:-0.256985 40:-0.402684 41:0.197355 42:-0.357238 43:1.643720 44:0.077812 45:1.957877 46:0.691782 47:-0.872380 48:1.334366 49:-0.657018 50:1.170893 51:0.760058 52:0.957738 53:0.015797 54:-0.241309 55:-0.481014 56:-0.018097 57:-1.598256 58:0.283656 59:1.813478 60:-0.738028 61:-0.400222 62:-1.269200 63:-1.374089 64:-1.479190 65:0.373507 66:0.584444 67:-0.524028 68:-0.484377 69:1.334904 70:0.418511
-1 1:0.850835 2:0.776817 3:-0.230172 4:3.361577 5:0.465340 6:-0.351246 7:-0.383684 8:-1.215194 9:-0.182843 10:1.591466 11:-0.263093 12:-1.930313 13:-1.540894 14:1.431046 15:-0.626184 16:-0.409033 17:-0.615265 18:0.184674 19:-0.688835 20:-0.990873 21:-0.995267 22:-1.143933 23:1.814867 24:0.124131 25:-0.182216 26:-1.863350 27:1.359074 28:-1.814663 29:1.345903 30:-0.071871 31:0.157575 32:0.307766 33:1.028736 34:1.082200 35:0.352995 36:-0.714176 37:-0.686285 38:0.088406 39:0.548124 40:-0.322507 41:-0.824425 42:0.311083 43:-0.488937 44:-2.811462 45:-0.071347 46:0.376547 47:-0.198793 48:0.440081 49:-1.786168 50:0.235442 51:2.504969 52:2.241316 53:0.477907 54:1.167756 55:-1.277383 56:-0.336257 57:-0.233320 58:0.212364 59:-0.958783 60:-0.912196 61:0.845700 62:-0.815537 63:-1.445505 64:1.540182 65:-0.345083 66:1.229338 67:0.642015 68:1.217401 69:1.493200 70:0.407091
-1 1:-1.715372 2:-0.535297 3:0.062202 4:-0.000701 5:0.985729 6:1.345102 7:-1.209386 8:-0.154537 9:1.061145 10:0.553438 11:0.354578 12:0.935084 13:0.770670 14:-0.089210 15:-0.859074 16:-0.235426 17:-0.604703 18:0.294386 19:0.384967 20:1.777476 21:-0.648363 22:-1.177272 23:-0.922857 24:-0.903620 25:-1.291900 26:1.235243 27:-0.925396 28:-0.052678 29:-0.933275 30:1.290165 31:-0.925896 32:1.229025 33:0.486535 34:0.377384 35:-0.707942 36:1.533077 37:-0.747301 38:-0.213931 39:1.096201 40:-2.397468 41:-0.538103 42:-0.006446 43:-1.071594 44:-0.299113 45:-0.663418 46:-1.335171 47:0.077749 48:1.285752 49:0.907803 50:1.934039 51:0.830919 52:0.157276 53:0.667448 54:0.056225 55:-0.577659 56:-0.898188 57:1.470097 58:0.443562 59:0.360386 60:-2.145089 61:-0.865318 62:0.498361 63:-1.292517 64:0.158237 65:0.595950 66:1.564824 67:-0.507554 68:-1.790270 69:0.761109 70:-1.455095
-1 1:1.082169 2:0.220209 3:-1.191192 4:-0.414730 5:-0.969804 6:-1.243365 7:2.439553 8:1.496590 9:1.073840 10:1.489336 11:0.271534 12:0.474799 13:1.188064 14:1.850658 15:-0.268667 16:0.130930 17:-1.543513 18:0.738327 19:0.295668 20:-0.101689 21:-0.063590 22:-1.311430 23:1.479522 24:-1.234523 25:-0.872894 26:-0.485062 27:-0.413876 28:-1.199970 29:1.597245 30:-0.129598 31:-0.981997 32:-0.537731 33:0.284649 34:1.784248 35:-1.836066 36:-1.710968 37:-1.517581 38:-0.897777 39:-0.167664 40:0.315487 41:-0.482891 42:1.106399 43:0.594803 44:0.694260 45:-3.137062 46:-0.628900 47:0.548592 48:-0.842702 49:0.521877 50:-0.185156 51:1.110338 52:0.178068 53:-0.487387 54:0.565978 55:-0.478669 56:0.070724 57:0.098557 58:-1.562113 59:-0.060270 60:-0.641978 61:-0.770239 62:0.632208 63:-1.188029 64:0.520895 65:0.653913 66:-1.500029 67:0.084167 68:0.472876 69:-1.259387 70:-0.515818
-1 1:-0.499084 2:-0.481221 3:-0.354765 4:-0.061295 5:-0.063665 6:0.979458 7:-1.279290 8:0.012056 9:-1.372826 10:-0.655159 11:1.132558 12:-0.343985 13:-0.675120 14:-1.043882 15:-0.525856 16:0.357876 17:-0.369768 18:-0.982490 19:-0.143048 20:-0.710427 21:0.072549 22:-1.808259 23:0.360939 24:-0.487505 25:-0.386812 26:-0.067562 27:-0.636192 28:-0.680767 29:1.633427 30:0.120030 31:0.169725 32:0.239870 33:0.670967 34:0.246285 35:0.745474 36:-2.030353 37:-0.448103 38:1.259520 39:-0.692648 40:0.933718 41:-0.366074 42:-0.511105 43:0.160730 44:2.216903 45:-0.136278 46:0.647868 47:-1.034296 48:0.615099 49:-1.278933 50:2.239372 51:-0.477242 52:0.252945 53:-0.196610 54:0.890720 55:-1.086304 56:1.284616 57:-0.795577 58:-0.585342 59:0.051809 60:-0.976700 61:-1.126946 62:0.038425 63:-0.176328 64:0.318800 65:0.951377 66:1.023214 67:1.311166 68:-0.296052 69:0.170632 70:-0.368342
-1 1:0.101384 2:0.433789 3:0.306630 4:0.572669 5:-0.810954 6:0.122614 7:0.149908 8:0.072676 9:-0.769360 10:-1.938730 11:1.392436 12:1.179544 13:0.712711 14:-0.651437 15:-1.402575 16:-0.166629 17:0.738421 18:0.601491 19:0.532571 20:-1.020791 21:-0.826405 22:0.183760 23:-1.824990 24:0.428680 25:-0.182756 26:-0.055400 27:-0.662061 28:-0.734683 29:-0.307654 30:1.639816 31:0.058739 32:-1.684752 33:-0.519292 34:1.534995 35:1.087524 36:-1.711158 37:0.834826 38:0.691699 39:-0.969379 40:-1.297350 41:-0.402480 42:0.291760 43:0.746058 44:-1.231220 45:1.230494 46:-1.484971 47:-0.705416 48:0.359695 49:-0.338097 50:0.080140 51:-1.265737 52:0.467483 53:-0.405856 54:-0.132127 55:1.185851 56:0.632087 57:0.589644 58:-0.313702 59:-1.462970 60:0.244245 61:1.807537 62:-0.498998 63:-0.185403 64:0.968497 65:-0.069407 66:0.877859 67:-0.923603 68:0.566949 69:1.560190 70:2.575353
-1 1:-0.379376 2:1.871188 3:0.172237 4:-0.661715 5:-0.826228 6:-1.366431 7:0.436326 8:0.394731 9:1.352655 10:-1.003375 11:0.101891 12:0.473918 13:-1.161285 14:0.944571 15:-0.162174 16:-0.212627 17:0.739967 18:-0.582889 19:-0.206875 20:-1.529655 21:-0.317514 22:1.630863 23:-0.771598 24:0.891450 25:-1.511625 26:-0.388340 27:0.308564 28:-0.152988 29:1.935498 30:-0.602347 31:-2.306621 32:-1.257997 33:-0.072776 34:-0.641327 35:1.042798 36:-0.824500 37:0.281705 38:0.551351 39:-1.500164 40:-1.139961 41:-2.123494 42:0.235869 43:-0.514068 44:1.354515 45:1.636146 46:0.128643 47:-1.865757 48:-0.246220 49:-0.470760 50:-2.026601 51:0.490253 52:0.759250 53:-0.456722 54:0.214482 55:0.278056 56:-0.277873 57:0.366559 58:-0.924610 59:-0.752825 60:-0.920281 61:0.436497 62:0.967640 63:0.677643 64:-0.107524 65:0.889036 66:-0.198073 67:-1.958112 68:1.382246 69:1.313407 70:1.403124
-1 1:1.997735 2:0.237637 3:-1.039148 4:-0.012810 5:-0.741621 6:0.673496 7:1.722853 8:-0.278766 9:2.092223 10:0.520742 11:0.124675 12:0.965713 13:1.307188 14:-0.030144 15:0.177238 16:1.289161 17:0.436052 18:-0.283744 19:1.027155 20:1.248930 21:-0.620343 22:0.033815 23:-0.081929 24:-1.492574 25:0.051704 26:-0.248504 27:0.281870 28:-0.474435 29:0.666808 30:-0.127969 31:0.508350 32:0.805138 33:0.094320 34:-0.898703 35:-1.788495 36:0.339628 37:0.001748 38:-2.391880 39:-0.534792 40:-0.895389 41:-0.772035 42:0.054622 43:0.092641 44:1.081173 45:0.228194 46:-0.632705 47:-0.416734 48:0.872487 49:-0.331741 50:0.035684 51:-0.742525 52:-0.101081 53:3.157305 54:0.378598 55:-0.698573 56:-0.597421 57:1.490119 58:1.439451 59:1.101929 60:1.087047 61:-0.288072 62:-0.021045 63:-0.437092 64:0.579803 65:-0.052178 66:-0.370276 67:-0.380574 68:1.023222 69:-0.856049 70:-1.961401
-1 1:-0.380620 2:0.488380 3:-0.516223 4:-0.437741 5:-0.437990 6:1.127392 7:-0.190099 8:1.342783 9:-1.359072 10:-0.037074 11:0.272408 12:-1.226793 13:1.041074 14:0.465991 15:-1.339741 16:0.194077 17:-1.614016 18:-1.573730 19:1.057123 20:0.367370 21:-0.268254 22:0.335861 23:-1.020446 24:0.144353 25:0.886363 26:0.327445 27:0.827120 28:0.356043 29:1.441676 30:0.063219 31:0.855985 32:-0.666412 33:0.165246 34:1.079622 35:-1.160473 36:-2.418047 37:-0.442164 38:0.868689 39:0.279156 40:-0.421990 41:0.566602 42:1.856633 43:-1.260464 44:-1.218838 45:-1.385713 46:-0.106872 47:-0.778156 48:-0.368333 49:-1.129548 50:2.672001 51:1.917918 52:-0.354146 53:0.048474 54:-0.528101 55:1.548382 56:-1.887359 57:-0.555316 58:0.711198 59:1.468281 60:-1.128202 61:0.700543 62:-0.591471 63:-0.046890 64:0.635359 65:-0.900842 66:1.696084 67:-1.132844 68:-0.123230 69:0.587765 70:0.539467
-1 1:0.896573 2:0.839051 3:-1.498815 4:-0.868883 5:0.002608 6:0.058664 7:0.073066 8:0.192028 9:-0.748914 10:1.021332 11:-0.500853 12:0.185273 13:-1.515050 14:-1.019269 15:-0.553170 16:-1.220755 17:1.726992 18:0.897917 19:-0.825051 20:0.466559 21:0.260619 22:0.158221 23:0.509625 24:2.337229 25:0.643028 26:-1.041942 27:-0.263310 28:-0.637667 29:-0.463712 30:-0.082924 31:0.808543 32:0.389269 33:1.087859 34:-0.359289 35:0.416931 36:-0.248311 37:0.564283 38:0.526376 39:-0.671691 40:-0.268247 41:0.553990 42:-1.231522 43:0.054523 44:-0.074085 45:-0.294445 46:-0.180468 47:2.303061 48:0.185390 49:-1.983966 50:-0.514469 51:0.137095 52:-0.633553 53:-0.786302 54:0.239387 55:-1.333131 56:-2.288123 57:0.122962 58:-1.354744 59:-0.193325 60:2.182750 61:2.485814 62:-0.035857 63:0.714865 64:0.710320 65:0.431462 66:-0.497549 67:-1.158620 68:0.227095 69:-0.702388 70:-0.234611
-1 1:-0.362696 2:-0.601236 3:0.256486 4:-0.622201 5:-0.475194 6:0.578252 7:2.078470 8:1.496252 9:0.706723 10:-1.310536 11:-0.989818 12:1.605581 13:-0.418583 14:-0.297845 15:-0.148518 16:0.724034 17:0.605218 18:1.402669 19:-0.237381 20:-0.526675 21:-0.732276 22:0.124087 23:-1.080755 24:0.681873 25:-1.545098 26:-2.464927 27:-0.269507 28:0.005013 29:0.927931 30:1.215379 31:0.537761 32:-0.262185 33:-0.851566 34:0.867553 35:-1.012715 36:-0.495615 37:-0.270420 38:1.741442 39:-0.612512 40:0.470983 41:-1.336350 42:2.887697 43:-1.517674 44:2.039447 45:-0.871880 46:-0.533169 47:0.238234 48:-1.049589 49:-1.520235 50:0.617043 51:-1.163698 52:0.513371 53:-1.131373 54:-1.987763 55:0.383373 56:-1.273396 57:1.022483 58:-0.908458 59:-0.052656 60:0.349442 61:-0.515007 62:0.818967 63:-0.309260 64:0.630007 65:0.779915 66:1.326499 67:0.765378 68:1.249175 69:0.208468 70:0.594970
-1 1:-0.477558 2:1.000240 3:0.778367 4:-1.568573 5:-0.060874 6:1.425000 7:0.368329 8:1.937100 9:0.850481 10:2.247617 11:1.126583 12:-1.272147 13:0.818723 14:-1.062439 15:-0.485769 16:0.391305 17:-1.400849 18:0.342949 19:-1.915932 20:-0.270306 21:-1.523033 22:1.459400 23:1.747706 24:1.432141 25:-0.768376 26:-1.139067 27:-3.281186 28:-0.062721 29:0.259519 30:-1.068493 31:-0.196495 32:1.230621 33:-0.698812 34:0.544454 35:-1.855861 36:0.572200 37:0.214563 38:-0.877436 39:0.727503 40:-0.525606 41:0.958686 42:-0.419859 43:-1.533996 44:-0.098601 45:-1.614573 46:-0.571216 47:-0.337309 48:-0.504716 49:-0.382145 50:-0.113972 51:1.421148 52:-1.323498 53:-0.420901 54:-0.658478 55:-0.006972 56:-0.307986 57:0.006968 58:0.039274 59:-0.772025 60:-0.007408 61:-0.753560 62:-1.863572 63:-0.432786 64:1.802173 65:-0.483914 66:-0.934286 67:0.033047 68:-2.095034 69:1.162846 70:-2.109561
-1 1:1.554577 2:0.264004 3:0.701168 4:0.640280 5:1.145990 6:0.537958 7:-1.108815 8:0.378184 9:-0.873228 10:-2.179848 11:-0.334232 12:0.369215 13:-2.247857 14:0.052715 15:-0.816683 16:-0.213685 17:-0.200793 18:-0.266395 19:0.722758 20:0.735811 21:-0.699794 22:-0.435913 23:-0.932932 24:-1.664299 25:-1.975992 26:-1.874860 27:0.916426 28:-1.595951 29:0.139732 30:-0.081455 31:0.620272 32:1.520757 33:0.953001 34:-0.279782 35:0.683460 36:-0.735667 37:-0.628509 38:0.684281 39:0.382353 40:-0.403165 41:0.184262 42:0.146882 43:-0.802336 44:0.689569 45:0.735917 46:0.079377 47:-1.487599 48:-0.664893 49:1.865608 50:0.225534 51:0.966739 52:-0.791644 53:-0.320136 54:0.267341 55:-0.721926 56:-0.729471 57:1.803169 58:0.455917 59:-1.003622 60:0.143236 61:1.482235 62:0.872953 63:-1.129566 64:-1.447781 65:0.278931 66:0.286092 67:1.385915 68:0.403248 69:-0.186520 70:0.297105
-1 1:2.449110 2:-0.359747 3:-0.339615 4:0.527801 5:-0.107389 6:1.040307 7:0.410548 8:-0.521895 9:-1.169025 10:-1.352519 11:-0.176217 12:-0.195599 13:0.948763 14:0.361047 15:-0.715095 16:0.175592 17:-1.121400 18:-1.029158 19:-0.804171 20:-0.187801 21:1.376643 22:-2.678328 23:-2.079183 24:-0.731414 25:-0.424559 26:1.199905 27:-0.141398 28:0.633401 29:1.019405 30:0.105778 31:0.151378 32:0.276407 33:1.082274 34:0.970774 35:-1.481665 36:-0.177534 37:-0.833168 38:-1.556522 39:-0.204065 40:-1.527304 41:-0.695443 42:-0.416135 43:0.312629 44:1.693280 45:-1.739613 46:-0.345644 47:-2.111275 48:2.470635 49:-0.509712 50:-0.400743 51:-0.493963 52:1.716095 53:-1.321002 54:-0.141043 55:-1.416604 56:-0.058104 57:-1.610533 58:1.080912 59:0.553483 60:-1.366248 61:0.823653 62:-0.720040 63:-0.254813 64:0.323278 65:-0.333559 66:-0.473071 67:-0.173451 68:0.795992 69:0.992438 70:0.588106
-1 1:-0.315113 2:0.597471 3:-0.224148 4:1.666637 5:-1.746941 6:-0.310644 7:-1.348969 8:1.389399 9:0.246213 10:-1.964869 11:1.354523 12:-0.387681 13:-0.800630 14:0.908341 15:0.772364 16:-0.933374 17:0.963213 18:0.143708 19:-0.839957 20:1.828594 21:-0.720772 22:-1.808356 23:-0.279569 24:-0.828269 25:-0.989900 26:0.420962 27:0.271824 28:-0.533925 29:-0.643344 30:-0.819335 31:0.257760 32:-0.106001 33:-2.620221 34:0.108459 35:0.478999 36:0.147303 37:-0.705543 38:-0.466676 39:-0.607091 40:0.322437 41:0.969021 42:0.530456 43:1.239262 44:1.044689 45:1.489926 46:-0.292771 47:-0.833280 48:-0.778739 49:-1.009209 50:0.004238 51:-1.712564 52:-0.452558 53:1.459809 54:0.293377 55:-0.434813 56:1.414043 57:0.022257 58:0.695048 59:-0.369328 60:-0.218224 61:0.582723 62:-0.878090 63:-0.473160 64:0.377107 65:1.395280 66:-0.369743 67:0.198618 68:0.473140 69:-0.662656 70:1.407740
-1 1:-0.276151 2:0.350576 3:1.773082 4:-0.464982 5:-0.230745 6:0.161285 7:0.614367 8:-0.726913 9:-0.394964 10:-0.372026 11:-1.105788 12:1.114488 13:0.507303 14:-0.259474 15:0.144886 16:-0.616968 17:-1.300263 18:-0.301145 19:0.066860 20:1.190152 21:0.163533 22:1.301683 23:0.102351 24:-0.672273 25:-1.111372 26:-0.928911 27:1.392451 28:2.343694 29:0.799635 30:-0.029473 31:0.754135 32:-0.543701 33:1.601168 34:-0.832283 35:-1.519907 36:1.422630 37:1.325976 38:-2.998744 39:-0.911615 40:-2.174204 41:-0.079975 42:-0.938176 43:-1.394846 44:-0.478268 45:-0.835875 46:-0.431547 47:-0.621548 48:-1.201262 49:-0.069477 50:0.757527 51:1.031167 52:1.080968 53:-0.167527 54:-0.635497 55:-1.291506 56:0.432336 57:-0.585281 58:-0.086525 59:1.838828 60:-1.584064 61:-0.788670 62:0.539499 63:-0.878788 64:-0.900957 65:-1.617795 66:0.218294 67:0.519019 68:-1.046148 69:-1.483006 70:0.409982
-1 1:-0.902518 2:-0.554062 3:-0.767926 4:-0.646553 5:-0.931510 6:-1.069502 7:1.515486 8:-1.329969 9:0.927239 10:-0.102244 11:0.649449 12:-0.320497 13:-1.049781 14:0.898587 15:0.211688 16:0.872295 17:-1.151041 18:-1.725611 19:-0.227242 20:-1.127905 21:1.717428 22:0.586881 23:0.667292 24:-0.456685 25:0.048977 26:0.140500 27:0.889722 28:-1.204372 29:-0.882656 30:0.272750 31:0.760592 32:2.354030 33:1.972809 34:-0.588720 35:1.856826 36:-1.640532 37:-0.626337 38:-1.054411 39:-0.730974 40:0.394032 41:-1.273669 42:-0.608600 43:0.687383 44:2.266694 45:-1.633529 46:0.845453 47:-2.320170 48:1.254471 49:0.099132 50:-1.367156 51:-0.407610 52:1.024378 53:0.439241 54:-1.858134 55:0.096969 56:-1.077315 57:-0.206855 58:1.072248 59:0.416253 60:-1.283101 61:0.253210 62:-1.402126 63:1.417591 64:-0.587437 65:1.144045 66:1.003568 67:0.461357 68:-1.643719 69:-0.436836 70:-0.957627
-1 1:0.299872 2:1.718423 3:0.226345 4:-0.611233 5:0.389460 6:0.912788 7:0.164119 8:0.343392 9:-0.274996 10:0.113002 11:-0.004850 12:0.676761 13:0.384982 14:0.936836 15:2.265931 16:-0.824568 17:1.614923 18:-0.106969 19:-1.116421 20:1.837844 21:0.073669 22:0.497660 23:0.871109 24:-0.016543 25:2.104133 26:-1.834871 27:0.069614 28:0.887467 29:-0.028856 30:0.682676 31:1.685988 32:0.573554 33:0.668779 34:0.835011 35:0.497876 36:-1.243773 37:1.836970 38:0.929745 39:-1.347964 40:0.827657 41:1.017672 42:1.003280 43:-0.047127 44:-1.171336 45:-1.056987 46:-0.073359 47:0.907536 48:-1.133649 49:0.885062 50:-0.870059 51:0.564974 52:-1.706625 53:-0.726041 54:0.150855 55:-0.887718 56:-0.403833 57:0.547441 58:2.001143 59:-0.292672 60:0.377651 61:-1.567549 62:0.593197 63:1.489488 64:-0.484516 65:-0.576008 66:-0.423018 67:-0.620791 68:0.372770 69:1.003066 70:0.529284
-1 1:2.019060 2:1.536180 3:-1.158339 4:-0.525846 5:0.152324 6:-1.048081 7:-0.391741 8:1.170421 9:0.128744 10:-0.609568 11:0.907972 12:0.557563 13:1.718125 14:-0.148674 15:0.767234 16:-1.127584 17:1.289550 18:0.862457 19:-0.444775 20:1.215757 21:0.252332 22:-1.742312 23:0.227429 24:0.869484 25:0.579654 26:1.724072 27:-0.266863 28:-0.006490 29:0.771356 30:0.112138 31:-0.041421 32:-0.260847 33:-0.650050 34:-1.555450 35:1.982861 36:-0.270955 37:0.637964 38:0.581485 39:0.127476 40:1.311257 41:-0.197079 42:1.084014 43:2.623876 44:-1.013079 45:0.140816 46:-0.916703 47:0.513493 48:1.763518 49:-0.353320 50:1.108932 51:0.872682 52:0.996558 53:0.741668 54:-1.161396 55:-0.039878 56:0.327163 57:1.443384 58:-0.485877 59:-0.517635 60:1.611458 61:-0.589501 62:-1.090240 63:-0.233129 64:0.401466 65:1.302609 66:0.976985 67:-0.374589 68:-0.315702 69:0.875244 70:2.291971
-1 1:0.995470 2:-1.330085 3:-0.036714 4:1.055863 5:0.373944 6:-0.555277 7:-0.229081 8:-0.998971 9:-1.454439 10:0.298078 11:-1.176358 12:-0.003566 13:-0.071175 14:0.151170 15:-0.049143 16:0.272816 17:0.998911 18:1.013449 19:-0.688748 20:0.015948 21:-1.704092 22:-0.219695 23:2.039735 24:-1.163462 25:-0.438195 26:1.732357 27:0.681526 28:1.640566 29:1.269015 30:0.185132 31:0.398108 32:-0.682432 33:-1.329832 34:1.146380 35:-0.682156 36:0.410176 37:-1.004108 38:0.869374 39:-0.760902 40:-0.443150 41:0.404293 42:-0.328081 43:-2.634623 44:-0.115133 45:-1.412767 46:-1.078247 47:-1.004968 48:-1.407430 49:-0.942202 50:-0.711410 51:-1.415362 52:-0.331308 53:-0.667296 54:-0.861631 55:1.213266 56:-0.783018 57:-0.887007 58:0.840781 59:0.727488 60:-0.699054 61:0.672364 62:-0.589120 63:-0.955971 64:0.100563 65:-0.824652 66:-0.078573 67:1.479730 68:-0.180837 69:-0.335268 70:0.465221
1 1:-0.035410 2:-0.009885 3:0.000340 4:-0.005469 5:0.027363 6:0.025542 7:-0.010126 8:-0.057504 9:-0.112817 10:0.012174 11:-0.031047 12:-0.052685 13:-0.018041 14:-0.005145 15:-0.088264 16:-0.076027 17:-0.028652 18:-0.046082 19:-0.049626 20:-0.040290 21:-0.065722 22:-0.097338 23:0.004253 24:-0.045565 25:-0.062369 26:-0.081162 27:-0.106404 28:-0.061972 29:-0.088085 30:-0.108010 31:-0.080795 32:-0.030856 33:-0.091890 34:-0.140385 35:-0.156762 36:-0.116219 37:-0.111951 38:-0.082574 39:-0.049997 40:-0.126079 41:-0.103778 42:-0.125337 43:-0.136096 44:-0.106515 45:-0.206945 46:-0.191313 47:-0.129863 48:-0.139828 49:-0.144880 50:-0.129691 51:-0.132471 52:-0.083153 53:-0.150076 54:-0.127921 55:-0.128817 56:-0.153653 57:-0.181852 58:-0.171921 59:-0.155942 60:-0.197702 61:-0.137533 62:-0.181210 63:-0.164028 64:-0.185404 65:-0.200167 66:-0.211527 67:-0.213452 68:-0.157817 69:-0.181357 70:-0.207464
1 1:0.020700 2:-0.024443 3:0.022327 4:0.009056 5:-0.034463 6:-0.012188 7:-0.081275 8:-0.059461 9:-0.034574 10:-0.056455 11:-0.021276 12:-0.014446 13:0.003678 14:-0.081975 15:-0.023124 16:0.010300 17:-0.014271 18:-0.061884 19:-0.014958 20:-0.052747 21:-0.060966 22:-0.070347 23:-0.017899 24:-0.066990 25:-0.078865 26:-0.072443 27:-0.034748 28:-0.052416 29:-0.078466 30:-0.054763 31:-0.132871 32:-0.104367 33:-0.088830 34:-0.164604 35:-0.122728 36:-0.062983 37:-0.101571 38:-0.175335 39:-0.093163 40:-0.143102 41:-0.120046 42:-0.154356 43:-0.078468 44:-0.136878 45:-0.068364 46:-0.163753 47:-0.126774 48:-0.157273 49:-0.164235 50:-0.127222 51:-0.116728 52:-0.147731 53:-0.182757 54:-0.248821 55:-0.160024 56:-0.166010 57:-0.132726 58:-0.148149 59:-0.171648 60:-0.092757 61:-0.154329 62:-0.147338 63:-0.213317 64:-0.143544 65:-0.211930 66:-0.161567 67:-0.190526 68:-0.189609 69:-0.212423 70:-0.190937
1 1:0.015705 2:0.013255 3:0.018820 4:-0.036095 5:-0.008301 6:-0.028896 7:-0.028357 8:-0.004983 9:-0.037289 10:-0.020952 11:-0.048223 12:0.052312 13:-0.025462 14:-0.026280 15:-0.048361 16:-0.043322 17:-0.015244 18:-0.099164 19:-0.073287 20:-0.053171 21:-0.066456 22:-0.053035 23:-0.083318 24:-0.076666 25:-0.058160 26:-0.118007 27:-0.040359 28:-0.095959 29:-0.104352 30:-0.086391 31:-0.022241 32:-0.132470 33:-0.063907 34:-0.071055 35:-0.124971 36:-0.065325 37:-0.106379 38:-0.049133 39:-0.106879 40:-0.093139 41:-0.142042 42:-0.040895 43:-0.118797 44:-0.095919 45:-0.108524 46:-0.086593 47:-0.128717 48:-0.153864 49:-0.184654 50:-0.156987 51:-0.103962 52:-0.160133 53:-0.138390 54:-0.199231 55:-0.176217 56:-0.185861 57:-0.132503 58:-0.158929 59:-0.175707 60:-0.138009 61:-0.112795 62:-0.198486 63:-0.134271 64:-0.228174 65:-0.138409 66:-0.166296 67:-0.229478 68:-0.270459 69:-0.189903 70:-0.264761
1 1:-0.057251 2:0.045269 3:0.033886 4:-0.008001 5:0.007544 6:0.000205 7:0.013606 8:0.024097 9:-0.046568 10:-0.052989 11:-0.001152 12:-0.048498 13:-0.032415 14:-0.068654 15:-0.071156 16:-0.072714 17:-0.031942 18:-0.022040 19:-0.075040 20:-0.070344 21:-0.054106 22:-0.089388 23:-0.063728 24:-0.081006 25:-0.043894 26:-0.096739 27:-0.112559 28:-0.062423 29:-0.048721 30:-0.064709 31:-0.116608 32:-0.101819 33:-0.069594 34:-0.088092 35:-0.088549 36:-0.124033 37:-0.110469 38:-0.114038 39:-0.037622 40:-0.074909 41:-0.069443 42:-0.129362 43:-0.148578 44:-0.121823 45:-0.131972 46:-0.127493 47:-0.147555 48:-0.162539 49:-0.157042 50:-0.129660 51:-0.175437 52:-0.130793 53:-0.202695 54:-0.203454 55:-0.164638 56:-0.123994 57:-0.162353 58:-0.158355 59:-0.128325 60:-0.114033 61:-0.166350 62:-0.137072 63:-0.136700 64:-0.203619 65:-0.203068 66:-0.148484 67:-0.204740 68:-0.179365 69:-0.256964 70:-0.252100
1 1:-0.013858 2:0.017439 3:0.012486 4:-0.048063 5:-0.031228 6:0.018321 7:0.032124 8:0.015459 9:0.011053 10:0.001981 11:-0.088384 12:-0.044784 13:-0.012004 14:-0.062286 15:-0.036136 16:-0.023787 17:-0.054964 18:-0.062800 19:-0.069018 20:-0.049673 21:-0.055857 22:-0.070542 23:-0.089120 24:-0.072031 25:-0.110415 26:-0.080813 27:-0.086359 28:-0.101431 29:-0.099126 30:-0.034167 31:-0.082823 32:-0.127115 33:-0.069264 34:-0.131065 35:-0.081840 36:-0.128333 37:-0.084398 38:-0.080679 39:-0.118991 40:-0.123318 41:-0.110268 42:-0.103828 43:-0.074545 44:-0.139370 45:-0.088231 46:-0.166524 47:-0.158031 48:-0.106528 49:-0.104334 50:-0.171689 51:-0.119430 52:-0.200423 53:-0.131738 54:-0.192956 55:-0.184802 56:-0.151849 57:-0.224437 58:-0.157098 59:-0.167629 60:-0.149334 61:-0.197580 62:-0.172113 63:-0.153434 64:-0.130723 65:-0.122949 66:-0.220165 67:-0.188508 68:-0.161281 69:-0.225454 70:-0.217982
1 1:-0.000287 2:-0.024463 3:0.007323 4:0.007082 5:0.029957 6:0.007278 7:0.004295 8:-0.042907 9:-0.020847 10:-0.031692 11:-0.051608 12:-0.062044 13:-0.043380 14:-0.060080 15:-0.032224 16:-0.072336 17:-0.090005 18:-0.079361 19:-0.023337 20:-0.053288 21:-0.083042 22:-0.112446 23:-0.030505 24:-0.112569 25:-0.070795 26:-0.101823 27:-0.002363 28:-0.097770 29:-0.132977 30:-0.114668 31:-0.084853 32:-0.088252 33:-0.061516 34:-0.124511 35:-0.084327 36:-0.036329 37:-0.128039 38:-0.115200 39:-0.119542 40:-0.130806 41:-0.064727 42:-0.040775 43:-0.081863 44:-0.176324 45:-0.139494 46:-0.124763 47:-0.170375 48:-0.135997 49:-0.145602 50:-0.107124 51:-0.195337 52:-0.140746 53:-0.152807 54:-0.138581 55:-0.168234 56:-0.195687 57:-0.156755 58:-0.181251 59:-0.198111 60:-0.186885 61:-0.139432 62:-0.224310 63:-0.150151 64:-0.174003 65:-0.143078 66:-0.163204 67:-0.197801 68:-0.170323 69:-0.185481 70:-0.191037
1 1:-0.028468 2:-0.028432 3:0.017828 4:0.016914 5:-0.036809 6:-0.035780 7:-0.000553 8:-0.048898 9:0.008393 10:-0.022801 11:0.009238 12:-0.076484 13:-0.040483 14:-0.054816 15:-0.060335 16:-0.069881 17:-0.065142 18:-0.022853 19:-0.075650 20:-0.050368 21:0.001290 22:-0.128563 23:-0.072935 24:-0.039131 25:-0.034892 26:-0.051977 27:-0.033695 28:-0.095667 29:-0.104906 30:-0.114332 31:-0.119127 32:-0.030488 33:-0.092445 34:-0.118053 35:-0.116544 36:-0.105715 37:-0.054289 38:-0.065126 39:-0.165771 40:-0.075444 41:-0.123679 42:-0.142072 43:-0.099662 44:-0.064747 45:-0.138903 46:-0.185567 47:-0.111661 48:-0.106912 49:-0.158253 50:-0.112373 51:-0.125541 52:-0.126444 53:-0.112393 54:-0.189842 55:-0.132088 56:-0.198850 57:-0.176008 58:-0.203372 59:-0.213409 60:-0.158795 61:-0.193211 62:-0.211462 63:-0.135444 64:-0.169880 65:-0.211765 66:-0.186810 67:-0.210638 68:-0.154747 69:-0.222947 70:-0.152379
1 1:-0.020988 2:0.008640 3:-0.009223 4:-0.010894 5:-0.042248 6:0.015270 7:0.017178 8:-0.058727 9:0.010728 10:-0.078201 11:-0.088424 12:0.007826 13:-0.026259 14:-0.029413 15:-0.084169 16:-0.006891 17:-0.059359 18:0.004616 19:-0.028084 20:-0.054143 21:-0.104489 22:-0.041973 23:-0.034856 24:-0.049511 25:-0.072845 26:-0.128181 27:-0.073994 28:-0.034604 29:-0.133964 30:-0.055019 31:-0.019174 32:-0.121674 33:-0.106905 34:-0.081245 35:-0.078255 36:-0.118482 37:-0.116643 38:-0.115705 39:-0.131589 40:-0.103279 41:-0.060660 42:-0.112506 43:-0.136752 44:-0.140310 45:-0.105079 46:-0.105475 47:-0.136619 48:-0.143736 49:-0.080001 50:-0.213591 51:-0.181784 52:-0.141291 53:-0.120979 54:-0.159632 55:-0.133240 56:-0.172835 57:-0.191106 58:-0.157882 59:-0.164872 60:-0.184458 61:-0.174067 62:-0.184967 63:-0.193252 64:-0.219649 65:-0.138262 66:-0.187186 67:-0.161736 68:-0.201412 69:-0.198643 70:-0.217486
1 1:0.013826 2:-0.024819 3:0.029101 4:0.022996 5:-0.013647 6:-0.013922 7:0.001787 8:-0.045096 9:-0.062067 10:-0.070204 11:-0.080371 12:-0.026282 13:-0.049336 14:0.020866 15:-0.038068 16:-0.082013 17:-0.052594 18:-0.042080 19:-0.089168 20:-0.045297 21:-0.046798 22:-0.077442 23:-0.095788 24:-0.054293 25:-0.043610 26:-0.087282 27:-0.091263 28:-0.090833 29:-0.097303 30:-0.113870 31:-0.141232 32:-0.111420 33:-0.027206 34:-0.112716 35:-0.088672 36:-0.034776 37:-0.098755 38:-0.040074 39:-0.122185 40:-0.071167 41:-0.092313 42:-0.124178 43:-0.124685 44:-0.096687 45:-0.155508 46:-0.110544 47:-0.130406 48:-0.131223 49:-0.182018 50:-0.175404 51:-0.112280 52:-0.119810 53:-0.139233 54:-0.151084 55:-0.166551 56:-0.177051 57:-0.165870 58:-0.169076 59:-0.170221 60:-0.163493 61:-0.182259 62:-0.204794 63:-0.205772 64:-0.148347 65:-0.138752 66:-0.192141 67:-0.202590 68:-0.203117 69:-0.214189 70:-0.227002
1 1:0.020739 2:-0.041395 3:-0.050318 4:-0.048719 5:-0.037773 6:-0.029341 7:-0.046567 8:-0.039169 9:-0.024106 10:0.015247 11:-0.038959 12:-0.024527 13:-0.027963 14:0.001720 15:-0.058082 16:-0.035553 17:-0.044746 18:-0.073089 19:-0.061687 20:-0.065966 21:-0.093070 22:-0.030712 23:-0.027872 24:-0.048379 25:-0.062793 26:-0.058042 27:-0.023251 28:-0.089539 29:-0.030888 30:-0.080379 31:-0.137033 32:-0.123087 33:-0.090859 34:-0.099146 35:-0.137771 36:-0.081260 37:-0.103895 38:-0.084125 39:-0.116757 40:-0.040624 41:-0.136094 42:-0.113783 43:-0.139872 44:-0.131063 45:-0.081479 46:-0.143634 47:-0.146271 48:-0.136333 49:-0.174596 50:-0.099913 51:-0.135801 52:-0.126468 53:-0.174820 54:-0.165272 55:-0.159576 56:-0.173636 57:-0.148500 58:-0.146417 59:-0.212898 60:-0.150917 61:-0.216601 62:-0.203826 63:-0.197939 64:-0.200787 65:-0.154546 66:-0.196067 67:-0.167631 68:-0.237558 69:-0.105832 70:-0.234269
1 1:-0.002276 2:-0.015490 3:-0.044582 4:-0.015738 5:-0.031560 6:-0.032031 7:-0.011567 8:-0.018240 9:-0.045424 10:-0.056217 11:-0.033464 12:-0.056672 13:-0.016205 14:-0.024409 15:-0.101927 16:-0.053680 17:0.010023 18:-0.049214 19:-0.070792 20:-0.018856 21:-0.080393 22:-0.041677 23:-0.095246 24:-0.055435 25:-0.085991 26:-0.077150 27:-0.071026 28:-0.108406 29:-0.105609 30:-0.109310 31:-0.143014 32:-0.082156 33:-0.091808 34:-0.063980 35:-0.087275 36:-0.059650 37:-0.114896 38:-0.080423 39:-0.058311 40:-0.150484 41:-0.116739 42:-0.146529 43:-0.100231 44:-0.182520 45:-0.154977 46:-0.122822 47:-0.087141 48:-0.104496 49:-0.130820 50:-0.126108 51:-0.160080 52:-0.179095 53:-0.145145 54:-0.104927 55:-0.164095 56:-0.193943 57:-0.139699 58:-0.133146 59:-0.133909 60:-0.206811 61:-0.190442 62:-0.164076 63:-0.201140 64:-0.224143 65:-0.160090 66:-0.160414 67:-0.176578 68:-0.174675 69:-0.221951 70:-0.235999
1 1:0.002367 2:0.034848 3:-0.019140 4:0.016554 5:-0.029381 6:-0.018733 7:-0.044003 8:-0.022450 9:0.019127 10:-0.040789 11:-0.045137 12:-0.025997 13:-0.023805 14:-0.022303 15:-0.005795 16:-0.013848 17:-0.071472 18:-0.045590 19:-0.080561 20:-0.107339 21:-0.042322 22:-0.002266 23:-0.063124 24:-0.063177 25:-0.046866 26:-0.057392 27:-0.054550 28:-0.129411 29:-0.107284 30:-0.055836 31:-0.123007 32:-0.095426 33:-0.103828 34:-0.089537 35:-0.070585 36:-0.067697 37:-0.118380 38:-0.063767 39:-0.077829 40:-0.101426 41:-0.160872 42:-0.153673 43:-0.136300 44:-0.076578 45:-0.112758 46:-0.153007 47:-0.134267 48:-0.124760 49:-0.114458 50:-0.164490 51:-0.153273 52:-0.155764 53:-0.080676 54:-0.168301 55:-0.157624 56:-0.168381 57:-0.145783 58:-0.207302 59:-0.195714 60:-0.216437 61:-0.201141 62:-0.186697 63:-0.190810 64:-0.156962 65:-0.159867 66:-0.201537 67:-0.177748 68:-0.204846 69:-0.228313 70:-0.171542
1 1:0.036814 2:-0.023840 3:-0.053760 4:0.019357 5:0.015156 6:-0.045899 7:-0.020674 8:-0.036400 9:-0.053674 10:-0.001889 11:-0.046504 12:-0.052402 13:0.023670 14:-0.040195 15:-0.066486 16:-0.039777 17:-0.069886 18:-0.024553 19:-0.080855 20:-0.078548 21:-0.080204 22:-0.028900 23:-0.113527 24:-0.075589 25:-0.078594 26:-0.110473 27:-0.060084 28:-0.038569 29:-0.076398 30:-0.096649 31:-0.099779 32:-0.142721 33:-0.052193 34:-0.107186 35:-0.122552 36:-0.107095 37:-0.094054 38:-0.060808 39:-0.110353 40:-0.105712 41:-0.136527 42:-0.126917 43:-0.139691 44:-0.121014 45:-0.145999 46:-0.164196 47:-0.115404 48:-0.148054 49:-0.152458 50:-0.191428 51:-0.147668 52:-0.113003 53:-0.112559 54:-0.152206 55:-0.176098 56:-0.099888 57:-0.163851 58:-0.151737 59:-0.190874 60:-0.166327 61:-0.186719 62:-0.159170 63:-0.168576 64:-0.197555 65:-0.185052 66:-0.171399 67:-0.161888 68:-0.147183 69:-0.240925 70:-0.224161
1 1:-0.008480 2:0.041262 3:0.015624 4:-0.075216 5:-0.025520 6:-0.062059 7:-0.069691 8:-0.029236 9:0.003539 10:-0.000510 11:-0.062090 12:-0.009411 13:-0.040128 14:-0.046333 15:-0.036711 16:-0.038810 17:-0.042748 18:-0.058614 19:-0.028411 20:-0.084294 21:-0.077377 22:-0.093039 23:-0.022457 24:-0.031473 25:-0.046287 26:-0.034699 27:-0.077442 28:-0.088159 29:-0.079878 30:-0.137425 31:-0.041821 32:-0.098967 33:-0.117983 34:-0.067267 35:-0.094481 36:-0.148397 37:-0.072179 38:-0.098624 39:-0.105741 40:-0.127041 41:-0.125077 42:-0.161983 43:-0.122263 44:-0.147393 45:-0.122165 46:-0.182100 47:-0.121441 48:-0.143212 49:-0.127029 50:-0.189250 51:-0.168096 52:-0.164205 53:-0.188791 54:-0.101363 55:-0.219234 56:-0.140192 57:-0.135842 58:-0.110873 59:-0.100103 60:-0.166338 61:-0.151634 62:-0.204824 63:-0.159986 64:-0.216782 65:-0.186859 66:-0.209536 67:-0.192369 68:-0.199063 69:-0.172785 70:-0.150569
1 1:-0.003976 2:-0.034010 3:-0.019432 4:-0.059051 5:-0.007764 6:-0.025759 7:-0.063512 8:0.006469 9:-0.018834 10:0.011512 11:-0.046464 12:-0.056692 13:-0.015174 14:0.006545 15:-0.069435 16:-0.108698 17:-0.022556 18:-0.049549 19:-0.082677 20:-0.028919 21:-0.053677 22:-0.057646 23:-0.056975 24:-0.038776 25:-0.098795 26:-0.033285 27:-0.053657 28:-0.095143 29:-0.082058 30:-0.105374 31:-0.123619 32:-0.103872 33:-0.128727 34:-0.100108 35:-0.075881 36:-0.114135 37:-0.071137 38:-0.095756 39:-0.092166 40:-0.097241 41:-0.116260 42:-0.172809 43:-0.091147 44:-0.070918 45:-0.157081 46:-0.130689 47:-0.114988 48:-0.122947 49:-0.189179 50:-0.159590 51:-0.158654 52:-0.205010 53:-0.162458 54:-0.154255 55:-0.123678 56:-0.144498 57:-0.225544 58:-0.158926 59:-0.188324 60:-0.181018 61:-0.142245 62:-0.156959 63:-0.199726 64:-0.208296 65:-0.124673 66:-0.140725 67:-0.181180 68:-0.174525 69:-0.187453 70:-0.231583
1 1:0.030074 2:-0.024868 3:-0.008797 4:0.046411 5:-0.062407 6:-0.027027 7:0.012790 8:-0.004642 9:0.028394 10:-0.027510 11:-0.026309 12:-0.045500 13:-0.020684 14:0.053649 15:-0.074607 16:-0.094702 17:-0.075620 18:-0.047433 19:-0.021412 20:-0.062507 21:-0.061023 22:0.002871 23:-0.013378 24:-0.074406 25:-0.031067 26:-0.098839 27:-0.090135 28:-0.047091 29:-0.077051 30:-0.085671 31:-0.110961 32:-0.075956 33:-0.057660 34:-0.086251 35:-0.112551 36:-0.108177 37:-0.071649 38:-0.131102 39:-0.095903 40:-0.151510 41:-0.120306 42:-0.140766 43:-0.096557 44:-0.100341 45:-0.101741 46:-0.141258 47:-0.131220 48:-0.101903 49:-0.129914 50:-0.148134 51:-0.159181 52:-0.141561 53:-0.164219 54:-0.207685 55:-0.148517 56:-0.132969 57:-0.177095 58:-0.138609 59:-0.197682 60:-0.191828 61:-0.162815 62:-0.196366 63:-0.177678 64:-0.222323 65:-0.173633 66:-0.204202 67:-0.167459 68:-0.187420 69:-0.222298 70:-0.207053
1 1:-0.043212 2:-0.074705 3:-0.000096 4:-0.028783 5:0.028954 6:-0.085813 7:-0.031568 8:-0.008754 9:-0.020475 10:-0.006700 11:-0.003424 12:-0.012380 13:-0.041674 14:-0.057241 15:-0.062752 16:-0.048078 17:-0.077499 18:-0.006567 19:-0.004492 20:-0.080305 21:-0.048128 22:0.002960 23:-0.065755 24:-0.037537 25:-0.079907 26:-0.121792 27:-0.062230 28:-0.078019 29:-0.041941 30:-0.055796 31:-0.074557 32:-0.093670 33:-0.057175 34:-0.073101 35:-0.094628 36:-0.085982 37:-0.131053 38:-0.098724 39:-0.105149 40:-0.145909 41:-0.124217 42:-0.123053 43:-0.140695 44:-0.135106 45:-0.137147 46:-0.126573 47:-0.155701 48:-0.130069 49:-0.121585 50:-0.160350 51:-0.168763 52:-0.149256 53:-0.093117 54:-0.124336 55:-0.222585 56:-0.228010 57:-0.114796 58:-0.139744 59:-0.089873 60:-0.195086 61:-0.167814 62:-0.200756 63:-0.148597 64:-0.158266 65:-0.227391 66:-0.206850 67:-0.222824 68:-0.188514 69:-0.202663 70:-0.196604
1 1:-0.013143 2:0.020315 3:-0.025045 4:-0.005183 5:-0.058345 6:-0.033605 7:-0.034244 8:-0.004623 9:-0.059570 10:-0.008403 11:-0.043432 12:0.004251 13:-0.020875 14:-0.058579 15:-0.073177 16:0.016855 17:0.004550 18:-0.025151 19:-0.077689 20:-0.034233 21:-0.064193 22:-0.044192 23:-0.073397 24:-0.098408 25:-0.066492 26:-0.103718 27:-0.098601 28:-0.092002 29:-0.073531 30:-0.103287 31:-0.089595 32:-0.093074 33:-0.065641 34:-0.108635 35:-0.111312 36:-0.026775 37:-0.127320 38:-0.087059 39:-0.160151 40:-0.149147 41:-0.064794 42:-0.105768 43:-0.083629 44:-0.039445 45:-0.126313 46:-0.157620 47:-0.204654 48:-0.133667 49:-0.183764 50:-0.150878 51:-0.132383 52:-0.191723 53:-0.185614 54:-0.166257 55:-0.174244 56:-0.176636 57:-0.148577 58:-0.174319 59:-0.145731 60:-0.156150 61:-0.218046 62:-0.129589 63:-0.163308 64:-0.210761 65:-0.166206 66:-0.190657 67:-0.164722 68:-0.190719 69:-0.179458 70:-0.172667
1 1:-0.032362 2:-0.056742 3:-0.011895 4:-0.005847 5:-0.017046 6:0.011913 7:0.019887 8:-0.013476 9:-0.018431 10:-0.075402 11:-0.062846 12:0.007175 13:-0.037233 14:-0.048256 15:-0.006825 16:-0.040555 17:-0.055299 18:-0.054631 19:-0.054192 20:-0.028894 21:-0.075604 22:-0.096193 23:-0.049820 24:-0.051651 25:-0.083836 26:-0.050212 27:-0.039500 28:-0.125133 29:-0.067256 30:-0.068494 31:-0.102510 32:-0.106571 33:-0.146735 34:-0.098605 35:-0.098552 36:-0.104988 37:-0.118832 38:-0.096953 39:-0.054835 40:-0.139743 41:-0.081052 42:-0.091591 43:-0.140193 44:-0.165455 45:-0.089250 46:-0.104442 47:-0.162707 48:-0.154687 49:-0.145769 50:-0.180613 51:-0.178393 52:-0.155530 53:-0.130159 54:-0.148975 55:-0.153317 56:-0.192980 57:-0.185203 58:-0.131418 59:-0.188025 60:-0.148224 61:-0.204403 62:-0.163918 63:-0.207168 64:-0.192872 65:-0.162130 66:-0.175088 67:-0.187583 68:-0.223154 69:-0.173353 70:-0.150397
1 1:0.012136 2:-0.002562 3:0.022351 4:-0.003826 5:0.009611 6:-0.030626 7:-0.013118 8:0.009891 9:-0.049048 10:0.006260 11:-0.067174 12:-0.018855 13:-0.023846 14:0.012241 15:-0.039705 16:-0.089298 17:-0.028726 18:-0.056336 19:-0.045151 20:-0.046362 21:-0.048017 22:-0.026361 23:-0.076624 24:-0.056741 25:-0.098589 26:-0.021764 27:-0.111382 28:-0.085995 29:-0.044705 30:-0.088786 31:-0.106839 32:-0.105194 33:-0.123057 34:-0.086335 35:-0.064059 36:-0.105024 37:-0.074252 38:-0.104232 39:-0.109959 40:-0.126682 41:-0.053652 42:-0.092248 43:-0.133157 44:-0.144627 45:-0.156285 46:-0.174926 47:-0.130373 48:-0.126309 49:-0.139947 50:-0.149028 51:-0.123011 52:-0.225179 53:-0.088314 54:-0.074397 55:-0.250071 56:-0.181435 57:-0.210933 58:-0.142097 59:-0.193769 60:-0.169163 61:-0.182967 62:-0.164250 63:-0.154143 64:-0.177803 65:-0.190569 66:-0.186399 67:-0.208701 68:-0.151026 69:-0.198307 70:-0.194189
1 1:-0.011584 2:-0.004891 3:-0.024813 4:-0.031771 5:-0.051835 6:0.012432 7:-0.038504 8:-0.054433 9:-0.077115 10:-0.090373 11:-0.029497 12:-0.076607 13:-0.013761 14:-0.090670 15:-0.051618 16:0.022929 17:-0.025070 18:-0.034646 19:-0.006188 20:-0.029304 21:-0.031871 22:-0.075019 23:-0.010125 24:-0.053984 25:-0.103822 26:-0.076978 27:-0.097757 28:-0.097547 29:-0.104634 30:-0.133662 31:-0.058537 32:-0.105207 33:-0.095036 34:-0.121290 35:-0.105594 36:-0.042240 37:-0.114438 38:-0.141437 39:-0.145296 40:-0.082476 41:-0.170790 42:-0.088132 43:-0.073665 44:-0.054994 45:-0.085027 46:-0.132253 47:-0.134572 48:-0.132933 49:-0.142718 50:-0.128206 51:-0.164374 52:-0.188039 53:-0.119566 54:-0.174827 55:-0.141185 56:-0.142394 57:-0.144364 58:-0.154803 59:-0.217679 60:-0.150796 61:-0.245478 62:-0.187685 63:-0.152048 64:-0.201703 65:-0.231413 66:-0.156500 67:-0.194956 68:-0.176843 69:-0.156847 70:-0.181743
1 1:0.052620 2:0.017316 3:-0.018044 4:-0.010560 5:0.003514 6:0.023526 7:-0.048925 8:0.018070 9:-0.088644 10:0.011142 11:-0.018252 12:-0.048491 13:-0.021137 14:-0.012393 15:-0.037003 16:-0.088697 17:-0.086484 18:-0.063115 19:-0.041566 20:-0.050711 21:-0.053364 22:-0.070946 23:-0.076514 24:-0.078402 25:-0.083393 26:-0.067861 27:-0.063156 28:-0.055407 29:-0.064495 30:-0.061872 31:-0.111331 32:-0.118916 33:-0.094579 34:-0.095971 35:-0.034848 36:-0.095429 37:-0.109576 38:-0.144048 39:-0.113526 40:-0.118600 41:-0.065153 42:-0.167200 43:-0.141106 44:-0.139150 45:-0.142557 46:-0.084554 47:-0.105920 48:-0.173446 49:-0.150006 50:-0.122102 51:-0.112682 52:-0.176259 53:-0.156856 54:-0.150275 55:-0.167853 56:-0.165550 57:-0.176659 58:-0.148992 59:-0.115601 60:-0.192982 61:-0.211649 62:-0.166283 63:-0.191547 64:-0.228263 65:-0.155402 66:-0.173924 67:-0.203063 68:-0.225733 69:-0.177223 70:-0.168196
1 1:-0.003877 2:-0.031382 3:0.021575 4:0.049833 5:0.049734 6:-0.003798 7:-0.017075 8:-0.062596 9:-0.025197 10:-0.033195 11:-0.043579 12:-0.022699 13:-0.098941 14:-0.018003 15:-0.055360 16:-0.034381 17:-0.074514 18:-0.053379 19:-0.033973 20:-0.046706 21:-0.064784 22:-0.029818 23:-0.044741 24:-0.087697 25:-0.033075 26:-0.076316 27:-0.106283 28:-0.097701 29:-0.094583 30:-0.064733 31:-0.089056 32:-0.106470 33:-0.071176 34:-0.075838 35:-0.081170 36:-0.107500 37:-0.091744 38:-0.051737 39:-0.121375 40:-0.131958 41:-0.082559 42:-0.098442 43:-0.123682 44:-0.141513 45:-0.172400 46:-0.158543 47:-0.194229 48:-0.116078 49:-0.165629 50:-0.118820 51:-0.145800 52:-0.160745 53:-0.170295 54:-0.142561 55:-0.132003 56:-0.214501 57:-0.180137 58:-0.172831 59:-0.186140 60:-0.121512 61:-0.213628 62:-0.189374 63:-0.165468 64:-0.168194 65:-0.217732 66:-0.178607 67:-0.212853 68:-0.133150 69:-0.170076 70:-0.180274
1 1:0.018678 2:-0.037433 3:0.014861 4:-0.009519 5:0.021728 6:-0.036428 7:-0.022881 8:0.029026 9:0.020169 10:-0.060883 11:-0.058061 12:-0.045389 13:-0.056120 14:-0.053645 15:-0.040521 16:-0.040367 17:-0.080701 18:0.069913 19:-0.030586 20:-0.140881 21:-0.029550 22:-0.023730 23:-0.110769 24:-0.077346 25:-0.089613 26:-0.080542 27:-0.082890 28:-0.035716 29:-0.091415 30:-0.101021 31:-0.095790 32:-0.102462 33:-0.063497 34:-0.124303 35:-0.060833 36:-0.116770 37:-0.086695 38:-0.070188 39:-0.100651 40:-0.088670 41:-0.094381 42:-0.093768 43:-0.173792 44:-0.177880 45:-0.162925 46:-0.115454 47:-0.154342 48:-0.128097 49:-0.176340 50:-0.148965 51:-0.146350 52:-0.141803 53:-0.111727 54:-0.133320 55:-0.155030 56:-0.223537 57:-0.173403 58:-0.147918 59:-0.152797 60:-0.189926 61:-0.162877 62:-0.162272 63:-0.138407 64:-0.152716 65:-0.228497 66:-0.132088 67:-0.161018 68:-0.200190 69:-0.239505 70:-0.193521
1 1:0.031523 2:-0.016834 3:-0.043547 4:0.011336 5:-0.006001 6:0.004869 7:-0.069951 8:-0.035926 9:-0.012027 10:-0.033343 11:-0.093460 12:-0.076111 13:-0.066531 14:-0.057083 15:-0.054814 16:-0.027540 17:-0.068225 18:-0.060073 19:-0.088792 20:0.009885 21:-0.114466 22:-0.046734 23:-0.066151 24:-0.061489 25:-0.056637 26:-0.080306 27:-0.083156 28:-0.077072 29:-0.109307 30:-0.067357 31:-0.136038 32:-0.088844 33:-0.148516 34:-0.104762 35:-0.118554 36:-0.116122 37:-0.124010 38:-0.073537 39:-0.131261 40:-0.154909 41:-0.118362 42:-0.114197 43:-0.138407 44:-0.137957 45:-0.106197 46:-0.104571 47:-0.155685 48:-0.177315 49:-0.127473 50:-0.173140 51:-0.131845 52:-0.117823 53:-0.125686 54:-0.087256 55:-0.094894 56:-0.097900 57:-0.160079 58:-0.149911 59:-0.146212 60:-0.140915 61:-0.205442 62:-0.205021 63:-0.176414 64:-0.191780 65:-0.185859 66:-0.208557 67:-0.204498 68:-0.224766 69:-0.177135 70:-0.172341
1 1:-0.052569 2:-0.042340 3:-0.034262 4:-0.000664 5:-0.021341 6:0.005622 7:0.050575 8:-0.026460 9:-0.004820 10:-0.011755 11:-0.029687 12:-0.054219 13:0.002096 14:0.025372 15:-0.013375 16:-0.081126 17:-0.026841 18:-0.094610 19:-0.048803 20:-0.068557 21:-0.107417 22:-0.088390 23:-0.056871 24:-0.058469 25:-0.030872 26:-0.066248 27:-0.072266 28:-0.072411 29:-0.079611 30:-0.082652 31:-0.126782 32:-0.122596 33:-0.080783 34:-0.107372 35:-0.050781 36:-0.114079 37:-0.117790 38:-0.085200 39:-0.134923 40:-0.136539 41:-0.078179 42:-0.135337 43:-0.120148 44:-0.098160 45:-0.123076 46:-0.095922 47:-0.151240 48:-0.183235 49:-0.170749 50:-0.117232 51:-0.166121 52:-0.202228 53:-0.143222 54:-0.161851 55:-0.183836 56:-0.132381 57:-0.130604 58:-0.177214 59:-0.138419 60:-0.160761 61:-0.168468 62:-0.134490 63:-0.176363 64:-0.203372 65:-0.141674 66:-0.149927 67:-0.231198 68:-0.190703 69:-0.213864 70:-0.235467
1 1:0.004360 2:0.013288 3:-0.014016 4:-0.004486 5:-0.007206 6:0.017634 7:-0.027485 8:-0.013513 9:-0.064557 10:-0.001954 11:-0.005713 12:-0.071461 13:-0.067430 14:-0.046875 15:-0.065219 16:-0.037681 17:-0.036275 18:-0.087755 19:-0.083395 20:-0.024765 21:-0.028092 22:-0.039507 23:-0.068588 24:-0.038375 25:-0.119736 26:-0.129110 27:-0.077618 28:-0.154211 29:-0.079810 30:-0.035706 31:-0.061041 32:-0.127070 33:-0.144929 34:-0.066101 35:-0.078447 36:-0.153100 37:-0.114629 38:-0.112583 39:-0.140080 40:-0.124940 41:-0.101481 42:-0.097589 43:-0.142311 44:-0.111466 45:-0.104976 46:-0.120376 47:-0.153916 48:-0.134449 49:-0.107914 50:-0.159308 51:-0.149449 52:-0.188570 53:-0.158062 54:-0.090016 55:-0.173460 56:-0.152435 57:-0.175043 58:-0.164171 59:-0.160322 60:-0.142959 61:-0.160557 62:-0.172497 63:-0.185743 64:-0.173975 65:-0.160104 66:-0.136903 67:-0.222721 68:-0.161061 69:-0.190313 70:-0.256563
1 1:-0.001289 2:-0.002659 3:0.005262 4:0.029957 5:-0.037830 6:-0.039997 7:-0.016815 8:0.017649 9:-0.043244 10:-0.016800 11:-0.030557 12:-0.025049 13:-0.063453 14:-0.031034 15:-0.020708 16:-0.072255 17:0.006228 18:-0.035636 19:-0.030763 20:-0.007303 21:-0.044229 22:-0.078235 23:-0.050402 24:-0.069495 25:-0.058803 26:-0.099914 27:-0.109777 28:-0.097398 29:-0.116705 30:-0.113203 31:-0.083829 32:-0.055741 33:-0.085391 34:-0.096933 35:-0.102388 36:-0.115316 37:-0.138211 38:-0.080789 39:-0.151229 40:-0.130880 41:-0.068597 42:-0.070839 43:-0.115160 44:-0.118228 45:-0.102296 46:-0.141065 47:-0.078154 48:-0.154109 49:-0.146202 50:-0.170577 51:-0.162000 52:-0.139190 53:-0.193806 54:-0.105381 55:-0.207178 56:-0.166466 57:-0.210945 58:-0.186643 59:-0.195025 60:-0.131692 61:-0.115533 62:-0.189033 63:-0.205215 64:-0.124264 65:-0.183392 66:-0.149678 67:-0.244637 68:-0.199095 69:-0.125566 70:-0.245923
1 1:-0.033741 2:0.001341 3:0.015179 4:-0.027637 5:-0.007100 6:-0.017379 7:-0.007793 8:-0.012517 9:-0.004292 10:-0.061907 11:-0.045876 12:-0.023087 13:-0.048756 14:-0.061128 15:-0.013875 16:-0.039574 17:-0.020149 18:-0.064671 19:-0.002080 20:-0.084651 21:-0.023729 22:-0.118213 23:-0.047833 24:-0.077345 25:-0.102800 26:-0.054079 27:-0.074650 28:-0.071653 29:-0.099626 30:-0.096492 31:-0.109818 32:-0.095746 33:-0.058117 34:-0.032421 35:-0.126271 36:-0.108892 37:-0.130275 38:-0.093745 39:-0.089386 40:-0.089349 41:-0.083508 42:-0.107968 43:-0.090416 44:-0.107562 45:-0.162902 46:-0.151892 47:-0.132280 48:-0.159681 49:-0.136319 50:-0.143546 51:-0.177408 52:-0.193557 53:-0.115445 54:-0.168583 55:-0.155035 56:-0.145275 57:-0.176563 58:-0.213271 59:-0.193901 60:-0.180851 61:-0.191576 62:-0.178547 63:-0.209118 64:-0.241978 65:-0.133102 66:-0.130649 67:-0.174982 68:-0.202531 69:-0.189013 70:-0.154184
1 1:0.010354 2:0.016866 3:0.011659 4:0.029221 5:-0.007473 6:-0.074898 7:-0.015499 8:-0.036493 9:0.022335 10:-0.034201 11:-0.064871 12:-0.049230 13:-0.042893 14:-0.008723 15:-0.041521 16:-0.090158 17:-0.020753 18:-0.072608 19:-0.029576 20:-0.045270 21:-0.032362 22:-0.083804 23:-0.036145 24:-0.085859 25:-0.096803 26:-0.056804 27:-0.080086 28:-0.117784 29:-0.058823 30:-0.106524 31:-0.082999 32:-0.087616 33:-0.061456 34:-0.051901 35:-0.080068 36:-0.195206 37:-0.113851 38:-0.096713 39:-0.062952 40:-0.111191 41:-0.099714 42:-0.126621 43:-0.083679 44:-0.094190 45:-0.141983 46:-0.137288 47:-0.097621 48:-0.175634 49:-0.180972 50:-0.146559 51:-0.129595 52:-0.125914 53:-0.174424 54:-0.175491 55:-0.157745 56:-0.194765 57:-0.166673 58:-0.131306 59:-0.197485 60:-0.147222 61:-0.180768 62:-0.129879 63:-0.149379 64:-0.220533 65:-0.178353 66:-0.164661 67:-0.240175 68:-0.200224 69:-0.207468 70:-0.189656
1 1:-0.021580 2:0.041319 3:-0.013229 4:-0.003632 5:-0.039271 6:0.010422 7:0.046548 8:-0.012926 9:-0.006458 10:-0.022872 11:-0.096127 12:0.012421 13:-0.075845 14:-0.026159 15:-0.063385 16:-0.020938 17:-0.049935 18:-0.069084 19:-0.095329 20:-0.056312 21:-0.059497 22:-0.087871 23:-0.089134 24:-0.055948 25:-0.073833 26:-0.070243 27:-0.099283 28:-0.057571 29:-0.093786 30:-0.079831 31:-0.096160 32:-0.088759 33:-0.085231 34:-0.146051 35:-0.096715 36:-0.105531 37:-0.069278 38:-0.095904 39:-0.081819 40:-0.090547 41:-0.099317 42:-0.111900 43:-0.088867 44:-0.199749 45:-0.115289 46:-0.128599 47:-0.110320 48:-0.122052 49:-0.063358 50:-0.204949 51:-0.157840 52:-0.139341 53:-0.193904 54:-0.116040 55:-0.157846 56:-0.221858 57:-0.193761 58:-0.126095 59:-0.125552 60:-0.158399 61:-0.172801 62:-0.173943 63:-0.150948 64:-0.188541 65:-0.175274 66:-0.239779 67:-0.181695 68:-0.208043 69:-0.227115 70:-0.160156
1 1:0.046950 2:0.014152 3:-0.028584 4:-0.026113 5:-0.005367 6:-0.019563 7:-0.037443 8:-0.051227 9:0.018002 10:0.016816 11:-0.006847 12:-0.005931 13:-0.042789 14:-0.005324 15:-0.018489 16:-0.075340 17:-0.055119 18:-0.017596 19:-0.011388 20:-0.072474 21:-0.041049 22:-0.057911 23:-0.077551 24:-0.040496 25:-0.100562 26:-0.089673 27:-0.046133 28:-0.088838 29:-0.084733 30:-0.062667 31:-0.104376 32:-0.048161 33:-0.153232 34:-0.105981 35:-0.108015 36:-0.104471 37:-0.128730 38:-0.118069 39:-0.148952 40:-0.101861 41:-0.105547 42:-0.132938 43:-0.165049 44:-0.143094 45:-0.151000 46:-0.146291 47:-0.175279 48:-0.129033 49:-0.141112 50:-0.122990 51:-0.098054 52:-0.201789 53:-0.149183 54:-0.184065 55:-0.222443 56:-0.152359 57:-0.178966 58:-0.194583 59:-0.149371 60:-0.143631 61:-0.111066 62:-0.140091 63:-0.140284 64:-0.205517 65:-0.135989 66:-0.191836 67:-0.156913 68:-0.187829 69:-0.197725 70:-0.213305
1 1:-0.036758 2:0.038006 3:-0.015063 4:0.047820 5:0.063130 6:-0.039762 7:-0.011697 8:-0.021398 9:-0.049456 10:-0.040178 11:-0.014185 12:-0.020635 13:-0.078999 14:-0.093728 15:-0.017277 16:-0.060135 17:-0.023629 18:-0.042682 19:-0.075906 20:-0.073423 21:-0.090743 22:-0.013591 23:-0.077855 24:-0.084512 25:-0.045824 26:-0.105916 27:-0.116539 28:-0.095160 29:-0.091659 30:-0.108674 31:-0.095811 32:-0.054198 33:-0.110004 34:-0.093155 35:-0.105353 36:-0.120571 37:-0.138522 38:-0.111572 39:-0.090049 40:-0.079975 41:-0.150576 42:-0.167328 43:-0.122702 44:-0.101772 45:-0.120053 46:-0.121009 47:-0.134818 48:-0.169543 49:-0.139615 50:-0.136376 51:-0.140297 52:-0.187916 53:-0.156012 54:-0.170389 55:-0.130154 56:-0.158231 57:-0.161508 58:-0.161196 59:-0.147766 60:-0.143031 61:-0.165335 62:-0.152556 63:-0.113039 64:-0.219186 65:-0.226229 66:-0.205704 67:-0.174932 68:-0.186556 69:-0.172278 70:-0.184500
1 1:-0.051979 2:0.013410 3:-0.028816 4:-0.016941 5:-0.017850 6:0.005041 7:-0.055270 8:-0.037894 9:-0.057714 10:-0.034512 11:-0.036103 12:-0.085005 13:-0.023623 14:0.013798 15:-0.061702 16:-0.036232 17:-0.054915 18:-0.060850 19:-0.021484 20:-0.096290 21:-0.098076 22:-0.047924 23:-0.075525 24:-0.065205 25:-0.090797 26:-0.097906 27:-0.015966 28:-0.056723 29:-0.112985 30:-0.126909 31:-0.116104 32:-0.103890 33:-0.049704 34:-0.131302 35:-0.113864 36:-0.103953 37:-0.093725 38:-0.127090 39:-0.143088 40:-0.115817 41:-0.092907 42:-0.140728 43:-0.117453 44:-0.175735 45:-0.172034 46:-0.132042 47:-0.080904 48:-0.166470 49:-0.124199 50:-0.166014 51:-0.147083 52:-0.107952 53:-0.145999 54:-0.110188 55:-0.136741 56:-0.122650 57:-0.177581 58:-0.133426 59:-0.129871 60:-0.161840 61:-0.173896 62:-0.191069 63:-0.187920 64:-0.161937 65:-0.136451 66:-0.229040 67:-0.201971 68:-0.186280 69:-0.163833 70:-0.255350
1 1:-0.012769 2:0.001357 3:-0.057897 4:-0.010961 5:-0.050051 6:-0.007378 7:-0.048297 8:-0.027040 9:0.004235 10:-0.048691 11:-0.025429 12:-0.048134 13:-0.031914 14:-0.003177 15:-0.037263 16:-0.039313 17:-0.076424 18:-0.081733 19:-0.029764 20:-0.075650 21:-0.141413 22:-0.126141 23:-0.084058 24:-0.071752 25:-0.081991 26:-0.051727 27:-0.106574 28:-0.071789 29:-0.071409 30:-0.044177 31:-0.082584 32:-0.071695 33:-0.135093 34:-0.119274 35:-0.111573 36:-0.122744 37:-0.065479 38:-0.112874 39:-0.118452 40:-0.124084 41:-0.095435 42:-0.082737 43:-0.131813 44:-0.149372 45:-0.161649 46:-0.119441 47:-0.107417 48:-0.153440 49:-0.126509 50:-0.128340 51:-0.137027 52:-0.130923 53:-0.116365 54:-0.180666 55:-0.159740 56:-0.126812 57:-0.189130 58:-0.132217 59:-0.200296 60:-0.097838 61:-0.209479 62:-0.136931 63:-0.162419 64:-0.161209 65:-0.201656 66:-0.250847 67:-0.165983 68:-0.220573 69:-0.180045 70:-0.212984
1 1:0.000806 2:-0.061497 3:-0.015890 4:-0.022843 5:0.023522 6:-0.029761 7:0.041533 8:-0.056118 9:-0.027089 10:-0.035847 11:-0.005089 12:-0.025654 13:-0.035494 14:-0.052202 15:-0.064024 16:-0.017093 17:-0.073358 18:-0.020761 19:-0.109425 20:-0.107851 21:-0.063633 22:0.005339 23:-0.076112 24:-0.093191 25:-0.047630 26:-0.079539 27:-0.088732 28:-0.069637 29:-0.129200 30:-0.100705 31:-0.115443 32:-0.056797 33:-0.036990 34:-0.087575 35:-0.086961 36:-0.102450 37:-0.089307 38:-0.156570 39:-0.121350 40:-0.186514 41:-0.124684 42:-0.128582 43:-0.152795 44:-0.124138 45:-0.098802 46:-0.094482 47:-0.128810 48:-0.119012 49:-0.148254 50:-0.137770 51:-0.165982 52:-0.155144 53:-0.140167 54:-0.134037 55:-0.114749 56:-0.157259 57:-0.158202 58:-0.208671 59:-0.115019 60:-0.161413 61:-0.151838 62:-0.144618 63:-0.186095 64:-0.177033 65:-0.152593 66:-0.190506 67:-0.189904 68:-0.225403 69:-0.218587 70:-0.236390
1 1:-0.001576 2:0.008014 3:-0.061425 4:0.043526 5:0.021586 6:0.007591 7:-0.006856 8:-0.033095 9:0.016722 10:0.004427 11:0.002059 12:0.009227 13:-0.033794 14:-0.048059 15:-0.053416 16:-0.053541 17:-0.069972 18:-0.077795 19:-0.088231 20:-0.060759 21:-0.075285 22:-0.027827 23:-0.064482 24:-0.070437 25:-0.074510 26:-0.025195 27:-0.088643 28:-0.072244 29:-0.115929 30:-0.112906 31:-0.082012 32:-0.104835 33:-0.063409 34:-0.085539 35:-0.082078 36:-0.164173 37:-0.151411 38:-0.105034 39:-0.122070 40:-0.098957 41:-0.075604 42:-0.069371 43:-0.118270 44:-0.088355 45:-0.119412 46:-0.152834 47:-0.102338 48:-0.137719 49:-0.125658 50:-0.165628 51:-0.070103 52:-0.130380 53:-0.149717 54:-0.130661 55:-0.173552 56:-0.198740 57:-0.215431 58:-0.164931 59:-0.172159 60:-0.132039 61:-0.171755 62:-0.196507 63:-0.197234 64:-0.146694 65:-0.230064 66:-0.184168 67:-0.185814 68:-0.161773 69:-0.236385 70:-0.227912
1 1:0.025188 2:0.002976 3:-0.011814 4:0.052546 5:-0.025755 6:-0.020219 7:-0.066770 8:-0.084952 9:0.029357 10:-0.026951 11:0.006060 12:-0.005434 13:-0.073574 14:-0.045604 15:-0.032078 16:-0.063287 17:-0.009947 18:-0.063108 19:-0.030578 20:-0.054610 21:-0.016187 22:-0.087030 23:-0.017728 24:-0.063231 25:-0.128139 26:-0.086559 27:-0.079994 28:-0.065976 29:-0.106373 30:-0.155553 31:-0.133791 32:-0.087553 33:-0.096548 34:-0.130310 35:-0.097836 36:-0.136012 37:-0.096861 38:-0.096437 39:-0.108120 40:-0.140301 41:-0.066459 42:-0.095553 43:-0.139047 44:-0.109295 45:-0.131700 46:-0.105213 47:-0.111766 48:-0.098844 49:-0.162980 50:-0.134690 51:-0.172933 52:-0.128626 53:-0.134649 54:-0.119276 55:-0.172438 56:-0.140790 57:-0.182137 58:-0.179987 59:-0.163552 60:-0.167466 61:-0.197278 62:-0.155621 63:-0.156133 64:-0.212671 65:-0.168616 66:-0.176437 67:-0.201620 68:-0.162419 69:-0.228646 70:-0.220588
1 1:-0.010701 2:0.011907 3:-0.011760 4:-0.008981 5:-0.019142 6:-0.003075 7:-0.020790 8:-0.011195 9:-0.020064 10:-0.061317 11:-0.036093 12:-0.008335 13:-0.074194 14:-0.021261 15:-0.077484 16:-0.018107 17:-0.042452 18:-0.008412 19:-0.049609 20:-0.053920 21:-0.088850 22:0.009519 23:-0.058378 24:-0.070086 25:-0.084959 26:-0.096707 27:-0.084268 28:-0.061883 29:-0.086301 30:-0.081343 31:-0.041669 32:-0.109983 33:-0.094935 34:-0.108405 35:-0.120401 36:-0.111337 37:-0.118804 38:-0.090220 39:-0.083540 40:-0.151375 41:-0.047163 42:-0.154154 43:-0.116469 44:-0.113205 45:-0.104243 46:-0.082198 47:-0.167509 48:-0.170426 49:-0.123711 50:-0.138641 51:-0.124733 52:-0.144704 53:-0.199408 54:-0.196384 55:-0.142511 56:-0.122529 57:-0.181266 58:-0.123715 59:-0.125050 60:-0.224778 61:-0.188741 62:-0.219937 63:-0.163667 64:-0.184752 65:-0.196511 66:-0.194352 67:-0.180027 68:-0.176557 69:-0.237318 70:-0.186322
1 1:-0.021921 2:0.017000 3:0.005052 4:-0.044367 5:-0.003865 6:-0.059792 7:-0.069683 8:-0.057127 9:-0.053311 10:0.010218 11:-0.099388 12:-0.035502 13:-0.009964 14:-0.029000 15:-0.064696 16:-0.054557 17:0.011097 18:-0.013592 19:-0.024585 20:-0.071896 21:-0.067748 22:-0.123178 23:-0.079007 24:-0.073611 25:-0.053364 26:-0.087139 27:-0.095247 28:-0.028521 29:-0.059951 30:-0.081569 31:-0.069145 32:-0.061076 33:-0.045806 34:-0.080963 35:-0.130043 36:-0.073061 37:-0.077965 38:-0.120522 39:-0.124151 40:-0.102603 41:-0.088834 42:-0.094524 43:-0.141946 44:-0.134851 45:-0.103009 46:-0.159924 47:-0.097073 48:-0.107686 49:-0.145022 50:-0.191236 51:-0.162015 52:-0.146754 53:-0.224342 54:-0.135429 55:-0.136884 56:-0.171361 57:-0.209368 58:-0.178007 59:-0.181986 60:-0.154754 61:-0.126546 62:-0.146189 63:-0.191404 64:-0.108609 65:-0.199009 66:-0.225566 67:-0.206002 68:-0.167187 69:-0.244072 70:-0.189544
1 1:0.000093 2:-0.001765 3:-0.005334 4:0.001111 5:-0.021919 6:-0.054136 7:-0.021763 8:-0.001629 9:-0.000840 10:-0.056877 11:0.001210 12:0.031270 13:-0.008666 14:-0.013852 15:-0.008234 16:-0.052759 17:-0.055113 18:-0.081646 19:-0.004842 20:-0.047107 21:-0.071479 22:-0.049418 23:-0.056721 24:-0.116583 25:-0.046639 26:-0.053641 27:-0.054204 28:-0.133331 29:-0.050004 30:-0.068330 31:-0.113533 32:-0.055705 33:-0.078092 34:-0.115293 35:-0.108398 36:-0.122543 37:-0.108209 38:-0.129862 39:-0.146943 40:-0.111458 41:-0.143639 42:-0.088975 43:-0.098450 44:-0.111350 45:-0.061957 46:-0.157567 47:-0.152660 48:-0.181115 49:-0.096426 50:-0.139110 51:-0.148265 52:-0.116648 53:-0.157132 54:-0.116050 55:-0.116742 56:-0.138496 57:-0.167627 58:-0.147697 59:-0.146165 60:-0.220564 61:-0.187346 62:-0.163838 63:-0.174178 64:-0.232650 65:-0.216217 66:-0.156220 67:-0.264490 68:-0.174395 69:-0.214053 70:-0.201174
1 1:-0.033569 2:0.033464 3:-0.053836 4:-0.006556 5:-0.044972 6:-0.053526 7:0.004086 8:0.011595 9:-0.013854 10:-0.021448 11:-0.059855 12:-0.062305 13:-0.029025 14:-0.035167 15:-0.030956 16:-0.087302 17:-0.011232 18:-0.054167 19:-0.062478 20:-0.025111 21:-0.057543 22:-0.070108 23:-0.086604 24:-0.085180 25:-0.105314 26:-0.107411 27:-0.033335 28:-0.086243 29:-0.061031 30:-0.039872 31:-0.108847 32:-0.042326 33:-0.091156 34:-0.161597 35:-0.107493 36:-0.125602 37:-0.109410 38:-0.054497 39:-0.167660 40:-0.071858 41:-0.134068 42:-0.177825 43:-0.136780 44:-0.115289 45:-0.089023 46:-0.113137 47:-0.157557 48:-0.160545 49:-0.104931 50:-0.116055 51:-0.113350 52:-0.153490 53:-0.168628 54:-0.175024 55:-0.169925 56:-0.114348 57:-0.176369 58:-0.163708 59:-0.186025 60:-0.164610 61:-0.207926 62:-0.184887 63:-0.195042 64:-0.167262 65:-0.127957 66:-0.166055 67:-0.222632 68:-0.152339 69:-0.177311 70:-0.233016
1 1:0.009591 2:0.016301 3:-0.008180 4:0.000014 5:0.052651 6:-0.041392 7:-0.055606 8:-0.070011 9:0.003291 10:-0.050713 11:-0.056133 12:-0.044169 13:0.004321 14:-0.049371 15:-0.007689 16:-0.019426 17:-0.046465 18:-0.100289 19:-0.078394 20:-0.030995 21:-0.064282 22:-0.061547 23:-0.114487 24:-0.068991 25:-0.084326 26:-0.071404 27:-0.054055 28:-0.095955 29:-0.106927 30:-0.040590 31:-0.091492 32:-0.097116 33:-0.098495 34:-0.065253 35:-0.081944 36:-0.126646 37:-0.076060 38:-0.142807 39:-0.081241 40:-0.150771 41:-0.115406 42:-0.073338 43:-0.182705 44:-0.111363 45:-0.131329 46:-0.112941 47:-0.139280 48:-0.129647 49:-0.163399 50:-0.127332 51:-0.145902 52:-0.134193 53:-0.175201 54:-0.147352 55:-0.177853 56:-0.136597 57:-0.110368 58:-0.146371 59:-0.191645 60:-0.161650 61:-0.171994 62:-0.176297 63:-0.200448 64:-0.142816 65:-0.213096 66:-0.140803 67:-0.181825 68:-0.191281 69:-0.216823 70:-0.262236
1 1:0.016513 2:-0.014160 3:-0.007041 4:-0.019353 5:-0.039012 6:-0.018807 7:-0.024656 8:-0.021621 9:0.001920 10:-0.022516 11:-0.040673 12:-0.082080 13:-0.017622 14:-0.059224 15:-0.103725 16:-0.090668 17:-0.020493 18:-0.058582 19:-0.071755 20:-0.093269 21:-0.081707 22:-0.110624 23:-0.048874 24:-0.086377 25:-0.036446 26:-0.051542 27:-0.099108 28:-0.098490 29:-0.103113 30:-0.101600 31:-0.106358 32:-0.111238 33:-0.088369 34:-0.095896 35:-0.099280 36:-0.121186 37:-0.075614 38:-0.100944 39:-0.072240 40:-0.083989 41:-0.169230 42:-0.125142 43:-0.146978 44:-0.144580 45:-0.101287 46:-0.126731 47:-0.178955 48:-0.137257 49:-0.124709 50:-0.104264 51:-0.126105 52:-0.088505 53:-0.150927 54:-0.163802 55:-0.166615 56:-0.161795 57:-0.151227 58:-0.157553 59:-0.204199 60:-0.186951 61:-0.171262 62:-0.185539 63:-0.172891 64:-0.150793 65:-0.176183 66:-0.155322 67:-0.217688 68:-0.154151 69:-0.247495 70:-0.184717
1 1:-0.012963 2:-0.045626 3:0.046680 4:-0.037133 5:0.018143 6:-0.066498 7:0.016901 8:-0.032924 9:-0.092871 10:-0.013021 11:-0.020531 12:-0.011522 13:-0.051641 14:-0.061080 15:-0.028536 16:-0.001296 17:-0.067391 18:-0.032985 19:-0.083053 20:-0.027138 21:-0.031788 22:-0.055499 23:-0.071140 24:-0.054094 25:-0.064935 26:-0.085535 27:-0.097116 28:-0.127160 29:-0.083260 30:-0.070583 31:-0.093616 32:-0.083554 33:-0.103159 34:-0.085483 35:-0.044131 36:-0.113552 37:-0.085081 38:-0.082956 39:-0.154911 40:-0.132580 41:-0.088633 42:-0.105899 43:-0.117277 44:-0.130350 45:-0.172773 46:-0.103655 47:-0.121754 48:-0.119533 49:-0.130556 50:-0.136628 51:-0.166600 52:-0.125779 53:-0.177546 54:-0.178864 55:-0.149686 56:-0.195018 57:-0.156581 58:-0.190468 59:-0.145467 60:-0.140526 61:-0.152771 62:-0.211312 63:-0.120630 64:-0.191654 65:-0.216765 66:-0.181011 67:-0.179158 68:-0.232050 69:-0.162387 70:-0.238912
1 1:0.025878 2:0.010405 3:0.020769 4:-0.033845 5:-0.013950 6:0.016359 7:-0.001408 8:-0.042734 9:-0.042520 10:-0.058019 11:-0.020214 12:-0.015236 13:-0.026283 14:-0.059502 15:-0.037571 16:-0.047584 17:-0.059113 18:-0.032451 19:-0.063533 20:-0.068017 21:-0.033672 22:-0.078995 23:-0.054019 24:-0.057987 25:-0.072783 26:-0.007829 27:-0.058819 28:-0.028892 29:-0.103031 30:-0.109327 31:-0.079556 32:-0.098811 33:-0.106059 34:-0.069333 35:-0.126249 36:-0.067271 37:-0.087875 38:-0.162950 39:-0.150052 40:-0.138843 41:-0.104422 42:-0.182741 43:-0.137247 44:-0.103969 45:-0.164207 46:-0.111003 47:-0.144136 48:-0.089900 49:-0.155180 50:-0.126202 51:-0.135026 52:-0.174439 53:-0.167526 54:-0.128130 55:-0.158177 56:-0.141908 57:-0.196860 58:-0.166030 59:-0.203915 60:-0.186432 61:-0.078934 62:-0.174578 63:-0.140120 64:-0.179338 65:-0.211402 66:-0.202852 67:-0.130194 68:-0.224268 69:-0.201803 70:-0.220224
1 1:0.035701 2:-0.008568 3:-0.008115 4:-0.053704 5:-0.059504 6:-0.036702 7:0.000600 8:-0.013256 9:-0.035503 10:-0.031092 11:-0.014659 12:-0.062764 13:-0.034673 14:-0.029398 15:-0.024285 16:-0.072752 17:-0.008509 18:-0.102154 19:-0.084603 20:-0.024105 21:-0.038776 22:-0.069612 23:-0.066121 24:-0.049756 25:-0.045629 26:-0.055770 27:-0.099974 28:-0.057640 29:-0.045711 30:-0.116803 31:-0.063238 32:-0.067224 33:-0.110395 34:-0.115556 35:-0.115072 36:-0.136225 37:-0.119933 38:-0.100595 39:-0.142443 40:-0.105499 41:-0.122641 42:-0.128126 43:-0.121262 44:-0.117807 45:-0.168984 46:-0.154801 47:-0.100391 48:-0.109921 49:-0.141984 50:-0.129276 51:-0.177486 52:-0.154224 53:-0.128292 54:-0.137160 55:-0.138439 56:-0.157222 57:-0.163071 58:-0.200278 59:-0.158476 60:-0.145907 61:-0.208411 62:-0.195827 63:-0.141595 64:-0.203824 65:-0.184563 66:-0.183905 67:-0.166304 68:-0.242598 69:-0.162856 70:-0.213090
1 1:-0.021451 2:0.042980 3:-0.019691 4:-0.003074 5:-0.007829 6:-0.041897 7:-0.009062 8:-0.041651 9:-0.066898 10:0.023120 11:-0.020101 12:-0.059598 13:-0.040967 14:-0.037969 15:-0.040203 16:0.025213 17:-0.035032 18:-0.092324 19:-0.071439 20:-0.031678 21:-0.098747 22:-0.027537 23:-0.082234 24:-0.047371 25:-0.067234 26:-0.108143 27:-0.071110 28:-0.137826 29:-0.036694 30:-0.114305 31:-0.064010 32:-0.099906 33:-0.091900 34:-0.061098 35:-0.121051 36:-0.113799 37:-0.168488 38:-0.109981 39:-0.098934 40:-0.137077 41:-0.143865 42:-0.098905 43:-0.119533 44:-0.138719 45:-0.082612 46:-0.174892 47:-0.176744 48:-0.135123 49:-0.143949 50:-0.096814 51:-0.152918 52:-0.174442 53:-0.153638 54:-0.206280 55:-0.118434 56:-0.108152 57:-0.122144 58:-0.155890 59:-0.096224 60:-0.202508 61:-0.163724 62:-0.153423 63:-0.137547 64:-0.105564 65:-0.245980 66:-0.159939 67:-0.234483 68:-0.180190 69:-0.180654 70:-0.252133
1 1:0.015039 2:-0.018635 3:-0.030822 4:-0.032079 5:-0.010364 6:0.003852 7:-0.037535 8:-0.020667 9:0.027001 10:-0.017998 11:-0.039084 12:0.007432 13:-0.007226 14:-0.041585 15:-0.064265 16:-0.064525 17:-0.009923 18:-0.069353 19:-0.048530 20:-0.062363 21:-0.025081 22:-0.107231 23:-0.083270 24:-0.065528 25:-0.086428 26:-0.060649 27:-0.071301 28:-0.056281 29:-0.150726 30:-0.073540 31:-0.082143 32:-0.057144 33:-0.075618 34:-0.134191 35:-0.081847 36:-0.107018 37:-0.133198 38:-0.114469 39:-0.120461 40:-0.131365 41:-0.101239 42:-0.095292 43:-0.162148 44:-0.099033 45:-0.114942 46:-0.141932 47:-0.131297 48:-0.169438 49:-0.137416 50:-0.136634 51:-0.162302 52:-0.144737 53:-0.138196 54:-0.175317 55:-0.146850 56:-0.201373 57:-0.071780 58:-0.183294 59:-0.130427 60:-0.191391 61:-0.157167 62:-0.166377 63:-0.215141 64:-0.146773 65:-0.212558 66:-0.217141 67:-0.210230 68:-0.198675 69:-0.165158 70:-0.197073
1 1:0.001838 2:-0.006006 3:-0.014060 4:0.020617 5:-0.002657 6:-0.026164 7:0.045725 8:-0.052744 9:-0.011739 10:0.001016 11:-0.027097 12:-0.071471 13:-0.058663 14:-0.038718 15:-0.058525 16:-0.089784 17:-0.040110 18:-0.046400 19:-0.047410 20:-0.072968 21:-0.018155 22:-0.043633 23:-0.034540 24:-0.051773 25:-0.096082 26:-0.112700 27:-0.125729 28:-0.102740 29:-0.064020 30:-0.059269 31:-0.108282 32:-0.028570 33:-0.149068 34:-0.119211 35:-0.105268 36:-0.160569 37:-0.118076 38:-0.096589 39:-0.115956 40:-0.116490 41:-0.093724 42:-0.126007 43:-0.146646 44:-0.130539 45:-0.140407 46:-0.084667 47:-0.143857 48:-0.119241 49:-0.175851 50:-0.170817 51:-0.126108 52:-0.157687 53:-0.171283 54:-0.133044 55:-0.069681 56:-0.184477 57:-0.112910 58:-0.167581 59:-0.235415 60:-0.178354 61:-0.143912 62:-0.217747 63:-0.154474 64:-0.175058 65:-0.194907 66:-0.184322 67:-0.187090 68:-0.167947 69:-0.172803 70:-0.185378
1 1:-0.039565 2:-0.000189 3:0.027660 4:0.003881 5:-0.027035 6:-0.002572 7:-0.034560 8:0.005742 9:0.003114 10:0.034851 11:-0.036893 12:0.002313 13:-0.001365 14:-0.039160 15:0.000925 16:-0.033189 17:-0.079310 18:-0.082013 19:-0.063393 20:-0.054991 21:-0.029816 22:-0.061937 23:-0.033468 24:-0.115259 25:-0.070183 26:-0.095487 27:-0.059447 28:-0.106887 29:-0.055316 30:-0.075181 31:-0.093808 32:-0.114395 33:-0.138292 34:-0.054197 35:-0.114247 36:-0.075946 37:-0.060299 38:-0.090955 39:-0.126712 40:-0.118554 41:-0.116122 42:-0.155480 43:-0.103490 44:-0.104005 45:-0.117902 46:-0.137418 47:-0.125604 48:-0.128519 49:-0.124903 50:-0.137375 51:-0.122147 52:-0.134326 53:-0.133591 54:-0.105712 55:-0.120007 56:-0.174125 57:-0.200974 58:-0.211019 59:-0.114203 60:-0.187715 61:-0.220489 62:-0.224044 63:-0.189918 64:-0.209577 65:-0.153050 66:-0.206977 67:-0.182419 68:-0.235539 69:-0.221590 70:-0.164941
1 1:-0.014869 2:0.026722 3:-0.054883 4:-0.021065 5:-0.081717 6:-0.000926 7:-0.015626 8:-0.002936 9:-0.023211 10:0.002159 11:-0.000561 12:-0.032568 13:-0.025450 14:-0.047010 15:-0.030109 16:-0.073771 17:-0.077979 18:-0.050719 19:-0.022186 20:-0.012442 21:-0.049299 22:-0.073844 23:-0.087638 24:-0.032805 25:-0.044550 26:-0.060205 27:-0.058487 28:-0.112396 29:-0.023797 30:-0.077012 31:-0.136955 32:-0.108279 33:-0.112958 34:-0.106539 35:-0.087806 36:-0.110659 37:-0.132954 38:-0.109121 39:-0.137411 40:-0.070805 41:-0.092629 42:-0.099336 43:-0.107427 44:-0.097502 45:-0.160404 46:-0.095217 47:-0.144372 48:-0.179307 49:-0.168384 50:-0.179140 51:-0.167081 52:-0.198776 53:-0.187261 54:-0.179953 55:-0.142718 56:-0.111051 57:-0.183167 58:-0.142850 59:-0.146318 60:-0.179467 61:-0.149806 62:-0.157390 63:-0.120738 64:-0.169076 65:-0.177204 66:-0.224338 67:-0.118990 68:-0.188725 69:-0.219932 70:-0.250215
1 1:0.017852 2:0.023659 3:-0.015849 4:0.019962 5:-0.056612 6:-0.010021 7:-0.064911 8:0.001667 9:-0.005790 10:-0.024690 11:-0.006678 12:-0.005207 13:-0.034641 14:-0.029429 15:-0.039950 16:-0.066296 17:-0.066233 18:-0.070545 19:-0.054818 20:-0.066801 21:-0.113807 22:-0.073211 23:-0.043924 24:-0.052038 25:-0.072386 26:-0.049597 27:-0.107382 28:-0.050687 29:-0.099558 30:-0.096211 31:-0.094479 32:-0.129130 33:-0.105080 34:-0.154506 35:-0.162557 36:-0.118842 37:-0.119583 38:-0.088234 39:-0.121106 40:-0.083894 41:-0.131119 42:-0.072594 43:-0.103053 44:-0.122420 45:-0.137217 46:-0.133548 47:-0.130105 48:-0.158069 49:-0.111302 50:-0.105362 51:-0.143860 52:-0.131323 53:-0.168722 54:-0.175773 55:-0.157207 56:-0.165103 57:-0.187605 58:-0.222259 59:-0.118818 60:-0.183202 61:-0.127337 62:-0.182016 63:-0.155327 64:-0.186865 65:-0.134285 66:-0.232027 67:-0.183549 68:-0.206226 69:-0.188960 70:-0.180846
1 1:-0.004759 2:-0.026912 3:0.010209 4:0.017720 5:-0.024948 6:-0.021586 7:0.028241 8:-0.029189 9:-0.015673 10:-0.051149 11:-0.069428 12:-0.031219 13:-0.065428 14:-0.029783 15:-0.056337 16:-0.088542 17:-0.037622 18:-0.044892 19:-0.050608 20:-0.077663 21:-0.058347 22:-0.073910 23:-0.050092 24:-0.059627 25:-0.067760 26:-0.063116 27:-0.030847 28:-0.081369 29:-0.063161 30:-0.103682 31:-0.099756 32:-0.111702 33:-0.082879 34:-0.100281 35:-0.090159 36:-0.097531 37:-0.164545 38:-0.098778 39:-0.142714 40:-0.152483 41:-0.105522 42:-0.120883 43:-0.158788 44:-0.128241 45:-0.097472 46:-0.117604 47:-0.119634 48:-0.132007 49:-0.103642 50:-0.148694 51:-0.176755 52:-0.169923 53:-0.149039 54:-0.148719 55:-0.166656 56:-0.150150 57:-0.134068 58:-0.136972 59:-0.156157 60:-0.170800 61:-0.172989 62:-0.163704 63:-0.245502 64:-0.127787 65:-0.203695 66:-0.258594 67:-0.200897 68:-0.145602 69:-0.209784 70:-0.168312
1 1:-0.026909 2:0.023293 3:-0.018582 4:-0.060346 5:0.042127 6:0.022212 7:-0.022899 8:-0.002575 9:0.021871 10:-0.114669 11:-0.073086 12:-0.069156 13:-0.027003 14:-0.055058 15:-0.026741 16:-0.040925 17:-0.028535 18:-0.042200 19:-0.093837 20:-0.119514 21:-0.045195 22:-0.077550 23:0.013135 24:-0.068099 25:-0.114620 26:-0.055916 27:-0.100408 28:-0.108153 29:-0.077314 30:-0.107939 31:-0.111976 32:-0.099431 33:-0.108983 34:-0.104432 35:-0.086349 36:-0.109113 37:-0.108693 38:-0.115852 39:-0.140106 40:-0.090502 41:-0.061844 42:-0.177680 43:-0.092345 44:-0.143228 45:-0.156368 46:-0.202113 47:-0.101099 48:-0.135511 49:-0.078531 50:-0.098274 51:-0.110656 52:-0.162567 53:-0.174783 54:-0.142430 55:-0.167066 56:-0.099102 57:-0.151109 58:-0.148664 59:-0.200214 60:-0.177396 61:-0.184951 62:-0.223452 63:-0.144721 64:-0.176746 65:-0.196346 66:-0.163992 67:-0.156824 68:-0.163909 69:-0.190833 70:-0.206580
1 1:0.030731 2:-0.059415 3:-0.029504 4:-0.078271 5:-0.059365 6:-0.032713 7:-0.034037 8:0.008100 9:-0.043353 10:-0.043783 11:0.020694 12:-0.006268 13:-0.015383 14:-0.055845 15:-0.049130 16:-0.063603 17:-0.073207 18:-0.064072 19:-0.032496 20:-0.031289 21:-0.074360 22:-0.008374 23:-0.062444 24:-0.074338 25:-0.095265 26:-0.062524 27:-0.063595 28:-0.039746 29:-0.088314 30:-0.113886 31:-0.079866 32:-0.076364 33:-0.109389 34:-0.136220 35:-0.112614 36:-0.069724 37:-0.090926 38:-0.105846 39:-0.109969 40:-0.064356 41:-0.103631 42:-0.119882 43:-0.133193 44:-0.110629 45:-0.097793 46:-0.112115 47:-0.105171 48:-0.108969 49:-0.164197 50:-0.138446 51:-0.105207 52:-0.157008 53:-0.152125 54:-0.145847 55:-0.135973 56:-0.164220 57:-0.156865 58:-0.156838 59:-0.154498 60:-0.201366 61:-0.179323 62:-0.209291 63:-0.163283 64:-0.230408 65:-0.208177 66:-0.208780 67:-0.182249 68:-0.195134 69:-0.209411 70:-0.251930
1 1:-0.022898 2:0.007855 3:0.004473 4:-0.023850 5:0.020856 6:-0.036670 7:-0.046563 8:-0.010697 9:-0.030027 10:-0.023633 11:-0.006133 12:0.001415 13:-0.077173 14:-0.087409 15:-0.048735 16:-0.064189 17:-0.061991 18:-0.062767 19:-0.053134 20:0.004090 21:-0.079430 22:-0.052009 23:-0.056784 24:-0.060188 25:-0.070174 26:-0.098781 27:-0.097274 28:-0.043629 29:-0.072089 30:-0.138058 31:-0.109406 32:-0.091629 33:-0.078623 34:-0.172198 35:-0.096327 36:-0.089430 37:-0.135737 38:-0.048022 39:-0.118704 40:-0.083928 41:-0.097852 42:-0.141283 43:-0.147758 44:-0.062825 45:-0.133194 46:-0.134785 47:-0.097576 48:-0.148263 49:-0.122326 50:-0.166338 51:-0.181354 52:-0.146699 53:-0.130244 54:-0.150221 55:-0.100462 56:-0.199338 57:-0.178111 58:-0.141168 59:-0.145417 60:-0.169670 61:-0.190447 62:-0.147083 63:-0.122219 64:-0.201807 65:-0.217936 66:-0.182870 67:-0.214617 68:-0.188173 69:-0.233319 70:-0.199797
1 1:-0.019724 2:0.059761 3:-0.058559 4:-0.031725 5:-0.044156 6:0.008231 7:-0.022564 8:0.006097 9:-0.033685 10:-0.046486 11:-0.030036 12:-0.001474 13:-0.021553 14:-0.084638 15:-0.050784 16:-0.018656 17:-0.076567 18:-0.059400 19:-0.082641 20:-0.072486 21:-0.041234 22:0.006011 23:-0.075646 24:-0.064625 25:-0.037762 26:-0.088324 27:-0.045067 28:-0.078114 29:-0.100745 30:-0.082104 31:-0.117622 32:-0.142553 33:-0.027919 34:-0.054413 35:-0.125940 36:-0.096855 37:-0.120295 38:-0.095446 39:-0.052718 40:-0.079531 41:-0.111457 42:-0.110700 43:-0.193758 44:-0.126413 45:-0.139929 46:-0.140861 47:-0.113476 48:-0.117714 49:-0.114001 50:-0.118357 51:-0.165752 52:-0.156265 53:-0.125781 54:-0.142726 55:-0.212899 56:-0.164348 57:-0.107945 58:-0.126899 59:-0.175289 60:-0.155443 61:-0.173572 62:-0.180897 63:-0.203370 64:-0.175750 65:-0.207487 66:-0.162695 67:-0.207370 68:-0.245278 69:-0.214173 70:-0.207422
1 1:-0.020815 2:0.006989 3:0.001648 4:0.029042 5:-0.039157 6:0.013879 7:0.000162 8:0.003496 9:-0.062110 10:-0.009117 11:-0.082838 12:-0.093375 13:-0.048104 14:-0.005042 15:-0.069208 16:-0.061869 17:-0.048857 18:-0.037653 19:-0.058870 20:-0.054652 21:-0.045197 22:-0.163551 23:-0.027511 24:-0.104724 25:-0.098804 26:-0.160958 27:-0.007154 28:-0.091454 29:-0.097994 30:-0.072227 31:-0.063202 32:-0.099904 33:-0.044376 34:-0.086456 35:-0.066570 36:-0.025587 37:-0.134850 38:-0.132527 39:-0.122907 40:-0.100988 41:-0.117189 42:-0.090667 43:-0.119749 44:-0.080837 45:-0.110705 46:-0.160386 47:-0.141613 48:-0.126461 49:-0.146339 50:-0.161531 51:-0.134651 52:-0.231015 53:-0.123237 54:-0.128337 55:-0.120407 56:-0.156203 57:-0.169969 58:-0.156416 59:-0.180618 60:-0.222214 61:-0.139001 62:-0.159982 63:-0.155417 64:-0.151201 65:-0.178224 66:-0.223508 67:-0.160766 68:-0.201884 69:-0.198893 70:-0.213624
1 1:-0.036258 2:0.051118 3:0.038193 4:0.012594 5:-0.027039 6:-0.012569 7:-0.058384 8:-0.035321 9:-0.034040 10:-0.074830 11:-0.029252 12:-0.061381 13:-0.009270 14:-0.036268 15:-0.053940 16:0.009020 17:-0.034937 18:-0.077223 19:-0.072749 20:-0.072606 21:-0.078298 22:-0.061339 23:-0.054101 24:-0.067086 25:-0.042072 26:-0.125259 27:-0.044189 28:-0.068795 29:-0.070785 30:-0.142624 31:-0.076058 32:-0.067301 33:-0.047951 34:-0.144753 35:-0.101182 36:-0.068328 37:-0.120133 38:-0.118096 39:-0.150397 40:-0.108294 41:-0.138150 42:-0.096933 43:-0.104884 44:-0.087983 45:-0.104895 46:-0.144770 47:-0.098637 48:-0.158549 49:-0.144710 50:-0.111728 51:-0.142195 52:-0.181378 53:-0.180463 54:-0.138989 55:-0.118854 56:-0.222515 57:-0.123436 58:-0.149793 59:-0.166195 60:-0.157357 61:-0.217152 62:-0.179321 63:-0.236392 64:-0.209649 65:-0.156666 66:-0.204371 67:-0.170622 68:-0.197803 69:-0.197873 70:-0.135460
1 1:-0.023752 2:0.024207 3:-0.026584 4:-0.015794 5:-0.038121 6:-0.006391 7:-0.070289 8:-0.065916 9:-0.038061 10:-0.028032 11:-0.042266 12:-0.056247 13:-0.038463 14:-0.015759 15:0.017461 16:-0.033452 17:-0.011849 18:-0.075065 19:-0.069975 20:-0.045670 21:-0.033034 22:-0.059821 23:0.024360 24:-0.113545 25:-0.059953 26:-0.105878 27:-0.079729 28:-0.063048 29:-0.108541 30:-0.102313 31:-0.112482 32:-0.076646 33:-0.072921 34:-0.061651 35:-0.031610 36:-0.082811 37:-0.080091 38:-0.102194 39:-0.183188 40:-0.093098 41:-0.102651 42:-0.136798 43:-0.102733 44:-0.074649 45:-0.087171 46:-0.150144 47:-0.131675 48:-0.107363 49:-0.194655 50:-0.124015 51:-0.171175 52:-0.153048 53:-0.127122 54:-0.167051 55:-0.153373 56:-0.174094 57:-0.170955 58:-0.186047 59:-0.184243 60:-0.112820 61:-0.183237 62:-0.131490 63:-0.187251 64:-0.250977 65:-0.224009 66:-0.151451 67:-0.218693 68:-0.184450 69:-0.173185 70:-0.226331
1 1:-0.019208 2:0.002996 3:-0.064866 4:-0.032140 5:0.010236 6:-0.007566 7:-0.040350 8:-0.006520 9:-0.014447 10:-0.012987 11:-0.029593 12:0.012290 13:-0.008965 14:-0.026701 15:-0.081185 16:-0.066566 17:-0.092046 18:-0.008960 19:-0.037898 20:-0.043085 21:-0.028040 22:-0.052824 23:-0.045213 24:-0.040730 25:-0.086501 26:-0.085856 27:-0.098033 28:-0.073487 29:-0.075384 30:-0.084367 31:-0.121403 32:-0.096184 33:-0.110694 34:-0.129576 35:-0.137842 36:-0.119446 37:-0.119710 38:-0.098536 39:-0.083129 40:-0.070488 41:-0.141126 42:-0.113188 43:-0.123001 44:-0.110581 45:-0.156113 46:-0.187810 47:-0.120944 48:-0.150041 49:-0.149262 50:-0.123601 51:-0.167476 52:-0.134504 53:-0.160442 54:-0.148641 55:-0.128215 56:-0.138576 57:-0.128302 58:-0.118942 59:-0.144284 60:-0.186912 61:-0.205672 62:-0.173101 63:-0.185155 64:-0.196345 65:-0.218651 66:-0.175664 67:-0.202011 68:-0.217378 69:-0.169127 70:-0.210912
1 1:0.026418 2:0.012243 3:-0.048161 4:-0.030535 5:-0.015235 6:-0.046943 7:-0.048641 8:-0.033683 9:-0.006125 10:-0.049632 11:-0.039630 12:-0.009720 13:-0.050226 14:-0.023845 15:-0.067448 16:-0.020472 17:-0.045136 18:-0.035064 19:-0.046544 20:-0.062256 21:-0.094309 22:-0.082628 23:-0.077292 24:-0.086799 25:-0.045696 26:-0.096840 27:-0.045490 28:-0.106889 29:-0.052491 30:-0.030289 31:-0.112491 32:-0.038531 33:-0.097642 34:-0.112569 35:-0.100216 36:-0.135948 37:-0.109765 38:-0.117779 39:-0.138379 40:-0.077923 41:-0.074458 42:-0.131060 43:-0.112579 44:-0.123494 45:-0.168294 46:-0.175837 47:-0.156109 48:-0.119212 49:-0.123956 50:-0.123617 51:-0.160327 52:-0.157868 53:-0.174193 54:-0.150019 55:-0.110983 56:-0.068132 57:-0.143805 58:-0.159889 59:-0.152669 60:-0.165007 61:-0.194116 62:-0.167292 63:-0.192447 64:-0.196545 65:-0.241333 66:-0.192955 67:-0.201131 68:-0.157088 69:-0.234308 70:-0.203446
1 1:0.026220 2:0.018567 3:-0.021112 4:-0.063907 5:0.012910 6:0.005407 7:-0.006819 8:-0.032110 9:-0.011710 10:0.022577 11:0.010072 12:-0.019714 13:0.011611 14:-0.024500 15:-0.062678 16:-0.041418 17:-0.030990 18:-0.061889 19:-0.070045 20:-0.067970 21:-0.088555 22:-0.045757 23:-0.076219 24:-0.062601 25:-0.103796 26:-0.054840 27:-0.099729 28:-0.093362 29:-0.045307 30:-0.102564 31:-0.125597 32:-0.073698 33:-0.074810 34:-0.108933 35:-0.138074 36:-0.123653 37:-0.117606 38:-0.074718 39:-0.136339 40:-0.150502 41:-0.128911 42:-0.140724 43:-0.116298 44:-0.100754 45:-0.176715 46:-0.068856 47:-0.133960 48:-0.105290 49:-0.093163 50:-0.164258 51:-0.149933 52:-0.126412 53:-0.131850 54:-0.113334 55:-0.151631 56:-0.204355 57:-0.147334 58:-0.198468 59:-0.141587 60:-0.141586 61:-0.164564 62:-0.168514 63:-0.223508 64:-0.206770 65:-0.168580 66:-0.163045 67:-0.113980 68:-0.210198 69:-0.252151 70:-0.231603
1 1:-0.006507 2:-0.014062 3:-0.049559 4:-0.002403 5:-0.028427 6:-0.027391 7:-0.033907 8:0.032977 9:0.011530 10:-0.005719 11:-0.059315 12:0.009921 13:-0.033530 14:-0.056348 15:-0.009270 16:-0.048886 17:-0.048343 18:-0.025760 19:-0.059017 20:-0.095989 21:-0.059120 22:-0.030107 23:-0.053291 24:-0.057629 25:-0.088218 26:-0.052749 27:-0.091548 28:-0.105905 29:-0.096130 30:-0.095751 31:-0.062009 32:-0.116792 33:-0.128335 34:-0.084047 35:-0.073971 36:-0.066890 37:-0.097241 38:-0.111595 39:-0.053540 40:-0.136171 41:-0.091967 42:-0.154441 43:-0.117574 44:-0.073413 45:-0.192604 46:-0.112687 47:-0.161022 48:-0.138612 49:-0.120905 50:-0.168221 51:-0.168777 52:-0.149810 53:-0.131839 54:-0.125650 55:-0.168906 56:-0.189791 57:-0.145617 58:-0.187042 59:-0.166653 60:-0.219604 61:-0.188096 62:-0.199915 63:-0.133071 64:-0.242938 65:-0.195395 66:-0.123717 67:-0.197894 68:-0.128667 69:-0.211034 70:-0.194443
1 1:0.017599 2:0.039029 3:0.005025 4:-0.014057 5:-0.015935 6:-0.004705 7:-0.009621 8:-0.081586 9:-0.065721 10:-0.051414 11:0.006155 12:-0.060505 13:-0.024579 14:-0.071862 15:0.020501 16:-0.046543 17:-0.071316 18:-0.050018 19:-0.082969 20:-0.104506 21:-0.043397 22:-0.064713 23:-0.040463 24:-0.025092 25:-0.077756 26:-0.098902 27:-0.106722 28:-0.039598 29:-0.077970 30:-0.066119 31:-0.090912 32:-0.125550 33:-0.053285 34:-0.067611 35:-0.133241 36:-0.084718 37:-0.059179 38:-0.104031 39:-0.130427 40:-0.194633 41:-0.099024 42:-0.070293 43:-0.101001 44:-0.146845 45:-0.177612 46:-0.161539 47:-0.118738 48:-0.132916 49:-0.140641 50:-0.140904 51:-0.120716 52:-0.092772 53:-0.184155 54:-0.157857 55:-0.154457 56:-0.160381 57:-0.123233 58:-0.166281 59:-0.178202 60:-0.245417 61:-0.160548 62:-0.159067 63:-0.171984 64:-0.198251 65:-0.165405 66:-0.202345 67:-0.195675 68:-0.194173 69:-0.179869 70:-0.186492
1 1:-0.012615 2:-0.026594 3:-0.022836 4:-0.020049 5:-0.010023 6:0.042147 7:-0.052316 8:-0.058753 9:-0.082496 10:-0.037616 11:-0.028858 12:-0.034308 13:-0.084462 14:0.002585 15:-0.037033 16:-0.040639 17:-0.048185 18:-0.007223 19:-0.075917 20:-0.059971 21:-0.013072 22:-0.030954 23:-0.046430 24:-0.086736 25:-0.070228 26:-0.081882 27:-0.092875 28:-0.072312 29:-0.069017 30:-0.081649 31:-0.118714 32:-0.097675 33:-0.101962 34:-0.056786 35:-0.073182 36:-0.124820 37:-0.121357 38:-0.158824 39:-0.098339 40:-0.084828 41:-0.137705 42:-0.125517 43:-0.119024 44:-0.148054 45:-0.150471 46:-0.167126 47:-0.120869 48:-0.109879 49:-0.088411 50:-0.095827 51:-0.129696 52:-0.144191 53:-0.158502 54:-0.127911 55:-0.143013 56:-0.113781 57:-0.193892 58:-0.156094 59:-0.153209 60:-0.164680 61:-0.194548 62:-0.195509 63:-0.091580 64:-0.154350 65:-0.194150 66:-0.186405 67:-0.181736 68:-0.300266 69:-0.220205 70:-0.229718
1 1:0.047656 2:0.030399 3:0.001144 4:-0.015396 5:-0.026097 6:-0.006368 7:-0.023653 8:-0.064650 9:0.018347 10:-0.062592 11:-0.002217 12:-0.062869 13:-0.020653 14:-0.005574 15:-0.045704 16:-0.042332 17:-0.082651 18:-0.000573 19:-0.033744 20:-0.110102 21:-0.057267 22:-0.045232 23:-0.100482 24:-0.124862 25:-0.038314 26:-0.056652 27:-0.106745 28:-0.028806 29:-0.115149 30:-0.018621 31:-0.092797 32:-0.070673 33:-0.141811 34:-0.122582 35:-0.051261 36:-0.055746 37:-0.134829 38:-0.123883 39:-0.093547 40:-0.042598 41:-0.129667 42:-0.089884 43:-0.117103 44:-0.110576 45:-0.140806 46:-0.117892 47:-0.131417 48:-0.147266 49:-0.186722 50:-0.153216 51:-0.159136 52:-0.156940 53:-0.133108 54:-0.171427 55:-0.126328 56:-0.190853 57:-0.171564 58:-0.222209 59:-0.177910 60:-0.167022 61:-0.165511 62:-0.198279 63:-0.172174 64:-0.213736 65:-0.201109 66:-0.163223 67:-0.211258 68:-0.138375 69:-0.154560 70:-0.178679
1 1:0.036123 2:0.000078 3:-0.038603 4:-0.060975 5:-0.029799 6:-0.012353 7:-0.047443 8:-0.050159 9:0.023391 10:-0.057346 11:-0.043576 12:-0.007942 13:-0.006960 14:-0.035150 15:-0.020798 16:-0.049765 17:-0.020797 18:-0.043844 19:-0.009455 20:0.002207 21:-0.095419 22:-0.063384 23:-0.105901 24:-0.059600 25:-0.104130 26:-0.111551 27:0.016055 28:-0.118358 29:-0.054250 30:-0.099544 31:-0.100836 32:-0.099198 33:-0.063995 34:-0.146980 35:-0.087373 36:-0.106250 37:-0.069404 38:-0.073828 39:-0.045569 40:-0.084461 41:-0.143961 42:-0.155489 43:-0.155785 44:-0.101398 45:-0.091238 46:-0.161906 47:-0.148033 48:-0.156129 49:-0.119204 50:-0.127578 51:-0.141394 52:-0.158622 53:-0.166611 54:-0.100798 55:-0.127832 56:-0.208624 57:-0.174745 58:-0.190874 59:-0.198074 60:-0.163967 61:-0.191916 62:-0.196584 63:-0.175753 64:-0.166113 65:-0.169450 66:-0.172187 67:-0.180421 68:-0.203566 69:-0.211954 70:-0.186579
1 1:-0.034233 2:-0.051864 3:-0.053016 4:0.011449 5:-0.051983 6:0.037251 7:-0.017327 8:0.001253 9:-0.049360 10:-0.029127 11:0.011977 12:-0.038199 13:-0.046403 14:-0.009492 15:-0.011110 16:0.009932 17:-0.046542 18:-0.030526 19:-0.072739 20:-0.030337 21:-0.053727 22:-0.024815 23:-0.068041 24:-0.079798 25:-0.076612 26:-0.076815 27:-0.086458 28:-0.070720 29:-0.033367 30:-0.129529 31:-0.124531 32:-0.100464 33:-0.086032 34:-0.081640 35:-0.071832 36:-0.073050 37:-0.087184 38:-0.098322 39:-0.089305 40:-0.154978 41:-0.141760 42:-0.113313 43:-0.174280 44:-0.098529 45:-0.104006 46:-0.127161 47:-0.156028 48:-0.143341 49:-0.177655 50:-0.121557 51:-0.157322 52:-0.105845 53:-0.156636 54:-0.139558 55:-0.156008 56:-0.219533 57:-0.167594 58:-0.158591 59:-0.148132 60:-0.178483 61:-0.168898 62:-0.189383 63:-0.191751 64:-0.195094 65:-0.121606 66:-0.220314 67:-0.179599 68:-0.203243 69:-0.214450 70:-0.207871
1 1:0.026493 2:0.039062 3:-0.006376 4:-0.042206 5:0.011329 6:-0.057523 7:-0.012470 8:0.004044 9:0.012289 10:-0.042984 11:-0.029401 12:-0.066545 13:-0.034916 14:-0.028783 15:-0.090372 16:-0.032736 17:-0.002687 18:-0.069647 19:-0.106754 20:-0.060301 21:-0.056931 22:-0.018003 23:-0.100592 24:-0.018191 25:-0.039239 26:-0.094636 27:-0.080583 28:-0.118090 29:-0.110626 30:-0.084607 31:-0.063244 32:-0.022787 33:-0.097164 34:-0.089915 35:-0.096569 36:-0.115322 37:-0.100693 38:-0.111590 39:-0.115572 40:-0.113500 41:-0.150114 42:-0.113543 43:-0.095474 44:-0.123222 45:-0.142052 46:-0.136885 47:-0.117760 48:-0.114702 49:-0.165504 50:-0.197399 51:-0.129559 52:-0.157563 53:-0.185383 54:-0.195214 55:-0.130880 56:-0.155631 57:-0.174611 58:-0.156450 59:-0.171130 60:-0.156262 61:-0.182315 62:-0.179716 63:-0.201080 64:-0.169196 65:-0.175153 66:-0.149608 67:-0.211180 68:-0.170676 69:-0.206427 70:-0.189472
1 1:0.008951 2:-0.049358 3:-0.007894 4:-0.011476 5:-0.032014 6:-0.052686 7:-0.014159 8:-0.048169 9:0.014247 10:-0.004783 11:-0.045355 12:-0.032548 13:-0.019003 14:-0.065746 15:-0.002512 16:-0.086128 17:-0.101690 18:-0.076587 19:-0.037313 20:-0.065580 21:-0.065814 22:-0.072889 23:-0.037209 24:-0.062010 25:-0.081748 26:-0.096311 27:-0.045411 28:-0.073899 29:-0.087685 30:-0.050326 31:-0.062112 32:-0.118465 33:-0.033952 34:-0.090864 35:-0.159215 36:-0.093252 37:-0.068956 38:-0.126757 39:-0.117518 40:-0.096451 41:-0.155767 42:-0.132544 43:-0.129243 44:-0.122090 45:-0.160953 46:-0.094016 47:-0.137543 48:-0.133661 49:-0.138951 50:-0.142161 51:-0.138534 52:-0.199496 53:-0.144628 54:-0.118306 55:-0.163555 56:-0.197015 57:-0.126083 58:-0.173850 59:-0.145057 60:-0.189023 61:-0.169484 62:-0.153517 63:-0.140615 64:-0.143813 65:-0.218970 66:-0.246761 67:-0.212407 68:-0.196245 69:-0.186453 70:-0.181475
1 1:-0.014747 2:-0.036584 3:-0.030462 4:-0.050819 5:0.009729 6:0.028698 7:0.018339 8:-0.020594 9:-0.046109 10:-0.030501 11:-0.043198 12:-0.023744 13:-0.023952 14:0.004010 15:-0.036798 16:-0.053877 17:-0.026244 18:-0.054246 19:-0.080842 20:-0.097341 21:-0.062076 22:-0.023838 23:-0.038991 24:-0.089865 25:-0.074339 26:-0.119069 27:-0.066685 28:-0.095167 29:-0.020457 30:-0.067938 31:-0.068447 32:-0.131581 33:-0.056782 34:-0.161250 35:-0.082215 36:-0.118074 37:-0.120434 38:-0.142957 39:-0.100929 40:-0.093731 41:-0.098721 42:-0.093053 43:-0.196994 44:-0.144239 45:-0.147801 46:-0.132146 47:-0.121507 48:-0.095369 49:-0.172654 50:-0.152417 51:-0.160688 52:-0.140430 53:-0.147520 54:-0.164906 55:-0.200166 56:-0.147071 57:-0.121707 58:-0.175251 59:-0.147202 60:-0.185120 61:-0.187886 62:-0.177562 63:-0.146750 64:-0.196535 65:-0.176618 66:-0.150340 67:-0.215510 68:-0.167831 69:-0.185415 70:-0.208621
1 1:0.000561 2:0.019016 3:-0.039873 4:-0.025691 5:-0.061471 6:-0.043826 7:-0.067246 8:-0.038308 9:-0.035047 10:-0.053670 11:-0.070669 12:-0.021380 13:-0.015373 14:-0.047042 15:-0.026326 16:-0.046008 17:-0.074619 18:-0.074542 19:-0.054886 20:-0.031659 21:-0.037926 22:-0.020085 23:-0.061936 24:-0.027028 25:-0.102764 26:-0.063509 27:-0.099788 28:-0.098413 29:-0.059451 30:-0.101283 31:-0.077433 32:-0.062019 33:-0.033394 34:-0.145059 35:-0.116116 36:-0.102543 37:-0.110900 38:-0.086109 39:-0.091065 40:-0.080775 41:-0.115912 42:-0.118348 43:-0.105785 44:-0.141903 45:-0.150275 46:-0.110336 47:-0.145332 48:-0.132126 49:-0.064819 50:-0.170443 51:-0.144339 52:-0.136273 53:-0.160826 54:-0.146840 55:-0.089784 56:-0.139875 57:-0.167308 58:-0.182747 59:-0.176785 60:-0.178559 61:-0.143656 62:-0.229771 63:-0.201282 64:-0.203650 65:-0.139053 66:-0.189298 67:-0.222773 68:-0.188562 69:-0.214215 70:-0.254512
1 1:0.047324 2:0.014973 3:-0.053547 4:-0.001247 5:-0.025750 6:-0.020110 7:-0.044791 8:-0.024522 9:-0.030503 10:0.015130 11:-0.045116 12:-0.046478 13:-0.051676 14:-0.053409 15:-0.019646 16:-0.007750 17:-0.051974 18:-0.071471 19:-0.021271 20:-0.078340 21:-0.035711 22:-0.058142 23:-0.075132 24:-0.060396 25:-0.072917 26:-0.155078 27:-0.066287 28:-0.062069 29:-0.069318 30:-0.117813 31:-0.118346 32:-0.106339 33:-0.109594 34:-0.095190 35:-0.085802 36:-0.078140 37:-0.115397 38:-0.057539 39:-0.115066 40:-0.125233 41:-0.076793 42:-0.136489 43:-0.116453 44:-0.154194 45:-0.119866 46:-0.164107 47:-0.108899 48:-0.160703 49:-0.129304 50:-0.151516 51:-0.149783 52:-0.171558 53:-0.107954 54:-0.176509 55:-0.115332 56:-0.201830 57:-0.171779 58:-0.209893 59:-0.136060 60:-0.208326 61:-0.133003 62:-0.122657 63:-0.179565 64:-0.186853 65:-0.166107 66:-0.185535 67:-0.213655 68:-0.170896 69:-0.211685 70:-0.208177
1 1:0.018799 2:-0.016511 3:0.018296 4:-0.011893 5:-0.015281 6:0.001064 7:-0.010908 8:-0.065091 9:-0.019453 10:-0.073829 11:-0.010139 12:-0.000363 13:0.004666 14:-0.073303 15:-0.017622 16:-0.055724 17:-0.060749 18:0.000286 19:-0.051340 20:-0.031352 21:-0.096188 22:-0.070606 23:-0.067772 24:-0.094302 25:-0.083395 26:-0.062072 27:-0.052988 28:-0.109590 29:-0.071755 30:-0.086896 31:-0.124879 32:-0.087974 33:-0.087892 34:-0.054562 35:-0.119015 36:-0.073814 37:-0.099528 38:-0.157748 39:-0.124658 40:-0.113234 41:-0.140618 42:-0.087121 43:-0.113355 44:-0.121281 45:-0.165063 46:-0.161225 47:-0.121070 48:-0.081094 49:-0.106155 50:-0.161768 51:-0.122281 52:-0.151167 53:-0.170172 54:-0.145657 55:-0.143658 56:-0.208160 57:-0.145288 58:-0.196867 59:-0.162716 60:-0.156337 61:-0.190283 62:-0.175163 63:-0.209965 64:-0.173915 65:-0.149087 66:-0.156863 67:-0.193550 68:-0.178350 69:-0.228732 70:-0.224053
1 1:0.012502 2:0.049238 3:0.013321 4:-0.039918 5:0.023681 6:-0.042757 7:-0.034817 8:0.010649 9:-0.028062 10:0.011201 11:-0.032647 12:0.013448 13:-0.058979 14:-0.009878 15:-0.075307 16:-0.030455 17:-0.056315 18:-0.001562 19:-0.048489 20:-0.005402 21:-0.046032 22:-0.042260 23:-0.035228 24:-0.083810 25:-0.021155 26:-0.015317 27:-0.056965 28:-0.095539 29:-0.081842 30:-0.076892 31:-0.047755 32:-0.132759 33:-0.079120 34:-0.082026 35:-0.063248 36:-0.139916 37:-0.114730 38:-0.115079 39:-0.100634 40:-0.126911 41:-0.126649 42:-0.133028 43:-0.117195 44:-0.137304 45:-0.134549 46:-0.130864 47:-0.155295 48:-0.108344 49:-0.119727 50:-0.125636 51:-0.161289 52:-0.153096 53:-0.168126 54:-0.138833 55:-0.115094 56:-0.217101 57:-0.180282 58:-0.181826 59:-0.177723 60:-0.140193 61:-0.164573 62:-0.174996 63:-0.172544 64:-0.170549 65:-0.215619 66:-0.208583 67:-0.192791 68:-0.200125 69:-0.250823 70:-0.196733
1 1:0.005167 2:0.001576 3:-0.047820 4:0.036576 5:-0.000291 6:-0.015766 7:0.002701 8:-0.092532 9:0.000225 10:-0.058043 11:-0.027693 12:-0.084474 13:-0.016991 14:0.011289 15:-0.043172 16:-0.018392 17:-0.075412 18:-0.068026 19:-0.041514 20:-0.116656 21:-0.059049 22:-0.039390 23:-0.036097 24:-0.109053 25:-0.068752 26:-0.026850 27:-0.075627 28:-0.056413 29:-0.066284 30:-0.114286 31:-0.103222 32:-0.062730 33:-0.093308 34:-0.142792 35:-0.134840 36:-0.101652 37:-0.093836 38:-0.082989 39:-0.111667 40:-0.150512 41:-0.056175 42:-0.116666 43:-0.101336 44:-0.104072 45:-0.145932 46:-0.159959 47:-0.144835 48:-0.141407 49:-0.135292 50:-0.145871 51:-0.092334 52:-0.110107 53:-0.104972 54:-0.140501 55:-0.159712 56:-0.202023 57:-0.221568 58:-0.170842 59:-0.129375 60:-0.131397 61:-0.200028 62:-0.207344 63:-0.241320 64:-0.173421 65:-0.164240 66:-0.185908 67:-0.230009 68:-0.184001 69:-0.200358 70:-0.140947
1 1:-0.025458 2:0.018565 3:0.029234 4:-0.048308 5:0.032179 6:-0.017635 7:-0.059490 8:-0.045485 9:-0.003593 10:-0.055319 11:-0.039751 12:-0.009353 13:-0.082601 14:-0.007490 15:-0.001206 16:0.012418 17:-0.045733 18:-0.077241 19:-0.062934 20:-0.009340 21:-0.035237 22:-0.027830 23:-0.046376 24:-0.080607 25:-0.036029 26:-0.091835 27:-0.080912 28:-0.068222 29:-0.066854 30:-0.095917 31:-0.108846 32:-0.066515 33:-0.133351 34:-0.071697 35:-0.076143 36:-0.084401 37:-0.182652 38:-0.098419 39:-0.127530 40:-0.097903 41:-0.113367 42:-0.128760 43:-0.105684 44:-0.121555 45:-0.160996 46:-0.143676 47:-0.110623 48:-0.094559 49:-0.137483 50:-0.113129 51:-0.145989 52:-0.151643 53:-0.135603 54:-0.231246 55:-0.188911 56:-0.168701 57:-0.132955 58:-0.186167 59:-0.184552 60:-0.161417 61:-0.216523 62:-0.166721 63:-0.107093 64:-0.200266 65:-0.187642 66:-0.167355 67:-0.169817 68:-0.202574 69:-0.162484 70:-0.255680
1 1:-0.013294 2:0.007404 3:-0.042919 4:-0.022267 5:0.022665 6:-0.032787 7:-0.017611 8:0.004211 9:-0.021339 10:0.011559 11:-0.026591 12:-0.053432 13:-0.028135 14:-0.037042 15:-0.066338 16:-0.041546 17:-0.040229 18:-0.012028 19:-0.063317 20:-0.086107 21:0.005025 22:-0.068502 23:-0.069933 24:-0.065046 25:-0.108136 26:-0.060335 27:-0.091913 28:-0.066740 29:-0.080153 30:-0.068605 31:-0.061666 32:-0.140244 33:-0.093428 34:-0.097981 35:-0.144883 36:-0.097877 37:-0.092124 38:-0.132576 39:-0.086005 40:-0.064648 41:-0.049152 42:-0.116992 43:-0.100950 44:-0.099720 45:-0.102655 46:-0.135460 47:-0.208218 48:-0.115507 49:-0.109255 50:-0.150947 51:-0.148074 52:-0.190913 53:-0.210724 54:-0.145191 55:-0.119800 56:-0.164141 57:-0.187882 58:-0.194138 59:-0.173770 60:-0.176123 61:-0.189487 62:-0.195775 63:-0.231053 64:-0.180451 65:-0.154582 66:-0.197697 67:-0.186397 68:-0.151753 69:-0.193760 70:-0.179698
1 1:0.020113 2:-0.012900 3:0.014711 4:-0.027057 5:-0.006556 6:-0.023774 7:-0.040299 8:-0.026411 9:-0.015041 10:-0.044381 11:-0.057107 12:-0.035366 13:-0.105383 14:-0.072249 15:-0.015748 16:-0.038667 17:-0.007717 18:-0.077658 19:-0.046886 20:0.018307 21:-0.039996 22:-0.057005 23:-0.070759 24:-0.082918 25:-0.077556 26:-0.050957 27:-0.085110 28:-0.030112 29:-0.098344 30:-0.074860 31:-0.094367 32:-0.143024 33:-0.088425 34:-0.094778 35:-0.180111 36:-0.119931 37:-0.124309 38:-0.123499 39:-0.070572 40:-0.116547 41:-0.097464 42:-0.096670 43:-0.133768 44:-0.052230 45:-0.171745 46:-0.135681 47:-0.176786 48:-0.140568 49:-0.152233 50:-0.123123 51:-0.127157 52:-0.175135 53:-0.145886 54:-0.107241 55:-0.151655 56:-0.181482 57:-0.164886 58:-0.164337 59:-0.172225 60:-0.188823 61:-0.177870 62:-0.175102 63:-0.142722 64:-0.232818 65:-0.210080 66:-0.178597 67:-0.157949 68:-0.178799 69:-0.195130 70:-0.177322
1 1:-0.017625 2:0.014986 3:-0.014215 4:-0.011773 5:0.005726 6:-0.088467 7:-0.025459 8:-0.063808 9:-0.037490 10:-0.097834 11:0.017888 12:-0.021751 13:-0.030282 14:-0.033501 15:-0.062071 16:-0.058478 17:-0.017810 18:-0.037604 19:-0.069570 20:-0.022320 21:-0.007455 22:-0.064973 23:-0.100393 24:-0.066809 25:-0.041724 26:-0.065500 27:-0.069453 28:-0.079140 29:-0.065808 30:-0.072897 31:-0.050309 32:-0.148321 33:-0.062328 34:-0.048160 35:-0.141066 36:-0.087050 37:-0.098689 38:-0.146847 39:-0.160240 40:-0.043124 41:-0.171918 42:-0.075109 43:-0.094920 44:-0.106366 45:-0.090568 46:-0.154522 47:-0.129764 48:-0.149832 49:-0.155327 50:-0.109081 51:-0.151398 52:-0.156938 53:-0.148783 54:-0.157118 55:-0.204500 56:-0.175802 57:-0.201858 58:-0.209872 59:-0.195339 60:-0.133836 61:-0.116761 62:-0.181108 63:-0.199227 64:-0.123743 65:-0.186583 66:-0.198194 67:-0.209751 68:-0.179325 69:-0.189628 70:-0.192981
1 1:0.052813 2:-0.049455 3:-0.022574 4:-0.012493 5:-0.018648 6:-0.001493 7:-0.040370 8:-0.011479 9:-0.013221 10:-0.013452 11:-0.042385 12:-0.052595 13:0.026729 14:-0.016516 15:-0.075493 16:-0.069011 17:-0.086223 18:-0.045118 19:-0.090591 20:-0.110949 21:-0.038089 22:-0.080704 23:-0.018564 24:-0.108070 25:-0.110472 26:-0.081643 27:-0.090886 28:-0.096978 29:-0.063624 30:-0.077794 31:-0.090981 32:-0.109682 33:-0.099801 34:-0.138351 35:-0.093338 36:-0.089370 37:-0.089981 38:-0.074480 39:-0.082849 40:-0.148559 41:-0.164344 42:-0.134307 43:-0.098215 44:-0.124790 45:-0.129078 46:-0.155728 47:-0.126911 48:-0.126990 49:-0.151881 50:-0.133007 51:-0.113484 52:-0.138323 53:-0.170855 54:-0.124704 55:-0.167608 56:-0.077542 57:-0.144780 58:-0.153079 59:-0.135166 60:-0.127613 61:-0.191519 62:-0.139431 63:-0.186957 64:-0.246406 65:-0.220293 66:-0.201466 67:-0.223446 68:-0.196154 69:-0.163852 70:-0.200472
1 1:0.044169 2:0.000972 3:-0.016571 4:0.000151 5:0.000901 6:-0.043855 7:-0.026082 8:-0.024868 9:0.032160 10:-0.063787 11:-0.057381 12:-0.032787 13:-0.027994 14:-0.008064 15:-0.003337 16:0.020148 17:-0.071024 18:-0.028978 19:-0.030946 20:-0.053949 21:-0.035622 22:-0.058895 23:-0.014626 24:-0.080264 25:-0.042234 26:-0.053549 27:-0.113034 28:-0.056835 29:-0.067150 30:-0.125230 31:-0.109191 32:-0.132958 33:-0.123924 34:-0.092651 35:-0.049165 36:-0.063797 37:-0.084634 38:-0.157610 39:-0.089702 40:-0.142168 41:-0.128851 42:-0.104830 43:-0.154911 44:-0.171044 45:-0.113562 46:-0.179295 47:-0.165571 48:-0.184260 49:-0.109742 50:-0.121903 51:-0.107056 52:-0.170030 53:-0.138147 54:-0.164786 55:-0.163866 56:-0.163207 57:-0.165583 58:-0.217630 59:-0.084090 60:-0.190402 61:-0.125764 62:-0.148116 63:-0.158125 64:-0.211883 65:-0.234928 66:-0.174867 67:-0.163600 68:-0.181871 69:-0.203960 70:-0.185211
1 1:-0.013250 2:-0.020186 3:-0.069853 4:-0.035104 5:0.016439 6:-0.032946 7:-0.032114 8:-0.029607 9:0.010117 10:-0.042594 11:-0.031671 12:-0.029209 13:-0.084193 14:-0.040322 15:-0.020139 16:-0.017729 17:-0.081149 18:-0.111795 19:-0.045066 20:-0.099074 21:-0.096445 22:-0.110456 23:-0.061174 24:-0.026930 25:-0.078308 26:-0.039105 27:-0.057417 28:-0.098142 29:-0.118817 30:-0.029218 31:-0.074352 32:-0.073215 33:-0.079267 34:-0.094329 35:-0.089418 36:-0.110719 37:-0.097803 38:-0.048628 39:-0.108480 40:-0.110246 41:-0.076004 42:-0.071752 43:-0.153192 44:-0.110638 45:-0.061278 46:-0.119590 47:-0.166591 48:-0.119164 49:-0.182589 50:-0.185953 51:-0.190347 52:-0.118643 53:-0.153586 54:-0.170330 55:-0.170600 56:-0.149318 57:-0.147168 58:-0.142453 59:-0.157900 60:-0.205198 61:-0.208671 62:-0.186530 63:-0.162534 64:-0.187874 65:-0.209849 66:-0.158035 67:-0.190170 68:-0.196709 69:-0.184852 70:-0.215050
1 1:0.001650 2:0.033756 3:-0.003193 4:-0.022269 5:-0.019526 6:-0.028503 7:-0.023662 8:-0.039986 9:-0.030310 10:-0.093369 11:-0.069490 12:0.018347 13:-0.071646 14:-0.036043 15:-0.034757 16:-0.014786 17:-0.043371 18:0.021360 19:-0.059217 20:-0.086095 21:-0.028424 22:-0.066703 23:-0.045949 24:-0.103336 25:-0.088715 26:-0.075787 27:-0.059732 28:-0.088576 29:-0.077181 30:-0.105566 31:-0.094572 32:-0.152799 33:-0.040769 34:-0.118328 35:-0.067065 36:-0.096724 37:-0.116570 38:-0.106965 39:-0.059632 40:-0.146111 41:-0.170733 42:-0.089648 43:-0.144131 44:-0.096066 45:-0.076725 46:-0.133835 47:-0.120153 48:-0.102801 49:-0.144614 50:-0.100074 51:-0.109179 52:-0.168187 53:-0.182946 54:-0.116271 55:-0.196970 56:-0.134959 57:-0.176116 58:-0.130130 59:-0.198244 60:-0.173359 61:-0.136706 62:-0.172994 63:-0.226083 64:-0.193160 65:-0.162772 66:-0.224055 67:-0.200939 68:-0.248226 69:-0.139731 70:-0.208519
1 1:-0.041881 2:-0.028332 3:-0.021238 4:-0.017519 5:-0.071321 6:-0.030030 7:0.003328 8:-0.038085 9:-0.027086 10:-0.089357 11:-0.005471 12:-0.056496 13:-0.087516 14:-0.012915 15:-0.039901 16:-0.041235 17:-0.019766 18:-0.052332 19:-0.048044 20:-0.061264 21:-0.045191 22:-0.030781 23:-0.058426 24:-0.058144 25:-0.105966 26:-0.080882 27:-0.121283 28:-0.092370 29:-0.016198 30:-0.081764 31:-0.010710 32:-0.069011 33:-0.083733 34:-0.094216 35:-0.048428 36:-0.120562 37:-0.106088 38:-0.081008 39:-0.103475 40:-0.100368 41:-0.136593 42:-0.101456 43:-0.088655 44:-0.105834 45:-0.171782 46:-0.159268 47:-0.161508 48:-0.155642 49:-0.137164 50:-0.197562 51:-0.137577 52:-0.118963 53:-0.108736 54:-0.203995 55:-0.194509 56:-0.178167 57:-0.170376 58:-0.160060 59:-0.157398 60:-0.187900 61:-0.139945 62:-0.175302 63:-0.194483 64:-0.186775 65:-0.163346 66:-0.167692 67:-0.140150 68:-0.217458 69:-0.183808 70:-0.250188
1 1:0.004713 2:-0.017958 3:0.004722 4:-0.008958 5:-0.032206 6:-0.037080 7:-0.035956 8:-0.029774 9:-0.024007 10:-0.059413 11:-0.036988 12:0.006754 13:-0.038041 14:-0.023753 15:-0.011696 16:-0.041822 17:-0.108717 18:-0.074902 19:-0.053493 20:-0.031973 21:-0.038916 22:-0.098906 23:-0.018763 24:-0.038832 25:-0.001972 26:-0.067174 27:-0.127249 28:-0.070368 29:-0.077749 30:-0.069855 31:-0.047038 32:-0.109670 33:-0.076781 34:-0.092075 35:-0.077614 36:-0.122328 37:-0.052027 38:-0.074671 39:-0.123939 40:-0.096877 41:-0.109809 42:-0.157883 43:-0.109911 44:-0.116382 45:-0.130782 46:-0.149428 47:-0.167739 48:-0.168453 49:-0.152294 50:-0.131294 51:-0.188456 52:-0.154573 53:-0.162152 54:-0.179412 55:-0.183693 56:-0.112574 57:-0.157141 58:-0.132814 59:-0.150851 60:-0.130714 61:-0.188819 62:-0.179982 63:-0.159497 64:-0.169521 65:-0.225110 66:-0.222079 67:-0.208888 68:-0.214917 69:-0.196647 70:-0.188893
1 1:0.030646 2:-0.035530 3:0.006041 4:-0.001300 5:0.000238 6:-0.015642 7:-0.034160 8:-0.065374 9:-0.017176 10:-0.049730 11:-0.003822 12:-0.065088 13:-0.041294 14:-0.054382 15:-0.043636 16:-0.047010 17:-0.053321 18:-0.044625 19:-0.022034 20:-0.076957 21:-0.064128 22:-0.078753 23:-0.084638 24:-0.099847 25:-0.065344 26:-0.092306 27:-0.066188 28:-0.107314 29:-0.010543 30:-0.097087 31:-0.106196 32:-0.026960 33:-0.128466 34:-0.104737 35:-0.093231 36:-0.067746 37:-0.119518 38:-0.091172 39:-0.150234 40:-0.085927 41:-0.168365 42:-0.123342 43:-0.150298 44:-0.147937 45:-0.113820 46:-0.120689 47:-0.122976 48:-0.199382 49:-0.100307 50:-0.138197 51:-0.158408 52:-0.177789 53:-0.116243 54:-0.141386 55:-0.192539 56:-0.099094 57:-0.198728 58:-0.083605 59:-0.170708 60:-0.182929 61:-0.196282 62:-0.177233 63:-0.147353 64:-0.210706 65:-0.222545 66:-0.169002 67:-0.170983 68:-0.167886 69:-0.180461 70:-0.210139
1 1:-0.007285 2:-0.053788 3:-0.010286 4:0.002467 5:-0.027236 6:-0.035781 7:-0.037837 8:0.010889 9:-0.037865 10:0.013950 11:-0.006565 12:-0.066846 13:-0.028758 14:-0.043639 15:-0.076067 16:-0.090770 17:-0.024418 18:-0.043295 19:-0.032495 20:-0.038025 21:-0.045976 22:-0.077302 23:-0.110032 24:-0.107830 25:-0.070225 26:-0.079195 27:-0.089437 28:-0.073161 29:-0.093165 30:-0.118947 31:-0.132826 32:-0.154317 33:-0.078105 34:-0.106545 35:-0.113642 36:-0.089671 37:-0.092150 38:-0.106256 39:-0.100107 40:-0.141620 41:-0.111939 42:-0.124686 43:-0.117521 44:-0.111292 45:-0.132152 46:-0.088643 47:-0.166897 48:-0.119018 49:-0.179127 50:-0.122066 51:-0.156156 52:-0.185901 53:-0.156821 54:-0.176077 55:-0.125596 56:-0.170976 57:-0.164373 58:-0.224673 59:-0.139278 60:-0.150307 61:-0.206228 62:-0.205038 63:-0.146849 64:-0.190635 65:-0.171807 66:-0.151937 67:-0.189416 68:-0.140232 69:-0.168046 70:-0.173410
1 1:0.002854 2:0.075121 3:-0.046128 4:0.011991 5:0.000015 6:-0.016585 7:-0.064188 8:-0.015355 9:-0.059196 10:-0.108841 11:-0.004063 12:-0.024650 13:-0.062725 14:-0.108315 15:0.004293 16:-0.001357 17:-0.037550 18:-0.032878 19:-0.048744 20:-0.027220 21:-0.032306 22:-0.059536 23:-0.110897 24:-0.081713 25:-0.047613 26:-0.114522 27:-0.062861 28:-0.061640 29:-0.083082 30:-0.111208 31:-0.143369 32:-0.089746 33:-0.070530 34:-0.107909 35:-0.154824 36:-0.139474 37:-0.051152 38:-0.089376 39:-0.074601 40:-0.111270 41:-0.088011 42:-0.058985 43:-0.118756 44:-0.135996 45:-0.124378 46:-0.155264 47:-0.119874 48:-0.144104 49:-0.149777 50:-0.120828 51:-0.136572 52:-0.216051 53:-0.105850 54:-0.142136 55:-0.191823 56:-0.130808 57:-0.163818 58:-0.197288 59:-0.146799 60:-0.164611 61:-0.161391 62:-0.157865 63:-0.140317 64:-0.200893 65:-0.224696 66:-0.209631 67:-0.202440 68:-0.159834 69:-0.190166 70:-0.195576
1 1:0.006492 2:-0.075611 3:0.002751 4:-0.022767 5:0.023019 6:0.012977 7:-0.031400 8:0.015978 9:-0.034874 10:-0.086008 11:-0.076727 12:-0.018843 13:-0.003627 14:-0.038426 15:-0.076866 16:0.015408 17:-0.059729 18:-0.057369 19:-0.003036 20:-0.017027 21:-0.024083 22:0.007087 23:-0.048330 24:-0.083409 25:-0.067334 26:-0.066612 27:-0.123909 28:-0.077652 29:-0.051467 30:-0.070402 31:-0.096575 32:-0.070729 33:-0.135736 34:-0.091923 35:-0.112201 36:-0.120617 37:-0.104676 38:-0.081879 39:-0.099425 40:-0.105650 41:-0.110657 42:-0.171274 43:-0.140557 44:-0.125747 45:-0.158318 46:-0.141443 47:-0.112732 48:-0.120837 49:-0.113260 50:-0.142969 51:-0.164541 52:-0.099289 53:-0.169738 54:-0.135304 55:-0.159615 56:-0.118072 57:-0.184334 58:-0.161059 59:-0.221040 60:-0.199953 61:-0.129851 62:-0.166836 63:-0.182641 64:-0.133592 65:-0.206959 66:-0.177762 67:-0.223705 68:-0.184492 69:-0.229938 70:-0.211863
1 1:0.010454 2:-0.039038 3:-0.023764 4:-0.033542 5:-0.003545 6:-0.022872 7:-0.004613 8:-0.038193 9:0.014218 10:-0.023950 11:-0.017378 12:-0.069619 13:-0.048687 14:-0.032278 15:-0.040417 16:-0.037513 17:-0.047986 18:-0.053675 19:0.018240 20:-0.091666 21:-0.044626 22:-0.057812 23:0.005374 24:-0.103622 25:-0.035925 26:-0.041363 27:-0.016740 28:-0.047076 29:-0.058000 30:-0.056472 31:-0.091726 32:-0.096040 33:-0.055203 34:-0.066657 35:-0.087966 36:-0.128284 37:-0.137318 38:-0.137389 39:-0.115866 40:-0.135549 41:-0.085178 42:-0.090855 43:-0.121725 44:-0.200113 45:-0.146528 46:-0.127121 47:-0.091670 48:-0.067449 49:-0.178400 50:-0.160718 51:-0.182211 52:-0.172595 53:-0.133264 54:-0.140268 55:-0.130132 56:-0.145863 57:-0.123880 58:-0.187711 59:-0.221339 60:-0.226029 61:-0.161259 62:-0.177515 63:-0.155471 64:-0.189234 65:-0.181417 66:-0.188496 67:-0.198070 68:-0.198994 69:-0.195575 70:-0.224572
1 1:-0.024998 2:-0.008100 3:-0.042998 4:-0.015512 5:-0.043619 6:0.054136 7:0.009827 8:-0.045152 9:-0.055309 10:-0.011754 11:-0.048825 12:-0.020030 13:-0.063910 14:-0.045681 15:-0.030016 16:-0.014776 17:0.001575 18:-0.091182 19:-0.009133 20:-0.036640 21:-0.098280 22:-0.043118 23:-0.031691 24:-0.078345 25:-0.027795 26:-0.094969 27:-0.101956 28:-0.086651 29:-0.078911 30:-0.086338 31:-0.147797 32:-0.071001 33:-0.116070 34:-0.083008 35:-0.087955 36:-0.122900 37:-0.096818 38:-0.136126 39:-0.113554 40:-0.127773 41:-0.106685 42:-0.078187 43:-0.108141 44:-0.129636 45:-0.122099 46:-0.167245 47:-0.121244 48:-0.142323 49:-0.179650 50:-0.154376 51:-0.053997 52:-0.139582 53:-0.119409 54:-0.119429 55:-0.177994 56:-0.104860 57:-0.166833 58:-0.145153 59:-0.208156 60:-0.203833 61:-0.172653 62:-0.189146 63:-0.164567 64:-0.190303 65:-0.209437 66:-0.228171 67:-0.184273 68:-0.163677 69:-0.223025 70:-0.193332
1 1:0.019698 2:-0.032860 3:-0.045112 4:-0.039939 5:-0.010448 6:-0.003667 7:-0.062167 8:-0.052892 9:0.024240 10:-0.015557 11:-0.058726 12:0.047534 13:-0.053181 14:0.014348 15:-0.033842 16:-0.045875 17:-0.051329 18:-0.047744 19:0.002357 20:-0.066549 21:-0.117393 22:-0.056446 23:-0.087442 24:-0.063576 25:-0.065544 26:-0.042026 27:-0.053088 28:-0.071315 29:-0.108564 30:-0.107058 31:-0.058403 32:-0.142527 33:-0.072359 34:-0.108530 35:-0.124587 36:-0.098155 37:-0.087682 38:-0.146870 39:-0.126963 40:-0.120866 41:-0.114251 42:-0.133043 43:-0.121720 44:-0.070934 45:-0.099391 46:-0.179497 47:-0.141395 48:-0.145203 49:-0.115077 50:-0.098195 51:-0.173601 52:-0.094529 53:-0.192976 54:-0.123806 55:-0.118718 56:-0.187105 57:-0.115665 58:-0.187978 59:-0.175945 60:-0.195231 61:-0.110587 62:-0.187980 63:-0.224121 64:-0.182432 65:-0.223264 66:-0.196957 67:-0.180016 68:-0.203967 69:-0.197803 70:-0.161725
1 1:-0.017711 2:-0.017627 3:-0.023445 4:0.009116 5:-0.063170 6:-0.000019 7:-0.092648 8:-0.043606 9:-0.011023 10:-0.040695 11:-0.012098 12:-0.018741 13:-0.059731 14:-0.061798 15:-0.095529 16:-0.101150 17:-0.001810 18:-0.017582 19:-0.079188 20:-0.103231 21:-0.079999 22:-0.093785 23:-0.043210 24:-0.065130 25:-0.070875 26:-0.105253 27:-0.021659 28:-0.116872 29:-0.094148 30:-0.078451 31:-0.119885 32:-0.049949 33:-0.076627 34:-0.125126 35:-0.108344 36:-0.161798 37:-0.148159 38:-0.076431 39:-0.122203 40:-0.108853 41:-0.083804 42:-0.117310 43:-0.095908 44:-0.150308 45:-0.135458 46:-0.142907 47:-0.124342 48:-0.154550 49:-0.173036 50:-0.107766 51:-0.088823 52:-0.144613 53:-0.122911 54:-0.195320 55:-0.120638 56:-0.194911 57:-0.129219 58:-0.129447 59:-0.210584 60:-0.185460 61:-0.199437 62:-0.109073 63:-0.174508 64:-0.203856 65:-0.145592 66:-0.195481 67:-0.139144 68:-0.203937 69:-0.206966 70:-0.186124
1 1:0.003484 2:-0.044091 3:-0.021600 4:0.051390 5:-0.024249 6:-0.025675 7:0.001753 8:-0.032794 9:-0.034087 10:0.001482 11:-0.015040 12:-0.035391 13:-0.035932 14:-0.034462 15:-0.013886 16:-0.051063 17:-0.079921 18:-0.019224 19:-0.020341 20:-0.063666 21:-0.077153 22:-0.035813 23:-0.065800 24:-0.050123 25:-0.031543 26:-0.099758 27:-0.062771 28:-0.131958 29:-0.070703 30:-0.089164 31:-0.103880 32:-0.124074 33:-0.115975 34:-0.064652 35:-0.130619 36:-0.085536 37:-0.074971 38:-0.129571 39:-0.115651 40:-0.136161 41:-0.134791 42:-0.097717 43:-0.125965 44:-0.134973 45:-0.120386 46:-0.136208 47:-0.140813 48:-0.143275 49:-0.168519 50:-0.145250 51:-0.165836 52:-0.143057 53:-0.113792 54:-0.149470 55:-0.161831 56:-0.182682 57:-0.129575 58:-0.173445 59:-0.163766 60:-0.141722 61:-0.190969 62:-0.169939 63:-0.196821 64:-0.191875 65:-0.118941 66:-0.230533 67:-0.183374 68:-0.227796 69:-0.187731 70:-0.203395
1 1:-0.020968 2:0.004555 3:-0.011926 4:-0.010400 5:0.009099 6:-0.009217 7:-0.057664 8:-0.053295 9:-0.056022 10:-0.076621 11:-0.035022 12:-0.033783 13:0.011124 14:-0.090268 15:-0.003435 16:-0.022497 17:-0.048284 18:-0.054797 19:-0.059361 20:-0.053100 21:-0.050865 22:-0.064626 23:-0.060893 24:-0.055120 25:-0.053835 26:-0.065062 27:-0.064650 28:-0.104227 29:-0.120837 30:-0.101489 31:-0.085390 32:-0.121400 33:-0.054159 34:-0.169406 35:-0.102962 36:-0.119530 37:-0.098278 38:-0.114289 39:-0.070127 40:-0.142744 41:-0.129493 42:-0.090849 43:-0.159668 44:-0.180981 45:-0.117889 46:-0.151469 47:-0.076629 48:-0.135701 49:-0.140524 50:-0.128950 51:-0.158447 52:-0.112241 53:-0.177497 54:-0.117686 55:-0.163085 56:-0.190075 57:-0.171289 58:-0.190480 59:-0.072359 60:-0.101714 61:-0.157519 62:-0.169916 63:-0.205816 64:-0.198270 65:-0.165130 66:-0.140114 67:-0.207529 68:-0.180560 69:-0.249389 70:-0.214666
1 1:0.029107 2:-0.053727 3:-0.043321 4:0.038502 5:-0.041831 6:-0.029193 7:-0.003046 8:-0.030033 9:-0.090362 10:-0.060710 11:-0.004101 12:-0.094700 13:-0.058951 14:-0.017623 15:-0.071572 16:-0.039869 17:-0.000505 18:-0.047039 19:-0.077819 20:-0.019712 21:-0.102441 22:-0.076092 23:-0.013686 24:-0.093372 25:-0.039848 26:-0.092625 27:-0.106234 28:-0.122933 29:-0.044922 30:-0.087271 31:-0.042872 32:-0.132196 33:-0.092889 34:-0.057014 35:-0.043013 36:-0.097867 37:-0.118784 38:-0.093652 39:-0.075771 40:-0.111673 41:-0.089121 42:-0.140654 43:-0.112188 44:-0.145672 45:-0.103682 46:-0.142076 47:-0.125646 48:-0.177267 49:-0.150796 50:-0.166288 51:-0.185090 52:-0.102428 53:-0.159479 54:-0.098574 55:-0.186790 56:-0.176660 57:-0.174392 58:-0.193589 59:-0.160827 60:-0.160772 61:-0.152043 62:-0.146738 63:-0.154117 64:-0.187420 65:-0.157835 66:-0.230827 67:-0.189714 68:-0.240531 69:-0.161723 70:-0.192112
1 1:-0.033180 2:-0.020334 3:0.001354 4:0.009245 5:-0.004454 6:-0.007288 7:0.022211 8:-0.031386 9:-0.056784 10:-0.020078 11:-0.012009 12:-0.018701 13:0.027982 14:-0.037831 15:-0.099879 16:-0.083808 17:-0.060927 18:-0.065699 19:-0.031427 20:-0.019916 21:-0.093552 22:-0.002654 23:-0.054656 24:-0.030959 25:-0.092677 26:-0.008486 27:-0.073388 28:-0.084576 29:-0.152378 30:-0.110204 31:-0.115874 32:-0.070403 33:-0.057898 34:-0.082275 35:-0.103076 36:-0.086281 37:-0.085993 38:-0.059638 39:-0.105960 40:-0.091629 41:-0.104412 42:-0.131374 43:-0.078956 44:-0.111135 45:-0.085923 46:-0.098860 47:-0.147734 48:-0.148592 49:-0.142210 50:-0.154356 51:-0.176948 52:-0.136166 53:-0.132262 54:-0.166382 55:-0.133889 56:-0.150107 57:-0.165585 58:-0.170017 59:-0.193942 60:-0.184665 61:-0.228879 62:-0.196611 63:-0.217403 64:-0.176839 65:-0.214611 66:-0.209437 67:-0.208949 68:-0.189910 69:-0.150087 70:-0.201370
