-1 1:-0.063773 2:-0.286206 3:-1.072936 4:0.287572 5:-0.271841 6:-1.835926 7:0.315116 8:-0.886116 9:1.717120 10:0.893254 11:-0.834158 12:-1.921927 13:0.133724 14:-1.995085 15:-0.432103 16:-0.181386 17:-1.319617 18:0.086706 19:-0.078685 20:0.065874 21:0.241006 22:0.150390 23:0.287542 24:-0.952585 25:0.963525 26:-0.635889 27:-0.377726 28:-0.126951 29:2.676509 30:0.173495 31:-0.466923 32:-1.709218 33:-1.081227 34:-0.546384 35:1.295467 36:-0.443807 37:0.015890 38:-1.524637 39:0.149625 40:0.370712 41:-0.205901 42:1.439477 43:-1.328601 44:0.386733 45:-0.551994 46:2.293372 47:0.636049 48:-2.331611 49:0.256272 50:-1.723788 51:1.353269 52:-1.738671 53:0.590052 54:-0.458473 55:-1.199691
-1 1:-0.102985 2:-0.592009 3:-0.140306 4:1.074890 5:0.679012 6:-0.486634 7:-0.880477 8:-0.569463 9:-0.164881 10:-0.387122 11:-0.189085 12:-1.223301 13:-0.172747 14:-0.225268 15:-0.901674 16:0.876557 17:0.054875 18:-0.272573 19:0.842805 20:-0.672862 21:0.761747 22:-0.703147 23:0.097876 24:0.610330 25:0.344863 26:0.076590 27:0.090319 28:0.147889 29:1.294957 30:0.691101 31:-1.420072 32:1.018823 33:-0.194520 34:-0.824669 35:-0.354360 36:-3.050346 37:-0.443597 38:2.248376 39:0.512509 40:1.590875 41:0.022928 42:0.492102 43:0.868643 44:-0.074295 45:0.753034 46:-0.867302 47:-0.295184 48:-1.243344 49:2.415318 50:-1.910784 51:-0.340944 52:-0.409091 53:0.277580 54:-1.472286 55:0.868863
-1 1:-1.462071 2:-0.136382 3:-0.681674 4:0.933794 5:0.437617 6:0.818147 7:-0.501508 8:-0.029903 9:1.458541 10:-0.998461 11:-0.512624 12:-1.201240 13:-0.350653 14:1.230581 15:0.678295 16:-0.582437 17:1.907923 18:0.738082 19:-1.835491 20:-1.002532 21:1.819196 22:0.564808 23:-0.777811 24:0.815082 25:-0.491505 26:-0.594272 27:0.307155 28:1.258243 29:-1.346482 30:-0.160861 31:-2.417396 32:-0.314627 33:0.385776 34:-2.474551 35:0.903928 36:-0.721291 37:-0.888036 38:-1.256579 39:-1.047540 40:1.105592 41:-0.356694 42:-0.643226 43:-0.046757 44:-0.403944 45:1.807333 46:1.194477 47:0.335790 48:-0.801062 49:1.708847 50:0.894178 51:-0.616856 52:1.212361 53:0.350255 54:-0.560362 55:0.089446
-1 1:1.353700 2:0.233692 3:-0.185898 4:-1.666224 5:0.374184 6:-0.542753 7:-0.381826 8:-0.663343 9:-2.275296 10:-0.078975 11:-1.391737 12:0.020796 13:1.249508 14:0.607821 15:0.507606 16:0.129696 17:0.508416 18:0.532976 19:-1.337962 20:0.834952 21:-0.748742 22:0.296899 23:-0.227537 24:-1.219328 25:1.077967 26:1.028389 27:-0.639332 28:0.800641 29:0.015789 30:1.111895 31:-1.145986 32:0.349764 33:-1.209622 34:0.798854 35:0.030033 36:2.050935 37:-1.005991 38:-0.548985 39:0.640112 40:0.338061 41:-1.020300 42:-0.365835 43:0.916073 44:-0.007235 45:0.713267 46:-0.330659 47:0.649162 48:1.252066 49:1.794582 50:-1.765570 51:0.549517 52:0.142890 53:-0.920587 54:-0.873897 55:-0.907085
-1 1:2.070761 2:0.784116 3:0.758535 4:0.210693 5:-0.507537 6:-0.147054 7:-0.793255 8:-0.344219 9:0.387661 10:-0.155608 11:1.804606 12:-0.099737 13:1.029481 14:1.342339 15:0.899354 16:0.443104 17:-0.653672 18:-0.303261 19:1.343709 20:1.484566 21:1.226339 22:0.083708 23:-0.724621 24:-1.365290 25:-0.216053 26:0.468120 27:-0.063724 28:0.923735 29:-1.365740 30:0.128130 31:0.732062 32:0.419288 33:0.440438 34:-0.164771 35:1.527679 36:-0.862456 37:-0.926142 38:1.093489 39:0.202933 40:0.883150 41:-0.745125 42:-2.599795 43:-1.052887 44:-0.671047 45:-1.790687 46:-1.247427 47:0.716819 48:0.000555 49:0.775977 50:-1.091277 51:-0.086889 52:0.103915 53:-0.835378 54:0.132097 55:0.224394
-1 1:1.512091 2:-0.972059 3:-0.519594 4:-0.368494 5:-1.598129 6:0.075947 7:-0.027056 8:0.319726 9:0.742294 10:1.270581 11:-1.041763 12:0.814612 13:-0.248475 14:-0.564900 15:-1.147339 16:-0.497594 17:0.804805 18:0.950393 19:0.474996 20:-0.379605 21:0.140704 22:0.613164 23:0.317199 24:0.042525 25:-0.701121 26:-0.430942 27:-0.574214 28:1.175639 29:0.022770 30:0.745650 31:-0.769417 32:-0.972104 33:0.603606 34:0.016395 35:-0.373163 36:-0.074255 37:-0.320685 38:1.224540 39:-1.446064 40:0.371972 41:0.204996 42:0.581158 43:-0.244545 44:0.062611 45:-0.302115 46:-0.023845 47:0.046253 48:0.156642 49:0.802593 50:0.212578 51:0.876655 52:1.328181 53:0.147952 54:0.740023 55:0.529827
-1 1:-0.744523 2:-0.074923 3:1.659360 4:-1.734127 5:-1.008668 6:1.251135 7:0.773213 8:0.509790 9:0.811773 10:0.333219 11:0.259758 12:0.434240 13:0.754677 14:-0.450450 15:-1.518515 16:0.689156 17:0.343373 18:-0.199955 19:-0.633498 20:0.012363 21:-1.441728 22:-2.243992 23:0.812576 24:-0.616825 25:-0.001605 26:-0.176306 27:0.690674 28:0.475553 29:1.018971 30:-0.165811 31:-0.180022 32:-0.147576 33:-0.950445 34:0.663129 35:1.166939 36:1.185562 37:1.114954 38:-0.757823 39:-0.421898 40:0.856450 41:-0.179935 42:-0.595269 43:0.626613 44:-0.982462 45:0.487359 46:0.314932 47:0.312008 48:0.724818 49:-1.132576 50:1.770160 51:0.307331 52:-0.781509 53:-0.330384 54:-0.987548 55:0.701134
-1 1:-0.259014 2:0.162482 3:-1.740953 4:-0.381592 5:-0.825255 6:-0.922230 7:0.553028 8:-1.841691 9:1.231533 10:0.671558 11:1.135854 12:-2.420532 13:-2.945675 14:0.860767 15:2.419467 16:1.418423 17:0.344606 18:1.127181 19:0.388649 20:-0.376410 21:0.345900 22:0.466662 23:0.249930 24:0.494316 25:0.954090 26:0.794639 27:-0.184047 28:0.984103 29:-0.532171 30:1.086591 31:-0.137860 32:1.610339 33:-0.274342 34:0.763994 35:-0.657361 36:-0.213929 37:-1.074142 38:-0.095353 39:1.383796 40:0.970038 41:-1.466286 42:-0.381244 43:0.062543 44:1.299473 45:0.049601 46:1.870936 47:-0.673581 48:-0.166490 49:0.862985 50:1.382724 51:0.278802 52:-0.334028 53:-0.731495 54:-0.474700 55:0.221439
-1 1:0.162296 2:1.788566 3:1.246770 4:1.337510 5:0.353522 6:-0.961503 7:0.402672 8:-0.624248 9:1.196025 10:-1.528642 11:0.263999 12:-1.264877 13:0.770704 14:1.144832 15:0.878094 16:0.951095 17:0.240630 18:-0.452857 19:0.194836 20:-1.830972 21:-0.385064 22:-0.598934 23:-0.156711 24:0.585056 25:0.391741 26:-0.045983 27:0.173247 28:0.534986 29:1.453243 30:-0.103049 31:0.868261 32:-0.406716 33:0.966880 34:0.624335 35:-0.474357 36:0.151020 37:-0.424575 38:1.865392 39:1.002808 40:1.277755 41:0.790989 42:0.042069 43:-0.211070 44:-0.129196 45:0.680470 46:1.838963 47:-1.753052 48:0.238184 49:-0.964388 50:-0.552696 51:0.684607 52:0.905519 53:0.657638 54:0.303226 55:0.280633
-1 1:-0.170676 2:-0.591795 3:-0.958714 4:-0.157590 5:-0.563127 6:-0.455449 7:-0.050114 8:-0.863447 9:0.483856 10:0.638381 11:1.198441 12:0.468347 13:-1.487851 14:0.443622 15:-1.508116 16:-1.341987 17:0.623567 18:1.377804 19:1.320503 20:-1.926582 21:0.700425 22:-0.960857 23:0.315294 24:-1.342689 25:-1.677601 26:1.007066 27:-0.979999 28:-0.306291 29:1.013071 30:0.128192 31:0.236511 32:-0.370144 33:-1.338768 34:-2.139942 35:0.172536 36:-1.123534 37:-1.619279 38:1.913217 39:0.785211 40:-2.366750 41:-1.186165 42:0.462910 43:-1.603503 44:0.491597 45:-0.046635 46:0.544280 47:-2.221759 48:0.058814 49:0.767544 50:0.824520 51:1.427215 52:0.958870 53:1.367882 54:-0.396799 55:1.949964
-1 1:1.181013 2:1.064989 3:-1.417837 4:1.323101 5:-0.503883 6:0.689578 7:-1.662386 8:0.686461 9:0.261319 10:-1.374937 11:-1.687960 12:-0.800912 13:0.708124 14:0.240426 15:0.802528 16:-0.146644 17:1.438464 18:-0.454831 19:-0.632690 20:1.052779 21:-2.667497 22:-0.088303 23:-0.030524 24:-0.371234 25:-0.085348 26:0.796394 27:1.355707 28:0.938880 29:0.686887 30:0.605143 31:-0.857057 32:0.057649 33:-0.657426 34:-0.673261 35:-0.286783 36:-3.086984 37:-0.833150 38:0.009346 39:-1.084684 40:0.415630 41:-1.465640 42:0.821400 43:-0.974650 44:2.790013 45:0.176968 46:0.847211 47:-0.134321 48:-0.062483 49:-0.007344 50:0.161747 51:0.279320 52:1.024967 53:1.751761 54:1.396057 55:0.767784
-1 1:1.068221 2:-1.017051 3:-0.601320 4:1.140290 5:-2.622685 6:0.846286 7:0.590837 8:-0.478013 9:1.107955 10:-0.022780 11:0.670658 12:-1.006725 13:-0.026979 14:0.359510 15:1.448543 16:-0.501924 17:0.998010 18:-0.111318 19:0.602628 20:-0.866429 21:0.023333 22:0.326737 23:-1.572255 24:0.082693 25:1.111294 26:0.361944 27:-1.196209 28:-0.418216 29:-0.231796 30:-1.493119 31:-0.268973 32:-0.528167 33:-0.270551 34:0.963213 35:0.189011 36:-0.497393 37:0.687246 38:0.390702 39:0.374020 40:1.285411 41:-0.917503 42:0.229809 43:0.892646 44:0.484700 45:-0.338741 46:-0.428925 47:0.603457 48:-0.350165 49:1.072374 50:0.934141 51:1.385551 52:1.270274 53:-1.565177 54:0.903618 55:-0.063431
-1 1:0.141522 2:-1.643374 3:1.331932 4:-0.462516 5:-0.117798 6:0.062611 7:-0.154604 8:-1.040002 9:1.152230 10:-1.745926 11:1.046585 12:1.476039 13:-2.250037 14:-0.183269 15:-1.496670 16:0.105516 17:0.067448 18:-1.807023 19:0.101671 20:0.324514 21:-1.125872 22:-0.067500 23:1.455332 24:-0.310753 25:-0.264681 26:2.053728 27:-0.758861 28:-1.282576 29:-0.082839 30:-0.241050 31:0.283914 32:-0.484909 33:-0.052724 34:0.099564 35:0.816134 36:-2.084340 37:-0.834112 38:-0.678304 39:0.018072 40:0.744855 41:-1.437560 42:-0.659114 43:1.919399 44:-0.350768 45:-0.095370 46:-0.820873 47:0.892405 48:-0.724251 49:0.970776 50:0.426183 51:0.101042 52:0.444755 53:0.223496 54:1.040002 55:1.252237
-1 1:-0.377716 2:-1.306596 3:-0.010660 4:-0.375729 5:0.463815 6:-0.047375 7:2.395725 8:0.151766 9:-0.697488 10:-0.091142 11:-0.515917 12:-0.472751 13:-1.624205 14:-0.271401 15:-0.182549 16:0.344782 17:-0.011733 18:-0.802763 19:1.142219 20:0.378989 21:-1.167493 22:0.279238 23:0.376599 24:-1.439866 25:-0.922844 26:1.195703 27:-0.990745 28:-1.299351 29:-1.939647 30:1.096154 31:-0.974790 32:-0.725898 33:-0.437221 34:-0.723277 35:1.577309 36:-0.848508 37:0.251294 38:-0.073438 39:0.178451 40:0.422686 41:-1.396273 42:0.120828 43:-0.602632 44:0.600947 45:1.208204 46:-0.960749 47:2.230902 48:0.724907 49:-1.015041 50:-2.058870 51:0.065205 52:0.479872 53:-0.245233 54:-0.805054 55:-1.444148
-1 1:0.184120 2:1.384393 3:-1.388979 4:-1.010467 5:0.863532 6:-0.983869 7:0.103229 8:-0.629214 9:2.221364 10:1.221759 11:-0.713976 12:0.492143 13:0.499895 14:-0.910263 15:1.831681 16:1.093061 17:0.456254 18:0.708866 19:-0.212086 20:0.693005 21:-0.151800 22:-0.643829 23:-0.942086 24:-0.841623 25:-1.114584 26:0.210017 27:1.756875 28:-0.181176 29:0.306672 30:0.844786 31:-1.083775 32:1.142870 33:2.141417 34:0.209942 35:-0.135837 36:-1.203437 37:-0.927575 38:0.279704 39:-1.573572 40:-1.578667 41:-3.104407 42:-0.658510 43:-0.398825 44:0.410954 45:0.488942 46:1.399528 47:-0.124320 48:-0.144789 49:0.150006 50:-0.072639 51:1.336380 52:0.475211 53:-0.699674 54:0.250892 55:-0.867388
-1 1:-0.275011 2:0.058848 3:0.333013 4:-0.817840 5:0.984666 6:-0.882727 7:-0.575607 8:-1.016200 9:-1.699779 10:0.586411 11:-0.819488 12:0.047288 13:-0.068978 14:-0.430029 15:0.238852 16:0.869218 17:0.665955 18:-0.298680 19:0.452675 20:1.385121 21:-0.620469 22:-0.015112 23:0.556435 24:1.877161 25:-0.333406 26:0.315584 27:-0.880301 28:-1.806093 29:-0.012541 30:-1.097258 31:0.405681 32:-0.711806 33:1.314521 34:3.106482 35:0.268663 36:-0.824663 37:1.081277 38:-0.384803 39:1.166053 40:0.125904 41:-1.077348 42:-0.647973 43:-0.595463 44:-0.127754 45:2.971497 46:0.866917 47:2.245650 48:1.077993 49:-0.929965 50:0.927164 51:-0.551183 52:1.305650 53:1.492923 54:-0.577668 55:0.606011
-1 1:-0.659452 2:0.639683 3:0.717906 4:1.202459 5:-0.574309 6:-0.935273 7:0.979826 8:-0.235529 9:0.080086 10:-0.311019 11:1.006845 12:0.092233 13:-0.377767 14:0.719954 15:-0.739057 16:1.228863 17:0.590989 18:-0.609607 19:-0.173700 20:0.626072 21:0.898091 22:-0.730521 23:-1.596086 24:-0.572272 25:-0.361467 26:2.006943 27:0.796858 28:-0.103110 29:-0.692313 30:-1.442729 31:-0.697530 32:-0.403141 33:0.786785 34:-0.863015 35:0.454084 36:0.348996 37:-1.671747 38:0.432919 39:1.317819 40:0.692482 41:-0.376197 42:-2.023290 43:-0.763873 44:0.755690 45:0.215946 46:-0.365142 47:0.397949 48:0.990477 49:-0.583898 50:1.808152 51:-0.921815 52:-0.096717 53:-0.094680 54:0.061998 55:0.006823
-1 1:0.776783 2:1.287359 3:-0.026184 4:-0.004245 5:-0.313578 6:1.309238 7:0.177768 8:-0.445650 9:0.296250 10:1.286462 11:0.516436 12:0.386722 13:1.081656 14:-0.113483 15:-1.393360 16:-0.103330 17:-0.924959 18:0.630714 19:-0.827217 20:-0.240630 21:-0.499925 22:-0.521814 23:-1.418935 24:-0.014115 25:-2.297615 26:-0.419685 27:0.057516 28:-0.627825 29:0.268611 30:0.063797 31:0.531516 32:-1.970043 33:0.310666 34:1.093690 35:1.139736 36:-1.356510 37:-0.475760 38:-1.758199 39:1.723425 40:0.426412 41:-0.350717 42:1.157176 43:0.924722 44:0.417235 45:1.045809 46:-1.130585 47:0.381781 48:-1.201948 49:0.680820 50:-0.434777 51:0.874894 52:0.117718 53:0.151708 54:1.821256 55:-1.791551
-1 1:2.537592 2:0.068998 3:-0.156202 4:0.632047 5:0.173619 6:0.218734 7:-1.898839 8:0.486971 9:-2.262267 10:0.779810 11:-1.209157 12:0.593580 13:2.462407 14:-2.108183 15:1.582648 16:-0.601193 17:-0.286607 18:-0.909197 19:0.957899 20:1.433376 21:0.471927 22:-0.120969 23:1.861374 24:0.733385 25:-1.674442 26:-0.813035 27:-0.109209 28:0.229895 29:0.252502 30:-0.106546 31:-1.354448 32:-0.414371 33:0.631683 34:-0.690485 35:-0.611788 36:-0.451475 37:0.572878 38:1.016808 39:0.914645 40:-2.203291 41:1.722605 42:-0.464670 43:0.956123 44:1.554042 45:-1.617586 46:-0.172859 47:-0.813753 48:-0.398492 49:-0.250755 50:1.950567 51:0.183252 52:0.944992 53:-0.595589 54:1.784077 55:0.026059
-1 1:-1.609805 2:0.364567 3:0.118190 4:0.692356 5:-0.866793 6:-1.039629 7:-0.478268 8:-0.385402 9:1.884234 10:-0.326620 11:0.447940 12:-0.560279 13:0.974845 14:1.790910 15:-0.251494 16:-1.261975 17:0.402682 18:0.835431 19:-0.597644 20:0.817479 21:-1.636603 22:0.422646 23:-0.270994 24:0.521917 25:-0.208517 26:-0.277657 27:-0.601505 28:-0.744167 29:-0.593905 30:0.610309 31:0.251736 32:0.445082 33:-0.514539 34:0.080855 35:1.118884 36:-0.387816 37:-0.913157 38:-0.971861 39:-0.098953 40:0.653312 41:-1.100340 42:-0.073758 43:0.297813 44:-1.678075 45:0.533459 46:-0.501091 47:1.162696 48:0.473170 49:0.912533 50:-0.602778 51:0.623226 52:-1.417619 53:1.229789 54:-0.217013 55:-0.188905
-1 1:0.309926 2:-1.823953 3:0.385815 4:0.387858 5:1.267294 6:-0.566711 7:-0.640820 8:1.049869 9:-0.414086 10:0.691712 11:-1.173633 12:0.606429 13:0.201766 14:0.991026 15:-2.178818 16:-0.018097 17:-0.494675 18:0.061973 19:-0.006823 20:1.109088 21:-0.904567 22:1.808772 23:-2.306224 24:-1.211277 25:-2.087848 26:0.261773 27:-0.873114 28:-1.363104 29:0.940382 30:-0.527773 31:-0.820691 32:0.156450 33:-0.652532 34:1.599681 35:0.632345 36:0.123285 37:-0.933670 38:0.724373 39:1.114507 40:0.701194 41:-1.209656 42:0.932898 43:-0.536546 44:0.362627 45:0.191931 46:0.573991 47:-1.770803 48:-0.361094 49:0.316643 50:-0.256100 51:2.026065 52:0.232357 53:0.066095 54:-0.470219 55:0.291874
-1 1:1.496799 2:0.982993 3:0.419743 4:0.150997 5:-0.955830 6:-0.738299 7:-1.436887 8:0.247619 9:0.981871 10:-0.827188 11:0.323579 12:-0.117741 13:-1.034266 14:0.231355 15:-0.610508 16:1.049922 17:0.108385 18:-1.904617 19:1.238905 20:-1.378377 21:0.520396 22:1.592109 23:1.930810 24:1.061681 25:0.133797 26:0.341556 27:0.870964 28:0.755744 29:-0.347987 30:0.191362 31:-1.516857 32:-0.801337 33:-1.291079 34:0.720317 35:-0.298835 36:-0.768290 37:1.242810 38:1.194649 39:0.401827 40:-0.397165 41:-0.488565 42:-0.425687 43:2.194225 44:1.328732 45:-1.695413 46:0.175364 47:2.436080 48:0.093622 49:-0.593557 50:-0.089817 51:-2.271107 52:0.688640 53:-0.059339 54:0.431876 55:-2.064480
-1 1:0.380892 2:-0.555484 3:0.018960 4:1.489330 5:-1.801282 6:-2.288232 7:-1.523127 8:-0.171429 9:0.503836 10:1.149181 11:-0.721814 12:-0.759975 13:0.096630 14:0.147739 15:0.675698 16:-1.215909 17:0.581609 18:0.378895 19:-2.367082 20:0.754821 21:-1.301750 22:-0.137968 23:0.812996 24:0.899194 25:0.029953 26:0.746686 27:1.089574 28:1.034140 29:-0.436054 30:0.866129 31:0.204122 32:-0.076739 33:0.432467 34:-1.062451 35:0.957331 36:-0.086811 37:-0.383663 38:-1.355078 39:0.474127 40:-0.814016 41:0.391963 42:1.085031 43:-0.975513 44:0.023015 45:1.294364 46:0.446558 47:-0.003222 48:-0.085705 49:-0.472596 50:-0.268934 51:-0.106706 52:-1.610812 53:0.802474 54:-0.558946 55:0.697792
-1 1:0.353048 2:-0.429480 3:-0.550736 4:-0.033297 5:0.095740 6:-0.886587 7:-0.931548 8:-0.322367 9:0.311001 10:-1.548475 11:0.892887 12:2.083054 13:-0.113352 14:1.145056 15:0.291242 16:0.948956 17:1.189084 18:-0.360081 19:-0.780635 20:0.997428 21:-0.446933 22:0.365237 23:1.206833 24:0.377754 25:1.697058 26:-0.334307 27:-1.630583 28:-1.148006 29:-0.633009 30:-0.440358 31:1.428104 32:-0.574273 33:-0.713919 34:1.033431 35:-0.263439 36:0.612089 37:1.657037 38:-0.596220 39:0.201858 40:-0.023106 41:0.912844 42:0.110006 43:-0.077908 44:-1.359750 45:-0.452774 46:-0.059588 47:-1.056384 48:-1.877577 49:1.664184 50:-1.507758 51:-1.326821 52:0.772421 53:1.195182 54:-0.561876 55:1.555561
-1 1:0.099583 2:0.561337 3:-0.215722 4:0.540483 5:0.601525 6:-0.144137 7:-0.330800 8:0.684369 9:1.384489 10:0.584868 11:-0.700478 12:0.577011 13:-1.268233 14:0.287673 15:0.664542 16:0.648981 17:-0.036348 18:1.891984 19:-0.423789 20:-0.959735 21:-0.415526 22:-1.389065 23:0.780696 24:-0.258839 25:-1.164400 26:0.406512 27:-1.086183 28:2.284021 29:-0.904164 30:2.721298 31:0.304734 32:-1.476915 33:0.702218 34:-1.209950 35:0.869697 36:-0.127370 37:-0.049987 38:1.218746 39:0.314612 40:0.166482 41:-0.169708 42:0.791900 43:0.714224 44:0.335311 45:1.294557 46:2.035885 47:0.619109 48:-0.527501 49:-0.457868 50:0.265005 51:0.176496 52:-0.480154 53:0.609591 54:0.430570 55:0.763260
-1 1:1.766911 2:1.810637 3:-0.257905 4:0.333246 5:-0.737711 6:0.096000 7:1.122382 8:0.955833 9:-2.342296 10:-0.956541 11:-0.564746 12:-0.683258 13:-0.439832 14:-1.442763 15:-0.615598 16:1.682483 17:0.210226 18:0.513729 19:-0.376952 20:0.891832 21:-0.868215 22:-0.866982 23:1.096049 24:-0.026810 25:0.793140 26:0.322178 27:-0.364132 28:0.319224 29:0.263398 30:-1.105656 31:-0.353396 32:-0.303366 33:-0.791726 34:-1.441196 35:-0.274696 36:-0.835284 37:-0.047912 38:-1.387231 39:0.276293 40:0.264525 41:-0.868248 42:1.067036 43:-0.609339 44:-0.734917 45:-0.563618 46:0.981405 47:1.690900 48:0.817226 49:-0.331790 50:2.940222 51:0.489305 52:-0.859929 53:-0.859584 54:-0.023545 55:0.617054
-1 1:-0.890095 2:-0.092284 3:0.199882 4:0.973476 5:-2.009388 6:0.062696 7:0.210813 8:0.386827 9:1.531162 10:0.203067 11:0.127264 12:-0.788705 13:-0.802851 14:-1.681640 15:0.655747 16:-0.419693 17:2.279270 18:1.101742 19:-0.093921 20:-0.109656 21:1.233448 22:-0.707152 23:0.111007 24:0.219777 25:1.469100 26:-0.281747 27:-0.254627 28:0.145039 29:-1.524133 30:0.136456 31:0.523347 32:-0.935379 33:-0.456265 34:-1.298786 35:-0.604751 36:2.654127 37:-0.820639 38:0.504771 39:-1.726122 40:1.456530 41:-0.160986 42:0.654500 43:0.823333 44:-0.264455 45:0.868263 46:1.558175 47:0.182051 48:-0.392115 49:-1.389461 50:0.682819 51:0.176276 52:-0.442676 53:0.360850 54:-0.650038 55:-1.146131
-1 1:-1.496477 2:-0.063207 3:0.106934 4:0.322751 5:0.758231 6:1.059255 7:-0.781150 8:0.473670 9:1.432047 10:0.851625 11:0.446395 12:1.328276 13:-0.772402 14:-1.617444 15:0.228558 16:-0.057755 17:-0.066145 18:-0.905836 19:0.235603 20:0.371462 21:0.985820 22:0.470998 23:1.161601 24:-0.748181 25:0.490207 26:-0.031252 27:-1.089709 28:-0.215226 29:-3.085297 30:-2.170199 31:0.289528 32:-2.015204 33:-0.949035 34:-0.791307 35:-1.601441 36:1.601655 37:-0.378629 38:-1.172518 39:-0.412461 40:-0.406866 41:1.018939 42:0.887394 43:0.218490 44:-0.795934 45:-0.686140 46:-1.180112 47:-0.962719 48:0.007043 49:1.261650 50:-0.517189 51:-1.042094 52:-1.256748 53:-1.384701 54:-0.926657 55:-1.350290
-1 1:1.539765 2:-1.536619 3:0.262641 4:1.280942 5:-0.057511 6:-2.385369 7:1.200268 8:0.078615 9:-0.334710 10:1.460679 11:0.799636 12:-0.762209 13:-0.845205 14:1.323090 15:-0.177198 16:-0.715007 17:-1.020680 18:-0.278675 19:1.947719 20:-0.172526 21:-1.206257 22:-0.400838 23:-0.186659 24:0.831804 25:0.614477 26:-1.136340 27:0.890062 28:0.270636 29:0.617393 30:-1.226855 31:0.401039 32:1.066709 33:-0.876090 34:-0.745138 35:-0.566388 36:-0.312086 37:1.418512 38:1.253141 39:-0.130277 40:1.296284 41:0.608655 42:0.045345 43:0.555087 44:0.149528 45:0.712578 46:-0.005955 47:1.374827 48:-0.344139 49:-0.806183 50:-0.009748 51:1.731230 52:-0.167093 53:0.281320 54:-1.417389 55:0.303064
-1 1:0.869510 2:-2.318381 3:-0.337844 4:-0.138657 5:-0.618945 6:1.001065 7:0.361714 8:0.521378 9:-0.518870 10:1.693663 11:-0.312371 12:0.208329 13:-0.067623 14:-1.039369 15:-0.422869 16:1.322021 17:0.706211 18:-0.911465 19:-0.839632 20:-1.102032 21:0.471438 22:0.389474 23:-0.487685 24:0.255291 25:-0.199908 26:0.533540 27:1.965343 28:0.713731 29:1.238319 30:-1.336752 31:-0.075147 32:1.106352 33:0.954645 34:-1.313221 35:1.231470 36:0.303996 37:0.047482 38:0.581877 39:1.420617 40:0.048851 41:0.186575 42:-0.311399 43:-0.977740 44:-0.667701 45:0.089485 46:0.142648 47:-0.127615 48:0.377664 49:-1.245715 50:0.630436 51:0.678087 52:0.091161 53:0.934179 54:0.027969 55:-0.341651
-1 1:-2.469736 2:1.061026 3:1.216330 4:0.796049 5:-0.820624 6:-1.516454 7:-0.364389 8:2.188678 9:0.828174 10:1.058324 11:1.881768 12:-0.915208 13:0.984379 14:1.567730 15:1.091802 16:0.774696 17:1.063151 18:0.396309 19:1.104631 20:-1.333650 21:1.873599 22:-1.335533 23:-0.973052 24:-1.952014 25:-0.272051 26:0.086821 27:-0.918903 28:-0.365481 29:0.680566 30:1.030188 31:-0.908808 32:0.217460 33:1.454063 34:2.281082 35:-0.995247 36:-0.511351 37:1.217988 38:0.488138 39:-1.599463 40:-1.306486 41:-2.377440 42:-1.878507 43:0.649137 44:1.211383 45:0.750311 46:0.903497 47:-1.139994 48:-0.945921 49:-2.076670 50:0.984783 51:1.021015 52:-0.507499 53:-0.376557 54:-1.717649 55:2.813843
-1 1:-0.364709 2:0.004508 3:1.123423 4:2.225638 5:-2.199205 6:1.727912 7:-0.318522 8:0.250041 9:-0.965601 10:-1.237651 11:0.205211 12:-0.551280 13:0.279513 14:0.155546 15:0.590442 16:0.101570 17:1.878832 18:1.534953 19:0.926684 20:-1.445093 21:1.330762 22:-0.519225 23:-0.102428 24:0.844680 25:-1.403461 26:-1.471055 27:-0.594682 28:-0.524783 29:-0.062515 30:0.436595 31:0.629588 32:-0.165448 33:1.359221 34:-0.457899 35:-0.710931 36:0.849564 37:-2.149669 38:-0.458912 39:2.975415 40:0.332673 41:1.327854 42:-1.436914 43:-0.516325 44:-0.775836 45:1.536691 46:-0.333144 47:-0.251224 48:0.244763 49:0.164317 50:0.964950 51:0.203994 52:-0.029703 53:0.063635 54:-0.144973 55:0.548787
-1 1:1.189997 2:0.217642 3:-0.779268 4:1.569143 5:-0.131808 6:0.551622 7:-0.892029 8:2.693054 9:0.401046 10:2.041184 11:-0.865729 12:-1.140191 13:0.011468 14:-0.773318 15:-0.719363 16:-0.623747 17:-0.077546 18:0.080554 19:-1.706750 20:0.451664 21:0.376170 22:0.109479 23:-0.666455 24:0.258675 25:-0.262185 26:-0.400356 27:-0.878033 28:-0.356905 29:0.730164 30:-1.184677 31:-0.855526 32:-0.623413 33:1.729588 34:0.483662 35:0.279152 36:0.650317 37:1.574868 38:1.305540 39:1.012112 40:0.490961 41:-0.069895 42:0.934344 43:-0.475400 44:2.084603 45:-0.378345 46:-0.910008 47:-0.653017 48:0.918247 49:-0.000813 50:0.677727 51:1.775471 52:-0.444250 53:-0.053109 54:1.806842 55:-1.475391
-1 1:-0.473361 2:1.697552 3:0.155831 4:0.104506 5:0.286670 6:-0.370119 7:-1.326082 8:-0.473065 9:1.342421 10:0.782575 11:1.024874 12:0.577330 13:-0.631376 14:-1.073006 15:1.384008 16:0.103753 17:-1.101200 18:0.873248 19:-1.720607 20:-0.303645 21:-0.782438 22:0.359479 23:0.698454 24:2.337713 25:1.173601 26:-0.156704 27:-1.118542 28:1.865970 29:-1.148053 30:1.071507 31:0.277243 32:1.065022 33:-1.122270 34:-0.680972 35:0.405005 36:0.884948 37:-1.940554 38:0.785834 39:-0.400695 40:-0.293363 41:1.714415 42:0.491024 43:0.748110 44:0.362611 45:0.691182 46:0.205025 47:-1.269034 48:-0.802195 49:0.005564 50:-0.334806 51:0.200740 52:0.378592 53:0.373928 54:0.357445 55:-0.746282
-1 1:1.000087 2:-0.447129 3:-0.124800 4:-0.132518 5:0.165671 6:0.494960 7:-0.662734 8:0.532014 9:2.083113 10:-0.831850 11:-0.062487 12:-2.000413 13:-1.729730 14:1.287821 15:-1.452509 16:0.666682 17:0.890312 18:0.216902 19:0.145586 20:-0.628582 21:1.082775 22:-1.276531 23:0.005730 24:-0.043461 25:-0.692195 26:-0.556312 27:1.914194 28:0.018929 29:0.477094 30:0.401403 31:1.164446 32:0.320987 33:-0.898632 34:-1.161646 35:0.319452 36:0.206020 37:1.931567 38:-0.868161 39:0.572840 40:2.342175 41:-0.392516 42:0.611526 43:-0.352674 44:1.645957 45:3.326200 46:-0.870757 47:2.002790 48:-1.125567 49:1.326365 50:0.613125 51:-0.354369 52:0.835759 53:-0.496415 54:0.238218 55:-0.287181
-1 1:-0.109709 2:-0.146209 3:-1.433565 4:1.069135 5:1.392912 6:-0.138539 7:0.919547 8:-0.222504 9:-0.772449 10:2.024816 11:0.931308 12:-0.436903 13:-1.710790 14:-0.603091 15:-0.118761 16:0.156064 17:1.109445 18:-0.339906 19:1.346172 20:0.865743 21:-0.456171 22:-0.609777 23:0.406929 24:2.238293 25:0.163611 26:0.346898 27:0.321881 28:-0.144164 29:0.490417 30:-1.495464 31:1.026413 32:-0.601240 33:-1.780241 34:-0.177569 35:-1.441021 36:0.066655 37:-0.082915 38:0.649817 39:0.763880 40:-0.526976 41:-0.024733 42:-0.806875 43:3.124108 44:-0.949864 45:-0.392410 46:0.253261 47:0.259798 48:-0.139596 49:0.548742 50:-0.976454 51:0.958430 52:-2.730380 53:-0.128136 54:-0.170906 55:0.088983
-1 1:1.235171 2:1.274431 3:1.088764 4:0.127534 5:-0.305332 6:-0.385621 7:0.183599 8:2.105327 9:2.704210 10:-0.492017 11:-1.348079 12:-0.397606 13:1.022499 14:-0.327964 15:1.058953 16:-0.070619 17:0.514772 18:0.290614 19:-0.070003 20:1.377298 21:0.578164 22:-0.728572 23:0.389344 24:-1.213991 25:-0.253538 26:0.810305 27:0.787402 28:-0.534980 29:-1.142870 30:0.358349 31:-0.519195 32:-0.770871 33:-0.146410 34:-0.236613 35:-0.394325 36:-0.013010 37:0.222500 38:0.167040 39:0.525938 40:0.524063 41:1.040180 42:-2.398286 43:-2.044312 44:-0.328998 45:-1.680920 46:-0.098030 47:-0.103020 48:1.157487 49:0.496703 50:0.256373 51:-0.380872 52:1.152458 53:-1.181421 54:0.301497 55:-1.055851
-1 1:-1.559024 2:-0.210968 3:0.468223 4:-0.507596 5:0.446841 6:0.174788 7:0.717186 8:-0.435630 9:-0.893990 10:-0.778328 11:-0.366841 12:0.504811 13:0.174189 14:-2.240371 15:0.308187 16:-1.798887 17:-0.159426 18:0.756117 19:1.576046 20:1.244499 21:0.996804 22:-0.713068 23:0.167038 24:0.597822 25:0.344394 26:0.855525 27:-1.460496 28:0.741056 29:0.209038 30:0.152900 31:-0.097213 32:-0.994597 33:0.090953 34:0.503358 35:0.949534 36:0.047730 37:-0.089224 38:-1.586498 39:-0.383629 40:-0.297867 41:-1.466967 42:-0.089191 43:-0.094861 44:-1.289899 45:-0.344706 46:-0.748228 47:-0.072412 48:-0.168626 49:-1.262316 50:0.396049 51:-1.660957 52:2.049235 53:0.541800 54:-0.694801 55:-0.575348
-1 1:-1.883316 2:-0.154675 3:0.174139 4:-1.500205 5:-0.055634 6:-0.635891 7:-0.641443 8:1.423066 9:1.300992 10:0.426369 11:1.355799 12:2.131168 13:0.379610 14:-0.853841 15:0.800171 16:1.888162 17:-1.635342 18:-1.352745 19:-0.349176 20:0.332388 21:1.241397 22:-0.639798 23:0.242936 24:0.576262 25:1.047820 26:-0.138381 27:-0.279979 28:1.745797 29:0.810364 30:1.764401 31:0.615645 32:1.365793 33:1.679956 34:-0.246883 35:-0.438262 36:-0.221500 37:-1.077810 38:-1.052233 39:-0.797730 40:0.578619 41:1.610666 42:-2.177898 43:-0.189788 44:0.092388 45:0.299693 46:0.400385 47:-0.031085 48:1.213990 49:-0.003371 50:-0.448065 51:0.667537 52:0.977527 53:-0.149383 54:1.749111 55:1.199407
-1 1:0.902063 2:0.016147 3:-0.067487 4:-0.222730 5:-1.954913 6:2.169745 7:-1.972139 8:0.958498 9:-2.359035 10:-1.066027 11:-1.167933 12:1.086214 13:-0.751230 14:-0.583764 15:-0.800045 16:1.884153 17:-0.814625 18:0.653535 19:3.701778 20:-1.062305 21:-1.495774 22:0.965894 23:0.075670 24:1.683073 25:-0.063624 26:-1.544261 27:0.023397 28:0.752795 29:1.176341 30:-2.799012 31:0.142856 32:2.318782 33:-1.717097 34:0.660328 35:-1.109853 36:1.871111 37:-0.539341 38:0.410312 39:-0.788108 40:0.532518 41:0.562119 42:0.191701 43:1.791108 44:-1.261184 45:-0.823510 46:-0.088485 47:-1.217075 48:-1.928868 49:-0.481178 50:1.193429 51:0.348259 52:-0.284513 53:0.903093 54:0.535777 55:-2.357794
-1 1:0.180761 2:2.251767 3:0.750533 4:1.053858 5:-2.378336 6:-0.988740 7:-1.032625 8:0.793012 9:0.147860 10:0.465789 11:-0.430488 12:-0.084926 13:-0.619977 14:-0.524419 15:2.138528 16:-0.927944 17:0.220494 18:-0.626720 19:-0.159306 20:1.360785 21:-0.254498 22:0.281814 23:0.939375 24:-1.276713 25:0.115259 26:-0.763119 27:0.124851 28:-1.859371 29:0.861104 30:-0.556364 31:-0.177546 32:-1.819426 33:-1.680490 34:0.194249 35:0.215557 36:0.199768 37:1.369622 38:-0.977256 39:-1.566406 40:0.258053 41:-1.623196 42:-2.057005 43:0.182344 44:0.330982 45:-0.650243 46:-0.100536 47:0.295800 48:-0.334104 49:-1.517249 50:0.602059 51:-0.193337 52:0.166676 53:0.447017 54:1.699783 55:-3.214238
-1 1:-0.035656 2:-0.181449 3:0.833315 4:0.342080 5:0.360089 6:0.313329 7:-0.838642 8:-1.321440 9:0.144036 10:-0.921864 11:-0.206282 12:0.926770 13:0.350522 14:-0.752823 15:0.103894 16:1.609476 17:0.912650 18:1.390950 19:-0.035841 20:-1.751613 21:-0.149905 22:1.599589 23:0.391751 24:1.956065 25:-0.474626 26:-1.128631 27:-0.835577 28:0.465206 29:-0.199597 30:0.560329 31:-1.863122 32:0.541742 33:-0.437601 34:-0.187819 35:1.862704 36:-0.811815 37:0.912406 38:-0.189636 39:-0.342630 40:0.876666 41:1.206115 42:-2.075691 43:-1.260449 44:-0.555272 45:-0.723166 46:-0.613328 47:-0.239560 48:2.448573 49:0.954350 50:0.808554 51:0.832463 52:0.368627 53:1.348995 54:-0.568077 55:0.734557
-1 1:0.155884 2:-1.159662 3:-0.768964 4:0.171872 5:-1.000373 6:1.259657 7:-0.833058 8:0.061982 9:-0.728533 10:2.458282 11:0.502235 12:0.646064 13:-0.970554 14:0.136934 15:-0.307037 16:0.139446 17:-0.590874 18:-2.345921 19:-0.145752 20:0.734689 21:-0.536524 22:0.738811 23:0.352249 24:1.464708 25:-1.412882 26:-1.316211 27:-0.164711 28:0.394932 29:0.178111 30:-1.152771 31:1.032578 32:-2.236957 33:-0.133176 34:-0.250290 35:-2.030612 36:-0.685381 37:-0.366984 38:0.558413 39:-1.238096 40:-1.317715 41:1.772996 42:-1.818019 43:-0.315066 44:-0.132530 45:-0.318005 46:1.374118 47:-2.427453 48:0.546419 49:-1.519436 50:-1.781242 51:-0.233055 52:0.722625 53:-0.214703 54:-0.692358 55:-1.820961
-1 1:-0.216620 2:-0.856934 3:-0.290129 4:0.357868 5:-0.311439 6:-0.463327 7:-0.331541 8:-2.011451 9:1.285925 10:-0.003761 11:-0.353357 12:0.022031 13:0.561311 14:1.502102 15:0.339897 16:0.601235 17:0.604412 18:0.100853 19:-0.411240 20:1.142490 21:-0.364126 22:-0.003868 23:-0.281860 24:-0.290277 25:-1.504525 26:-0.392325 27:-0.453469 28:-1.625555 29:-0.055170 30:-0.057987 31:0.111963 32:1.441323 33:0.523130 34:0.912979 35:2.291899 36:-0.257121 37:2.006792 38:-1.600119 39:-1.110520 40:1.857905 41:1.813286 42:0.867084 43:1.012113 44:-0.450633 45:0.417216 46:0.415094 47:-1.307285 48:0.355681 49:0.349339 50:-0.474228 51:-1.095548 52:-1.695450 53:-0.712978 54:0.446724 55:0.095418
-1 1:0.616004 2:-0.912108 3:-0.721049 4:1.270574 5:0.122470 6:-0.690061 7:1.118557 8:-0.096770 9:-1.564142 10:-1.868383 11:1.214635 12:-0.057559 13:-2.020475 14:0.852865 15:-0.120685 16:-0.417860 17:0.013160 18:-1.531048 19:0.731448 20:0.034518 21:-0.740982 22:-0.411391 23:-0.283352 24:1.166866 25:2.183086 26:-0.963760 27:0.032515 28:1.287770 29:-1.561536 30:-3.223923 31:-0.022170 32:-0.912280 33:-2.324752 34:0.776640 35:-1.059347 36:0.222076 37:-1.150542 38:0.249041 39:-0.261599 40:-1.029630 41:-0.285948 42:-0.673394 43:0.231822 44:-1.099711 45:0.239180 46:-0.738902 47:-1.485909 48:0.499493 49:-0.560732 50:-0.705345 51:-0.614690 52:1.099956 53:0.117680 54:1.430601 55:-0.168002
-1 1:0.295557 2:0.412432 3:0.034615 4:-2.475936 5:2.250864 6:-0.635589 7:0.395765 8:-0.451644 9:-0.265318 10:1.304868 11:-0.381534 12:0.804880 13:0.653679 14:-0.642867 15:0.004747 16:0.347109 17:-1.445848 18:0.698081 19:-1.267448 20:0.433942 21:-0.697546 22:0.498474 23:0.631313 24:1.573920 25:0.895864 26:0.974507 27:0.663960 28:-0.856151 29:0.045704 30:1.328082 31:1.739023 32:-0.521875 33:-1.053428 34:-0.707001 35:0.185637 36:0.057925 37:0.134204 38:-0.530351 39:0.390003 40:-0.146935 41:0.004017 42:0.188876 43:0.931476 44:0.458306 45:0.933095 46:1.382457 47:1.033448 48:1.265396 49:0.911345 50:-0.994323 51:0.911260 52:0.562984 53:-0.530175 54:-0.174625 55:-0.824510
-1 1:0.386342 2:0.857156 3:1.606015 4:0.675104 5:-0.038108 6:0.449048 7:-0.599031 8:1.130734 9:-0.588641 10:0.069869 11:-1.323146 12:-0.080941 13:1.055658 14:0.415874 15:1.287315 16:-0.443023 17:-0.381977 18:-1.011099 19:0.328147 20:0.511318 21:0.265687 22:-0.345091 23:-0.565441 24:-1.685159 25:-0.316196 26:1.281739 27:-0.345921 28:-0.955683 29:-1.167355 30:0.850488 31:0.741632 32:1.263738 33:0.866353 34:0.730099 35:-0.463780 36:-1.445032 37:-0.873167 38:-1.049537 39:0.268691 40:0.993273 41:-2.201797 42:0.902986 43:0.464803 44:1.014221 45:-0.125333 46:1.724895 47:0.970090 48:-1.572226 49:0.360245 50:-1.327471 51:-1.260611 52:-0.189083 53:0.795936 54:0.067147 55:0.378612
-1 1:-0.691799 2:-1.269181 3:0.386870 4:0.832469 5:-0.646176 6:-0.638827 7:-0.125507 8:0.190867 9:-0.038634 10:-0.126738 11:-0.264685 12:0.431470 13:1.193924 14:2.062058 15:-0.839097 16:2.378409 17:-0.291755 18:0.327512 19:0.026800 20:1.224266 21:0.858229 22:-1.594915 23:-0.672506 24:0.497160 25:0.997056 26:1.334219 27:0.662539 28:0.429799 29:-0.618889 30:-0.107135 31:1.799951 32:2.029339 33:1.673244 34:0.191476 35:0.273070 36:-0.106962 37:-0.808276 38:-0.203147 39:-0.150574 40:0.253605 41:0.951001 42:-0.464692 43:-0.371856 44:1.282705 45:0.100773 46:1.775671 47:-0.586423 48:-0.947482 49:-0.676722 50:0.780789 51:-0.155454 52:-1.592427 53:0.421809 54:-0.111499 55:0.718583
-1 1:-1.491433 2:0.813699 3:-0.757599 4:-0.877647 5:-1.369148 6:1.325924 7:-1.064473 8:1.257832 9:0.179270 10:-0.025356 11:-0.546179 12:-0.452213 13:-0.655790 14:0.061928 15:-0.706835 16:1.008719 17:-0.098177 18:-1.149201 19:0.576917 20:-0.476471 21:-0.249214 22:0.767471 23:1.284882 24:1.294460 25:-0.245677 26:-1.874200 27:1.290992 28:-0.425952 29:-0.609961 30:-0.304982 31:0.242764 32:1.112673 33:-0.533226 34:-1.981790 35:0.299606 36:-0.227005 37:-0.660840 38:0.187812 39:-1.315109 40:0.529875 41:-0.912513 42:-0.304825 43:0.782196 44:-1.825675 45:1.147307 46:-1.576136 47:-0.641901 48:0.272926 49:-0.233392 50:-1.844490 51:-0.648183 52:0.536286 53:0.878689 54:0.030183 55:-1.273619
-1 1:1.394940 2:0.674057 3:0.274784 4:0.386865 5:0.850197 6:-0.566644 7:1.026392 8:0.771562 9:-0.150294 10:-0.849191 11:0.279478 12:0.814180 13:-2.901683 14:-1.298939 15:-1.014155 16:0.376120 17:0.373633 18:-0.571117 19:0.008078 20:1.307527 21:-0.852232 22:-1.848557 23:0.418527 24:-1.520412 25:0.779566 26:0.994385 27:0.464626 28:0.394538 29:-0.276715 30:0.371437 31:0.633162 32:0.875505 33:-0.842297 34:2.772845 35:-0.270937 36:0.398694 37:0.131609 38:0.020018 39:1.174955 40:-0.873665 41:-0.047990 42:1.049128 43:-0.894394 44:-1.874338 45:-0.674694 46:1.485013 47:1.676576 48:2.424643 49:1.645908 50:-0.327341 51:-0.620382 52:0.331340 53:0.003080 54:0.130999 55:-2.057181
-1 1:-1.303486 2:-1.359393 3:1.143662 4:0.874318 5:0.243749 6:0.760094 7:0.188218 8:1.464676 9:-0.000156 10:0.751927 11:1.473642 12:0.583755 13:-0.490597 14:1.021866 15:1.780236 16:-1.053713 17:1.207047 18:0.107545 19:-0.323126 20:-1.772722 21:0.871411 22:-0.261215 23:0.233425 24:-0.582014 25:-0.125308 26:0.750110 27:0.366940 28:0.508739 29:-1.643815 30:0.201124 31:-0.988137 32:-0.301189 33:-0.654210 34:-0.554368 35:-0.911240 36:0.144520 37:0.238292 38:2.027791 39:-0.141127 40:-0.554434 41:0.419501 42:-0.940629 43:0.564056 44:0.609171 45:0.212483 46:0.720579 47:1.450802 48:1.142928 49:1.119886 50:1.299731 51:0.131521 52:0.231853 53:-1.938423 54:0.691664 55:1.260567
-1 1:-0.611205 2:-0.719916 3:0.562355 4:-0.062065 5:-0.307387 6:0.808694 7:-1.339856 8:-0.203925 9:0.713113 10:-0.348954 11:-0.477881 12:0.836078 13:0.757901 14:0.737468 15:0.224494 16:-0.874184 17:2.424036 18:-1.549708 19:2.032917 20:0.692117 21:-1.097001 22:0.695742 23:0.326644 24:-0.527816 25:0.450094 26:-1.698694 27:-0.434961 28:1.767453 29:-0.417239 30:0.091878 31:0.877714 32:0.971872 33:0.237679 34:-0.161017 35:1.070847 36:-1.149517 37:-0.014221 38:0.629737 39:0.253311 40:1.333949 41:-1.257894 42:-0.835724 43:0.978651 44:-0.359837 45:-0.348317 46:2.012251 47:-1.596858 48:1.655299 49:-0.912086 50:-1.108732 51:0.165223 52:0.499897 53:-0.301342 54:0.844882 55:2.533456
-1 1:0.942151 2:-0.246801 3:-0.373932 4:0.619967 5:-0.392780 6:-1.351353 7:-0.168963 8:-0.195873 9:0.813704 10:-0.430468 11:-1.510940 12:0.587459 13:-0.229170 14:0.977330 15:-0.250787 16:-0.263057 17:1.315498 18:0.905063 19:-1.159537 20:-0.686139 21:1.429455 22:0.560946 23:1.236779 24:0.494490 25:0.307300 26:0.199495 27:-1.261682 28:1.018012 29:-0.375348 30:-0.353876 31:-0.106730 32:-1.012758 33:1.798969 34:-0.283473 35:-0.408433 36:-0.225164 37:1.061476 38:-0.964590 39:-0.809134 40:0.460037 41:0.284675 42:0.643359 43:2.104798 44:0.513890 45:-1.889672 46:1.334613 47:-0.203364 48:0.587190 49:-1.080724 50:1.988223 51:1.339661 52:-1.313287 53:-1.212320 54:1.018654 55:0.778969
-1 1:-0.627696 2:0.155202 3:1.020628 4:1.056243 5:0.162391 6:-1.813014 7:2.112608 8:0.103512 9:0.030299 10:-1.365752 11:-1.739823 12:0.296731 13:0.627974 14:0.815988 15:-0.182437 16:-0.655406 17:-0.535861 18:-0.627717 19:0.214259 20:-0.222172 21:0.720666 22:0.130734 23:0.263685 24:-1.299418 25:-0.075239 26:0.674703 27:-1.063312 28:-0.031648 29:-1.470494 30:1.592557 31:1.997277 32:-0.110383 33:0.403727 34:0.269780 35:-1.494850 36:-0.108595 37:-0.009804 38:-0.891034 39:-0.213230 40:0.941763 41:-0.292962 42:-0.153009 43:0.800609 44:-0.317523 45:-0.885214 46:0.020596 47:-1.461429 48:0.148804 49:0.809150 50:2.101325 51:1.454486 52:1.116637 53:-1.163504 54:-0.231932 55:-0.571018
-1 1:0.239877 2:0.628002 3:-1.449804 4:-0.106099 5:-0.284049 6:0.018581 7:-1.024267 8:0.461587 9:-0.092273 10:0.282312 11:0.980760 12:0.044427 13:0.271713 14:0.589436 15:-0.117179 16:2.172196 17:0.306211 18:1.212563 19:-0.123225 20:0.617641 21:1.062150 22:1.305720 23:-1.035928 24:0.987675 25:0.058234 26:-0.107768 27:0.115789 28:0.827924 29:0.773150 30:1.255213 31:-0.999812 32:-0.163422 33:-0.164657 34:0.233634 35:0.584791 36:0.062572 37:-1.340866 38:0.380561 39:-0.797279 40:1.249464 41:1.401927 42:0.897014 43:1.211540 44:0.684570 45:1.128784 46:0.709374 47:1.185086 48:1.661970 49:0.704292 50:0.461699 51:-0.552611 52:-0.706054 53:0.897341 54:0.569443 55:-0.086896
-1 1:1.411298 2:2.294236 3:-0.922840 4:0.406674 5:2.160117 6:0.635855 7:1.395773 8:0.712691 9:1.663431 10:-1.599392 11:1.324224 12:-0.323259 13:0.285653 14:-0.870038 15:-0.543846 16:0.859837 17:-0.338869 18:-0.238381 19:0.242880 20:1.278111 21:1.671673 22:-2.103678 23:-0.433806 24:1.356924 25:1.060309 26:0.899143 27:1.887822 28:-0.172340 29:0.217773 30:-2.268280 31:-0.133498 32:1.815335 33:-1.440553 34:-0.129652 35:-1.044031 36:0.324464 37:-0.046140 38:1.436498 39:0.673752 40:0.409893 41:-2.960118 42:-0.442009 43:0.118126 44:-0.770819 45:-0.922984 46:2.173759 47:0.526796 48:0.460566 49:0.443270 50:0.301582 51:-0.690244 52:-0.056397 53:0.171024 54:-0.556258 55:-1.112162
-1 1:-2.126386 2:0.897755 3:0.266891 4:-1.580939 5:0.129609 6:-0.488070 7:0.304605 8:0.815123 9:-0.292567 10:2.351319 11:0.583337 12:-0.574701 13:-0.722451 14:0.216075 15:-1.532083 16:-0.393183 17:-0.090112 18:2.129721 19:-0.423421 20:0.709667 21:0.521901 22:1.325091 23:0.775255 24:1.087840 25:-1.078896 26:-0.324029 27:-0.347983 28:0.110891 29:-0.297957 30:-1.714089 31:1.517179 32:0.956765 33:-1.232442 34:0.234041 35:0.376626 36:-0.879915 37:0.895094 38:0.390217 39:-0.177095 40:0.351816 41:-1.873345 42:-0.112100 43:0.242933 44:-0.114201 45:-0.874676 46:1.398642 47:1.363835 48:0.537274 49:-0.419699 50:-2.413168 51:-0.774262 52:-1.740448 53:-0.071522 54:0.152948 55:0.973575
-1 1:0.660245 2:-0.185328 3:0.037663 4:1.390579 5:0.301958 6:1.319429 7:0.652441 8:0.630301 9:0.385380 10:0.340064 11:-0.659507 12:-0.873161 13:-0.496714 14:0.058161 15:-1.456435 16:-0.127804 17:0.703574 18:0.566097 19:0.366741 20:0.686548 21:1.491150 22:1.084320 23:-0.671959 24:-0.419745 25:0.564001 26:-0.268350 27:-0.662335 28:0.780581 29:-0.176341 30:-0.745306 31:0.556221 32:0.035111 33:-0.469073 34:-0.403313 35:-0.135636 36:-0.702942 37:-2.180696 38:-1.357041 39:0.747318 40:-0.442403 41:0.621279 42:1.466929 43:0.832443 44:-0.020513 45:-0.030222 46:-0.786957 47:0.141644 48:0.936655 49:-0.434082 50:-1.289145 51:-0.388740 52:0.072890 53:1.385879 54:1.131303 55:1.739145
-1 1:-0.424966 2:0.422998 3:-0.090136 4:0.541801 5:0.239823 6:-0.305813 7:0.697602 8:1.014267 9:-1.018159 10:0.354260 11:1.055261 12:0.070680 13:0.325680 14:-1.093366 15:0.163706 16:-1.870623 17:-0.160174 18:0.349551 19:-0.961763 20:-0.971575 21:1.376047 22:0.858460 23:1.289645 24:-1.818055 25:-0.058397 26:-1.776812 27:-0.192042 28:-0.538800 29:-2.128637 30:0.923755 31:0.184309 32:1.126029 33:-1.162519 34:1.230027 35:0.785658 36:2.040221 37:0.679126 38:-0.188715 39:-0.714330 40:1.532176 41:0.124753 42:-2.651471 43:-0.816514 44:-0.656051 45:0.404222 46:-0.907259 47:0.398029 48:-1.991009 49:0.410148 50:-0.047023 51:0.545505 52:-1.375270 53:-0.208720 54:0.214513 55:0.019931
-1 1:0.878635 2:0.732820 3:0.357263 4:0.412260 5:-0.731567 6:1.983963 7:-0.514188 8:-1.469955 9:1.402490 10:0.005037 11:-0.155460 12:-0.740200 13:0.415534 14:1.645913 15:0.556177 16:-0.154667 17:-0.487290 18:0.091313 19:-1.439873 20:-0.690384 21:-0.443012 22:2.801675 23:-1.618316 24:-1.003578 25:0.882043 26:1.314402 27:-1.124345 28:-0.238374 29:-1.942632 30:0.988907 31:0.001839 32:-1.999759 33:0.290306 34:-0.418299 35:-0.322263 36:1.256701 37:-0.054882 38:-0.324603 39:-0.550225 40:-0.367327 41:2.039502 42:-0.465815 43:0.227962 44:1.100629 45:1.369171 46:-0.259981 47:0.237516 48:-0.623203 49:-0.774901 50:-0.635724 51:-2.390310 52:-1.992722 53:1.011413 54:-0.495600 55:1.348317
-1 1:-0.870219 2:0.486022 3:0.401230 4:-1.007130 5:1.114674 6:0.604249 7:-1.656563 8:2.132442 9:0.647368 10:1.508056 11:-0.942827 12:-0.665662 13:-0.696171 14:-0.296931 15:0.180244 16:-0.330854 17:-0.083455 18:0.782146 19:0.147984 20:-1.403378 21:-0.761745 22:2.063587 23:-0.478286 24:-0.145358 25:-0.827921 26:-0.777325 27:1.405474 28:-0.257667 29:-0.554280 30:1.357226 31:1.929643 32:2.345982 33:-0.363287 34:0.514487 35:1.295984 36:-1.391902 37:2.342449 38:-0.650645 39:0.262511 40:1.829912 41:0.359937 42:0.904542 43:1.591317 44:-0.290947 45:0.111258 46:0.380585 47:0.810935 48:0.369635 49:-0.147883 50:1.377609 51:0.566258 52:-1.593538 53:0.553441 54:1.108591 55:0.283993
-1 1:-0.218374 2:-0.783851 3:-0.646079 4:1.115696 5:-0.568726 6:0.070244 7:0.454143 8:-0.626513 9:0.951420 10:-0.479886 11:1.338114 12:0.583539 13:-0.032743 14:0.708658 15:-0.057503 16:-0.640608 17:0.925960 18:1.602236 19:-0.852584 20:-0.195901 21:2.276927 22:-0.488304 23:1.240583 24:0.184012 25:-1.328680 26:0.494731 27:1.205770 28:0.433553 29:-0.122712 30:0.677076 31:0.340388 32:-0.070869 33:-0.837462 34:0.261527 35:0.328726 36:-0.384514 37:-0.119801 38:1.042668 39:0.199358 40:0.911686 41:-1.088948 42:2.033368 43:-0.324496 44:-0.529628 45:-0.696730 46:0.576471 47:1.384831 48:1.712628 49:-0.581191 50:-0.270472 51:0.830141 52:-0.134627 53:-0.458547 54:0.527065 55:0.900859
-1 1:-0.177005 2:1.255592 3:0.771846 4:2.492076 5:-1.325157 6:0.847820 7:0.023712 8:-0.742411 9:0.894933 10:-0.928955 11:0.138310 12:-0.118361 13:0.808268 14:1.277030 15:0.970327 16:0.873034 17:-0.400737 18:-0.585701 19:-0.305324 20:-0.795646 21:0.342813 22:-1.249608 23:-0.428472 24:-0.405453 25:1.593846 26:-0.909137 27:0.429343 28:0.948732 29:0.906352 30:-1.198230 31:-0.804154 32:-0.384460 33:0.896335 34:-2.259681 35:0.877815 36:1.389187 37:0.858129 38:1.204506 39:0.826303 40:-0.576582 41:0.062628 42:0.022059 43:-0.866948 44:-0.813582 45:1.689736 46:0.998596 47:0.754148 48:-0.746141 49:-1.272968 50:0.376691 51:0.459775 52:-2.919096 53:0.619325 54:-0.184069 55:-0.222651
-1 1:-0.901303 2:0.543756 3:-1.604796 4:-0.640365 5:0.497359 6:1.525772 7:-0.289916 8:-1.116637 9:-0.284560 10:0.715018 11:1.069540 12:0.094374 13:-0.615956 14:1.147149 15:0.967424 16:0.783905 17:-1.131054 18:-0.660461 19:0.470484 20:0.177845 21:-0.355548 22:1.082220 23:0.179081 24:-0.137921 25:0.887266 26:-1.355374 27:0.092466 28:-0.428959 29:0.742179 30:-1.289053 31:0.584015 32:0.852706 33:2.027291 34:1.049402 35:0.566919 36:0.421092 37:-1.240075 38:-0.271150 39:0.757001 40:-1.541365 41:-2.012490 42:-0.498425 43:-0.799845 44:-1.178248 45:0.434374 46:0.702517 47:0.383556 48:-1.058540 49:1.134778 50:-0.073726 51:-0.035300 52:1.165554 53:0.624837 54:-0.489466 55:-0.087342
-1 1:-0.621857 2:-1.366979 3:0.739187 4:-0.324680 5:-1.218053 6:0.121494 7:0.784243 8:0.712018 9:-0.848065 10:-1.595964 11:-0.186746 12:0.694972 13:1.542505 14:0.256792 15:1.613649 16:-1.190956 17:-0.659318 18:-1.349205 19:-0.537977 20:1.741825 21:0.263342 22:1.471590 23:-0.499345 24:0.591870 25:-1.947573 26:-0.447710 27:-0.086067 28:1.078150 29:-1.902373 30:-1.370278 31:-1.123302 32:1.253167 33:-0.785487 34:0.259852 35:0.540824 36:1.141079 37:0.968940 38:-0.059746 39:1.118603 40:-0.353358 41:0.893597 42:-0.065465 43:0.718473 44:0.547923 45:-1.332497 46:0.424219 47:0.761091 48:-0.683188 49:-1.496098 50:0.300843 51:-0.637513 52:0.200197 53:0.452455 54:1.670285 55:-0.617012
-1 1:-0.518146 2:-0.854813 3:-1.413896 4:0.653153 5:0.748268 6:1.816258 7:1.469612 8:-0.467755 9:-0.126499 10:0.088381 11:-0.925376 12:-0.124695 13:-1.833317 14:0.820364 15:1.417008 16:-0.444618 17:-1.594600 18:-0.624528 19:0.225366 20:0.110877 21:-0.043619 22:0.727402 23:-0.427534 24:1.600798 25:0.971345 26:-1.179366 27:0.207057 28:-1.108244 29:-1.206662 30:-1.348169 31:0.071870 32:-0.164378 33:0.871915 34:-0.150337 35:0.171724 36:1.295731 37:-0.846705 38:0.411130 39:0.039414 40:0.962379 41:-2.297929 42:-0.735128 43:-0.724740 44:-0.077772 45:-0.405705 46:0.375806 47:0.205829 48:-1.331564 49:-1.003397 50:0.237301 51:-1.290776 52:-0.756934 53:-0.578058 54:0.146383 55:-0.250970
-1 1:-0.486941 2:-0.338893 3:-1.936241 4:-0.758415 5:-0.859550 6:1.194319 7:-1.827607 8:0.997192 9:1.092949 10:-1.266229 11:1.015139 12:0.421707 13:1.408250 14:0.510838 15:-0.993934 16:1.873978 17:-2.843710 18:1.265494 19:-0.674356 20:0.797311 21:-0.283762 22:-0.723702 23:-2.004474 24:-2.015687 25:1.196261 26:0.510663 27:-0.629251 28:0.303764 29:-0.667662 30:-1.735081 31:0.236994 32:0.236884 33:-1.339957 34:-1.723929 35:-0.750780 36:-0.541497 37:0.264973 38:-0.687202 39:0.352158 40:1.423590 41:-0.649762 42:-0.219811 43:1.045789 44:1.441482 45:0.431985 46:2.240061 47:0.182787 48:1.456133 49:0.136479 50:-2.078063 51:1.414407 52:-0.093989 53:1.134389 54:0.139933 55:0.015093
-1 1:0.592545 2:-0.343187 3:1.574005 4:1.587659 5:-1.883367 6:-0.390704 7:0.565387 8:-1.576318 9:1.594610 10:-1.557956 11:0.418654 12:0.810796 13:-0.856687 14:1.369324 15:0.708136 16:-0.092660 17:-0.758572 18:-1.291837 19:1.293304 20:0.217800 21:-0.137921 22:0.019255 23:0.270996 24:0.550758 25:1.227296 26:1.391394 27:0.699114 28:-0.417364 29:-0.271251 30:1.153841 31:0.244518 32:0.339247 33:0.932293 34:0.033329 35:0.608687 36:0.567735 37:-0.925714 38:0.059092 39:-0.790026 40:1.036438 41:0.739437 42:-1.103268 43:0.010337 44:-0.314572 45:0.463893 46:0.248820 47:0.161720 48:-0.817140 49:-0.232823 50:2.568015 51:-0.786643 52:-0.286245 53:1.182029 54:-1.230301 55:0.241588
-1 1:-1.599208 2:0.682330 3:1.336289 4:-0.219499 5:0.675691 6:1.128263 7:1.636289 8:-0.651253 9:1.049140 10:0.237834 11:-0.311828 12:-1.347239 13:1.328304 14:-0.231085 15:-0.369391 16:-0.856256 17:-0.236631 18:-0.356485 19:0.400895 20:-0.593854 21:0.374824 22:-1.673446 23:0.560457 24:-1.624258 25:-0.842082 26:-1.109130 27:0.372679 28:0.754456 29:0.545179 30:1.107441 31:0.313780 32:-0.126630 33:0.715340 34:-0.364033 35:0.463019 36:-0.429995 37:-0.231385 38:-0.036258 39:0.384103 40:0.722428 41:-0.389923 42:0.462308 43:-0.152179 44:0.119308 45:-0.629069 46:0.107298 47:0.060328 48:-1.778167 49:1.172208 50:0.070789 51:1.339283 52:0.411489 53:-0.288325 54:0.254327 55:-1.432919
-1 1:1.236427 2:-0.156686 3:-0.460503 4:0.853663 5:0.163728 6:0.816260 7:-0.685867 8:-1.555347 9:-0.611938 10:0.335155 11:-1.281607 12:-1.080861 13:-1.302323 14:-0.156799 15:-0.911666 16:0.758765 17:-0.571647 18:-0.478935 19:0.936698 20:-1.291260 21:-0.772886 22:0.012707 23:1.023769 24:-0.221259 25:-1.045021 26:-0.038013 27:-0.374566 28:-2.719722 29:-0.546560 30:-1.959420 31:-1.016131 32:0.544330 33:1.826387 34:-1.517451 35:0.366759 36:-1.066157 37:-0.228511 38:-0.217244 39:-0.390338 40:-2.201936 41:-2.124366 42:0.266963 43:1.216000 44:-1.507851 45:-0.466835 46:0.562620 47:0.760482 48:1.566490 49:-0.070039 50:0.481641 51:-0.665219 52:-1.282632 53:1.980172 54:1.621066 55:1.246866
-1 1:1.564109 2:-2.627595 3:-0.923572 4:0.618796 5:-0.690061 6:1.766347 7:0.513950 8:-2.436331 9:0.743802 10:-0.547032 11:0.021842 12:-0.188089 13:0.914981 14:-0.893665 15:0.313583 16:-1.021035 17:-0.837748 18:1.860499 19:-0.543047 20:-0.413107 21:0.921005 22:-0.113737 23:-0.166721 24:-1.249740 25:0.235164 26:1.165101 27:-0.425648 28:-0.178816 29:0.078710 30:-1.257670 31:0.526085 32:1.107113 33:-1.217146 34:0.409704 35:0.618195 36:0.438391 37:-1.288719 38:1.275052 39:1.324300 40:-0.974968 41:0.486162 42:0.914571 43:1.157603 44:-1.343585 45:-0.022514 46:-0.442756 47:-1.249910 48:0.024314 49:-0.901454 50:0.269444 51:0.197520 52:2.352631 53:0.633934 54:-0.637563 55:2.057504
-1 1:-0.645171 2:0.326402 3:0.223836 4:-0.495161 5:1.003159 6:-1.038555 7:0.093114 8:-0.965867 9:0.411690 10:0.933246 11:0.179213 12:0.663775 13:0.521917 14:0.787465 15:-0.863408 16:0.421163 17:0.168780 18:2.210762 19:0.132487 20:-0.046789 21:-0.716518 22:1.237347 23:0.287968 24:-0.209570 25:-0.754864 26:0.488618 27:0.241938 28:0.388388 29:2.189856 30:-0.230014 31:-0.663030 32:-0.859440 33:0.538139 34:-1.269225 35:-1.058563 36:-0.080613 37:0.298643 38:-0.855793 39:-1.361292 40:-1.320980 41:-1.677331 42:0.477273 43:0.289620 44:-0.193782 45:0.725120 46:-1.085600 47:-0.646125 48:0.827680 49:0.581989 50:-0.560188 51:-0.145130 52:2.092771 53:1.281104 54:-1.295716 55:1.080498
-1 1:-1.642199 2:1.979461 3:0.073052 4:-0.730266 5:-1.586685 6:0.635540 7:1.131267 8:-0.931382 9:0.165208 10:0.460241 11:0.996909 12:-0.667897 13:0.087841 14:0.115854 15:0.683344 16:-0.466488 17:0.288997 18:-1.168565 19:0.353030 20:-1.363732 21:-2.152238 22:0.707443 23:0.225047 24:0.093076 25:0.322553 26:-0.521916 27:1.293930 28:-0.787468 29:-1.138665 30:0.413022 31:1.516009 32:0.893868 33:0.600657 34:1.315841 35:2.755139 36:0.378884 37:0.396326 38:-0.706900 39:0.512151 40:-0.617738 41:0.166080 42:-0.270651 43:1.584487 44:-0.101094 45:0.077222 46:0.434650 47:1.890167 48:0.567623 49:-0.168012 50:-0.633981 51:-0.255485 52:0.459209 53:-2.362169 54:-0.258609 55:-0.166356
-1 1:-2.750652 2:0.619787 3:-1.202653 4:0.684054 5:-1.177432 6:1.161598 7:-1.233060 8:-1.286588 9:-0.747246 10:1.143769 11:0.909003 12:-1.433738 13:0.778126 14:-0.601774 15:0.201442 16:-0.182954 17:0.704148 18:0.307384 19:-0.621733 20:1.597596 21:0.086027 22:-1.105142 23:1.227560 24:-0.797263 25:-1.781394 26:0.938390 27:-1.134858 28:0.221110 29:1.153917 30:1.997081 31:-0.702561 32:0.795833 33:-0.232063 34:-0.561574 35:-0.430540 36:1.672385 37:-1.305626 38:-1.127244 39:-1.701456 40:1.318169 41:2.109577 42:-0.890011 43:-0.799143 44:0.645578 45:1.116306 46:0.139891 47:-1.745930 48:-0.373467 49:0.102893 50:-1.337621 51:1.305065 52:0.336084 53:1.085144 54:0.152115 55:-0.932853
-1 1:-0.125767 2:0.432508 3:0.552058 4:-0.888679 5:-1.099640 6:-1.686891 7:0.161705 8:-0.294119 9:0.264361 10:-0.109131 11:-0.187723 12:0.485814 13:1.702829 14:-2.066064 15:-0.467311 16:-0.186455 17:-1.253255 18:-1.105548 19:0.555710 20:-0.689029 21:-0.719377 22:-1.128710 23:-1.172269 24:0.048378 25:-1.120352 26:-1.381664 27:-0.643303 28:0.716530 29:-0.587178 30:0.803038 31:1.430319 32:0.006191 33:0.501573 34:-0.426164 35:-1.690618 36:1.200795 37:-0.361206 38:-1.641281 39:-0.995264 40:0.695471 41:1.586895 42:-0.392560 43:0.657334 44:1.068351 45:0.130260 46:1.062744 47:-1.326923 48:0.702866 49:-0.032461 50:1.491001 51:1.019309 52:0.370295 53:-0.270151 54:1.810365 55:0.308521
-1 1:1.288184 2:-1.387441 3:-0.646849 4:-0.010907 5:-0.440044 6:0.227053 7:-1.645219 8:0.309478 9:0.218245 10:-0.459546 11:0.203697 12:1.221475 13:-1.252021 14:-1.791595 15:0.710840 16:-0.906244 17:-0.409938 18:-0.360419 19:-0.243324 20:-0.916195 21:-1.197599 22:-0.677608 23:1.524451 24:0.116151 25:-0.294703 26:1.159180 27:0.090436 28:0.626477 29:-1.868124 30:0.076518 31:-0.426334 32:0.547601 33:0.560495 34:-1.248461 35:2.170816 36:1.007417 37:0.403281 38:-0.133205 39:1.392777 40:-1.240965 41:0.313604 42:-0.355371 43:0.357350 44:-1.513674 45:-0.109455 46:0.415451 47:-0.717110 48:0.074403 49:-2.168735 50:-0.973922 51:-0.209525 52:-0.208261 53:-1.245788 54:-0.553451 55:0.580684
-1 1:-1.219088 2:0.539028 3:0.437624 4:1.036581 5:0.150143 6:-0.772093 7:0.597444 8:-0.941499 9:-0.060930 10:-0.912565 11:-2.229435 12:-1.182802 13:0.398081 14:-0.387317 15:-1.242853 16:-0.888148 17:0.458214 18:-0.113414 19:-0.509716 20:0.895977 21:-0.680915 22:0.187328 23:0.334799 24:-0.501700 25:-0.101666 26:0.729745 27:-0.832600 28:-0.116857 29:-0.828980 30:-0.325746 31:-1.409036 32:-0.879498 33:0.107610 34:0.146583 35:0.611261 36:-1.096570 37:-0.043572 38:0.210319 39:-0.112909 40:-0.797004 41:-0.215048 42:-0.046176 43:-1.624654 44:0.481785 45:0.031294 46:1.101417 47:0.919030 48:0.208244 49:-2.690599 50:0.437038 51:1.415110 52:-0.206791 53:0.765081 54:1.520235 55:0.245052
-1 1:-1.251474 2:0.503124 3:0.213594 4:0.163155 5:1.391106 6:-0.750103 7:-0.053436 8:0.959524 9:0.629824 10:-0.184379 11:-1.819403 12:1.632131 13:-0.013878 14:0.322508 15:-0.539450 16:-1.271813 17:1.832807 18:-1.388847 19:-0.270400 20:-0.445438 21:-0.155462 22:2.177203 23:-0.428779 24:0.430582 25:-0.327370 26:0.302637 27:-1.525442 28:0.344874 29:-0.057196 30:2.905741 31:-0.530614 32:0.295321 33:-2.337547 34:-0.542917 35:0.087567 36:1.791217 37:0.504326 38:-0.097989 39:0.283781 40:0.042757 41:-0.762250 42:0.623700 43:-0.005777 44:1.190001 45:-0.287132 46:0.483326 47:1.058065 48:-0.451756 49:-0.151466 50:-0.185892 51:0.326639 52:-0.714080 53:-0.424630 54:0.922079 55:0.051519
-1 1:-0.513944 2:0.108929 3:-0.438404 4:0.435605 5:1.377568 6:-1.007786 7:-0.922544 8:0.307546 9:-1.150305 10:-0.257835 11:-0.371450 12:-0.261667 13:-1.273669 14:2.250549 15:-0.975757 16:0.346900 17:0.166400 18:1.187547 19:1.242695 20:2.149352 21:-0.804752 22:0.638123 23:-0.791851 24:0.533529 25:0.251628 26:-0.464872 27:0.382298 28:-0.616565 29:0.922848 30:-0.095203 31:1.217255 32:-0.840368 33:0.323543 34:1.804916 35:-1.582544 36:0.824726 37:-0.421197 38:-0.844623 39:-0.628493 40:0.512614 41:-1.156813 42:0.089581 43:-0.256600 44:-0.139561 45:1.196862 46:-1.060417 47:-0.926130 48:-0.445914 49:-2.009625 50:0.713540 51:-0.411761 52:0.676148 53:-0.257155 54:0.133936 55:0.739047
-1 1:-0.319475 2:0.506792 3:-0.516659 4:-1.019841 5:-0.002204 6:1.018211 7:0.861935 8:-0.011318 9:-1.138706 10:0.739440 11:0.840465 12:-1.080532 13:-2.461541 14:-0.836445 15:-1.539342 16:-0.061425 17:-0.285226 18:1.111609 19:0.361181 20:-0.453691 21:1.650237 22:-0.634869 23:0.903172 24:1.983520 25:-0.432642 26:-0.075324 27:-0.631892 28:0.706143 29:0.447200 30:-0.578935 31:1.265555 32:-0.240313 33:-0.904496 34:-0.597118 35:-0.614715 36:-0.050147 37:-1.537954 38:1.271499 39:1.123283 40:-1.835712 41:-1.928550 42:0.195727 43:-1.012782 44:0.289781 45:0.232568 46:-0.050422 47:-0.415442 48:-0.786347 49:0.940423 50:0.900714 51:0.580963 52:-0.308807 53:-1.332928 54:-1.624356 55:-0.404048
-1 1:-0.423410 2:-1.412619 3:0.039223 4:0.245680 5:1.066711 6:-0.230951 7:1.481592 8:-1.299917 9:0.728650 10:-0.604112 11:0.558843 12:-2.442988 13:0.817072 14:-0.214928 15:-0.578337 16:-0.947077 17:1.178917 18:0.000568 19:-1.030140 20:0.446390 21:-0.178148 22:0.211491 23:-0.330432 24:-0.465229 25:0.784336 26:-1.008929 27:0.847580 28:0.022555 29:0.088914 30:-0.344397 31:-0.289160 32:-0.339180 33:0.404785 34:-2.147138 35:-1.294634 36:-0.547507 37:0.109564 38:1.524689 39:-0.712574 40:-0.110843 41:2.153750 42:1.195640 43:-0.904629 44:0.874982 45:2.111148 46:0.239290 47:0.218710 48:-0.812439 49:-0.406672 50:1.099164 51:-1.198024 52:-0.361509 53:-0.400165 54:-0.136434 55:0.028852
-1 1:1.518515 2:-0.213240 3:-1.203049 4:-0.251899 5:0.662119 6:-0.283946 7:-0.030645 8:1.376985 9:0.576237 10:0.540202 11:-0.337148 12:0.100383 13:0.683521 14:-0.252847 15:0.529072 16:0.504231 17:-0.395542 18:0.199550 19:-0.960926 20:-0.992221 21:0.671890 22:-0.235206 23:0.149533 24:0.653598 25:-0.359231 26:0.670759 27:0.905923 28:0.731887 29:2.574089 30:-1.087615 31:-1.365521 32:2.338049 33:-1.407451 34:-1.548053 35:1.208735 36:2.233268 37:-2.100140 38:0.092709 39:-0.696895 40:-0.400226 41:-0.640762 42:0.052347 43:0.734740 44:1.068021 45:0.030174 46:1.192273 47:-0.327407 48:-0.130453 49:2.022458 50:0.114617 51:-1.681480 52:0.270876 53:1.269717 54:1.040911 55:0.129481
-1 1:0.858556 2:-1.880550 3:0.298317 4:-0.393220 5:-1.101414 6:0.937408 7:1.076391 8:0.501913 9:-0.726887 10:0.613443 11:1.745509 12:-1.117076 13:2.280310 14:0.266361 15:0.551163 16:0.536065 17:-1.676435 18:0.016814 19:0.055451 20:0.018753 21:0.331364 22:-0.245744 23:-0.730393 24:1.127732 25:1.283354 26:0.720411 27:-2.282224 28:-0.505879 29:1.182277 30:-1.937061 31:-2.857572 32:-1.159972 33:-0.149489 34:0.463067 35:-0.064590 36:-0.719027 37:-0.302689 38:1.389314 39:0.388656 40:-1.156666 41:1.094935 42:-0.443700 43:0.093436 44:-0.538359 45:-0.113592 46:1.087376 47:-1.541221 48:2.387756 49:0.248298 50:-0.079922 51:0.257373 52:2.138270 53:1.180769 54:1.003255 55:-1.043008
-1 1:1.150885 2:2.255848 3:-1.934834 4:0.268281 5:0.204926 6:1.878812 7:1.293596 8:0.429568 9:1.719580 10:0.605368 11:3.000835 12:1.500303 13:0.304327 14:0.307142 15:1.732562 16:-0.176139 17:-1.595515 18:-0.763512 19:0.387726 20:-3.288932 21:0.622031 22:-1.493356 23:-0.218400 24:0.020979 25:-0.796869 26:0.390545 27:1.294887 28:0.690401 29:1.076075 30:-1.305880 31:-0.236689 32:-1.298501 33:0.295635 34:1.058866 35:-0.055979 36:0.040597 37:-3.308620 38:-1.329918 39:-1.347934 40:0.609682 41:-2.698325 42:0.546666 43:0.218090 44:0.192029 45:-0.855313 46:0.821892 47:0.038287 48:-0.003743 49:2.171668 50:1.035325 51:0.022981 52:-0.343472 53:1.577290 54:-0.626003 55:-0.060338
-1 1:1.153722 2:-0.143719 3:0.759535 4:1.075136 5:-2.128080 6:-1.207438 7:-0.229795 8:-0.074960 9:-0.174826 10:0.179186 11:-1.134854 12:-0.486739 13:-1.259737 14:0.137372 15:1.152604 16:-0.090200 17:-0.409072 18:-1.315815 19:0.651799 20:0.682200 21:1.387717 22:-0.518305 23:0.164190 24:-0.478260 25:-0.566002 26:-0.382279 27:-0.298894 28:-0.666382 29:-0.477641 30:0.864628 31:-1.998917 32:1.518888 33:-0.286409 34:-0.012456 35:-0.992196 36:-1.426641 37:-0.670660 38:-0.225349 39:-0.516656 40:-0.086370 41:1.852568 42:-0.676029 43:1.105711 44:-2.414560 45:0.954568 46:-0.690879 47:0.112554 48:0.332391 49:0.521559 50:1.567754 51:-0.330788 52:-0.294419 53:-0.490627 54:-0.046307 55:-1.556231
-1 1:-0.035047 2:0.557644 3:-0.048373 4:-0.792399 5:0.078629 6:0.977393 7:0.064968 8:-0.325566 9:0.294825 10:-0.111327 11:0.088846 12:-0.275601 13:0.565618 14:0.021199 15:0.020303 16:-0.012679 17:-1.640643 18:-0.105663 19:-0.327882 20:0.315389 21:2.383601 22:1.644344 23:-0.800985 24:0.641842 25:-0.098527 26:0.477878 27:0.792911 28:-0.063783 29:0.765832 30:1.353236 31:0.563489 32:0.355594 33:-1.850067 34:-1.049798 35:-0.533796 36:1.210412 37:0.460214 38:0.428550 39:-0.965755 40:1.709631 41:1.392213 42:-0.980596 43:0.341417 44:0.791032 45:-1.398141 46:-0.730131 47:-0.546661 48:-0.638586 49:-0.654091 50:-0.036957 51:0.892967 52:0.945012 53:1.802935 54:-1.038209 55:-1.188368
-1 1:0.096334 2:0.158088 3:2.165564 4:2.884548 5:0.216344 6:1.743127 7:0.187762 8:-0.645238 9:-1.249497 10:-0.093025 11:-1.096612 12:1.268904 13:1.259868 14:0.758551 15:-1.388586 16:0.658649 17:-0.762709 18:-0.270507 19:0.521502 20:0.851179 21:0.955894 22:-1.544481 23:1.772022 24:1.223885 25:-2.315392 26:0.564300 27:-0.748812 28:1.009920 29:1.677059 30:1.840868 31:-1.311104 32:-0.088236 33:-1.456286 34:-0.304299 35:-2.180276 36:-1.521787 37:0.586840 38:0.224890 39:-1.069176 40:1.092200 41:0.849401 42:-0.687087 43:-0.711006 44:2.021987 45:-2.022115 46:-1.837299 47:-1.473476 48:0.701288 49:-0.846532 50:-0.376700 51:-1.238299 52:0.130243 53:0.949229 54:-0.888453 55:-1.927129
-1 1:-1.045301 2:-0.046018 3:0.581153 4:-0.217289 5:-0.200555 6:0.169726 7:0.367352 8:-0.156063 9:0.019420 10:0.476250 11:-0.492962 12:0.268804 13:-0.797567 14:0.641853 15:-0.181256 16:-0.073823 17:-0.194441 18:-0.085924 19:1.063272 20:0.173743 21:0.495888 22:-0.458115 23:0.432962 24:0.338571 25:0.351173 26:0.370287 27:-0.911661 28:-1.518671 29:1.767363 30:0.344240 31:0.391312 32:-0.951448 33:-0.451646 34:1.088888 35:0.654224 36:-0.148474 37:0.246418 38:0.915226 39:-1.710485 40:-1.002035 41:-0.543424 42:-0.438886 43:-1.310994 44:-0.184155 45:1.293173 46:0.143468 47:-0.812611 48:0.521456 49:-1.714671 50:0.448985 51:1.385436 52:0.242555 53:0.880151 54:0.864836 55:0.295662
-1 1:0.354526 2:0.487980 3:-0.441988 4:-0.285609 5:0.637690 6:0.109005 7:-1.461327 8:-0.357485 9:-0.135063 10:-0.750814 11:-1.399769 12:-1.382512 13:0.088047 14:0.332334 15:3.067475 16:-0.153813 17:-0.136972 18:0.933376 19:1.762737 20:-2.044170 21:0.241681 22:-0.853245 23:1.223991 24:0.131847 25:-0.679273 26:0.580366 27:0.907152 28:0.095144 29:-1.572661 30:-0.906111 31:-0.457738 32:0.343944 33:1.112896 34:-0.611389 35:-1.310626 36:1.156856 37:-0.434457 38:-0.265907 39:0.596698 40:1.144167 41:-0.388529 42:1.784478 43:-1.748618 44:-1.058111 45:0.116137 46:-0.916557 47:0.786758 48:0.942175 49:0.569326 50:0.527297 51:-0.778682 52:0.544998 53:1.979377 54:-0.560030 55:-0.577541
-1 1:-0.483717 2:-1.024724 3:-1.341332 4:-0.141554 5:-1.025817 6:-0.410716 7:-1.761742 8:-0.994284 9:-0.264983 10:-0.408111 11:0.755331 12:-0.927921 13:-0.415998 14:-0.630734 15:-0.464716 16:-0.420357 17:0.648916 18:-1.087463 19:-0.499870 20:-0.419906 21:-1.398530 22:-0.572120 23:1.667380 24:-0.246209 25:-0.739868 26:-0.223348 27:1.109539 28:-1.767864 29:1.077872 30:-0.593782 31:1.137726 32:0.394721 33:0.009384 34:0.288790 35:-1.098336 36:0.368387 37:0.242092 38:0.881678 39:-1.107313 40:1.903528 41:-1.036086 42:-0.562482 43:0.313884 44:0.277702 45:-0.061066 46:0.240602 47:-0.013668 48:-0.219417 49:1.133521 50:-0.250638 51:0.442805 52:0.841386 53:-1.095852 54:0.405699 55:-0.007507
-1 1:-1.513190 2:-0.856584 3:1.000574 4:0.281182 5:-1.881044 6:-0.237843 7:-0.124248 8:-1.943079 9:0.603151 10:0.202066 11:-1.078708 12:-0.474721 13:-0.615966 14:1.014915 15:-0.945253 16:0.253831 17:-0.290259 18:0.131920 19:1.546143 20:-0.828943 21:0.026731 22:-0.005628 23:0.004710 24:0.132782 25:1.097199 26:-0.422564 27:-0.133907 28:-0.184699 29:1.887934 30:1.582600 31:-1.154122 32:-0.140943 33:-0.770382 34:1.907423 35:-0.072427 36:-1.294148 37:0.974479 38:-0.340297 39:2.113457 40:0.236539 41:0.320469 42:1.691262 43:-1.124607 44:0.806070 45:-0.264196 46:0.921460 47:1.714661 48:-1.757176 49:1.416267 50:0.866623 51:0.331370 52:1.073426 53:0.422324 54:-1.030586 55:0.941359
-1 1:-0.230375 2:0.392896 3:-0.964208 4:0.608385 5:-0.831117 6:-0.213923 7:0.860273 8:0.967157 9:0.150524 10:0.004794 11:0.357606 12:-0.535611 13:0.497543 14:-0.543887 15:-1.183245 16:-1.022864 17:-0.579929 18:-1.677635 19:1.137761 20:-0.590651 21:1.472785 22:-0.063637 23:2.071416 24:-1.963417 25:-0.202130 26:-0.315154 27:-1.145171 28:-0.304758 29:0.313705 30:0.638736 31:-0.373240 32:-0.035742 33:-0.214988 34:-1.646385 35:0.729861 36:1.274389 37:0.275214 38:-1.177828 39:-0.461013 40:-0.397089 41:-0.530715 42:-0.083889 43:-2.809098 44:0.900437 45:0.624946 46:0.363821 47:0.550851 48:0.119047 49:0.491671 50:0.087022 51:0.754926 52:-0.578089 53:0.902719 54:1.221318 55:-1.044177
-1 1:0.628679 2:0.418125 3:-0.453434 4:-0.082767 5:1.336778 6:-1.166405 7:0.230263 8:-0.724966 9:1.568814 10:1.684771 11:-0.711983 12:-0.192035 13:-0.731661 14:-0.104520 15:-0.066864 16:-0.358450 17:1.073736 18:0.715213 19:0.432052 20:-0.959463 21:1.147861 22:-1.574489 23:-0.939301 24:0.454770 25:1.426487 26:-1.665543 27:-2.140280 28:-0.557612 29:1.693229 30:-0.006089 31:-0.326571 32:1.040786 33:-0.081332 34:-1.382483 35:-1.600471 36:0.416147 37:2.113175 38:-0.239071 39:0.605689 40:-0.715055 41:0.203796 42:-0.634660 43:1.309205 44:0.770700 45:-0.627867 46:-0.405111 47:0.808727 48:1.275443 49:-1.278376 50:1.165490 51:-0.029076 52:0.369663 53:0.516182 54:0.028752 55:-0.317237
-1 1:0.025548 2:0.616126 3:0.612772 4:1.245151 5:2.517600 6:-1.040910 7:-1.179842 8:1.480930 9:-0.436688 10:0.814809 11:0.491648 12:-0.494855 13:1.636411 14:0.553791 15:-0.998975 16:-1.147407 17:-0.617472 18:-0.966809 19:1.431578 20:-0.281374 21:2.260841 22:1.124197 23:-1.627682 24:0.025191 25:1.815186 26:-0.727705 27:0.103533 28:0.395557 29:-0.339545 30:-1.282698 31:0.349431 32:-1.253942 33:0.269581 34:1.001654 35:-0.237994 36:1.751761 37:0.222596 38:-1.608911 39:-0.583507 40:-0.262884 41:0.314982 42:0.604657 43:1.341322 44:-0.538829 45:-1.349303 46:-1.595708 47:0.844502 48:0.009787 49:1.089542 50:-0.035025 51:0.068558 52:1.114858 53:0.898971 54:0.927447 55:-0.169630
-1 1:-0.378266 2:-1.683903 3:0.795461 4:-1.179950 5:0.223673 6:-0.772830 7:0.965308 8:0.344770 9:0.456009 10:2.247656 11:0.106978 12:-1.466445 13:1.154310 14:-1.842480 15:-0.205853 16:-0.893874 17:2.285951 18:1.098648 19:0.621294 20:-0.804911 21:-0.221970 22:-0.149735 23:-1.733323 24:-0.647605 25:-0.966485 26:-0.033742 27:-1.445751 28:-1.578853 29:-0.076181 30:-0.970205 31:-0.452197 32:-0.383417 33:0.915372 34:0.001094 35:0.263179 36:-0.613001 37:1.004008 38:0.073705 39:1.916065 40:-0.105211 41:1.160903 42:-0.579481 43:-2.550179 44:0.742286 45:-1.694520 46:-0.454599 47:0.676835 48:1.768073 49:0.800274 50:0.833793 51:-1.499675 52:-1.076277 53:0.555188 54:-1.744580 55:-0.024651
-1 1:1.272274 2:-0.273202 3:0.164100 4:-0.442886 5:1.549262 6:-0.065271 7:-1.417218 8:0.478209 9:1.952970 10:-1.063013 11:-1.198937 12:0.990511 13:-1.317346 14:-0.976221 15:-1.944088 16:0.716705 17:-0.763051 18:0.859757 19:-0.752670 20:-0.775347 21:0.018635 22:-1.080269 23:-0.640612 24:1.167520 25:-0.353996 26:-0.011576 27:1.064458 28:-0.807344 29:-2.305003 30:-0.618713 31:0.165492 32:-1.457996 33:-2.311876 34:0.192092 35:0.316061 36:-1.040235 37:0.571321 38:0.435442 39:1.114351 40:0.230236 41:-1.483768 42:-0.546305 43:0.370553 44:1.440555 45:-0.296222 46:-1.309973 47:-1.442372 48:-2.153526 49:-1.277289 50:0.098847 51:-0.288402 52:-0.958468 53:0.151424 54:1.109735 55:0.466450
-1 1:-0.506400 2:2.009708 3:-0.875691 4:0.739297 5:-0.932742 6:1.032271 7:-0.061941 8:0.105506 9:-1.935837 10:0.452922 11:-0.077869 12:1.659869 13:0.031418 14:0.771472 15:-0.554638 16:1.279888 17:-0.408148 18:-1.299100 19:0.254093 20:-1.966271 21:-0.787891 22:-0.813233 23:0.676988 24:-0.216865 25:-0.751686 26:1.991569 27:-0.174187 28:-0.874539 29:0.785124 30:-1.037915 31:-1.660976 32:0.538738 33:0.410736 34:1.081664 35:0.295499 36:-0.582895 37:0.064325 38:1.935527 39:0.710965 40:0.892824 41:1.294066 42:-0.026420 43:-0.604416 44:-1.665086 45:1.304781 46:0.844634 47:0.724614 48:-1.014591 49:-0.921239 50:-0.721950 51:-1.287051 52:0.119270 53:-0.397356 54:1.315127 55:-1.346016
-1 1:0.166226 2:-0.995430 3:-1.787136 4:-0.998251 5:-0.024882 6:0.468090 7:-0.573865 8:-0.510269 9:0.033822 10:-1.461158 11:0.675944 12:0.569970 13:-1.484403 14:-0.236399 15:-2.601488 16:-0.521613 17:1.087205 18:1.336659 19:0.634810 20:0.335932 21:-0.272441 22:-1.156831 23:1.015802 24:0.886298 25:-1.243330 26:-0.058465 27:-1.339363 28:-2.109926 29:1.415752 30:-2.013206 31:1.251137 32:-0.494371 33:0.455818 34:3.427374 35:1.143843 36:2.308568 37:0.191692 38:1.907014 39:0.029051 40:-0.268580 41:-1.274980 42:-0.853873 43:0.965587 44:-0.558460 45:0.028381 46:-0.238503 47:1.158620 48:-0.248627 49:-0.210481 50:-0.681195 51:-0.386721 52:2.316663 53:0.397371 54:1.424402 55:-0.362952
-1 1:0.856740 2:2.573701 3:-0.406359 4:-0.728713 5:1.177134 6:-0.912946 7:0.925216 8:0.883586 9:-0.069355 10:-0.400888 11:-1.244742 12:0.741064 13:-0.808912 14:0.071207 15:0.524738 16:-1.243404 17:0.745892 18:-0.334818 19:-2.267744 20:0.018227 21:-1.586836 22:1.206906 23:0.313742 24:1.462896 25:0.202099 26:-0.596952 27:0.043871 28:0.099706 29:-1.133872 30:-0.331524 31:-1.083675 32:0.795041 33:-0.520961 34:0.454634 35:1.606526 36:-0.418169 37:0.483743 38:0.185392 39:-0.696485 40:0.164872 41:-1.302661 42:-0.657613 43:-0.728397 44:-0.158977 45:1.155742 46:-1.154157 47:1.478832 48:0.217920 49:-1.907820 50:0.723596 51:1.723874 52:0.319534 53:0.906286 54:0.830216 55:-0.582405
-1 1:-0.082020 2:-0.144643 3:0.550666 4:-1.102088 5:0.582535 6:0.749523 7:0.243719 8:1.123316 9:-0.860225 10:-0.645560 11:-0.160092 12:-0.341152 13:-0.590742 14:-0.767229 15:-1.333085 16:-0.336692 17:1.258769 18:-2.791830 19:-2.170770 20:1.187944 21:0.202697 22:0.143398 23:1.216612 24:0.409067 25:1.327392 26:0.814202 27:0.269523 28:0.763580 29:-1.233314 30:-1.824564 31:0.951991 32:-1.190263 33:0.091572 34:1.153289 35:0.818586 36:-0.827718 37:0.297517 38:-1.085036 39:-0.297471 40:-0.222541 41:-0.870243 42:-0.410211 43:1.094824 44:0.871719 45:0.120395 46:1.583799 47:-0.937022 48:-0.896981 49:-1.414622 50:-0.822796 51:-0.671718 52:-0.095120 53:-0.710227 54:0.914707 55:-0.412846
-1 1:1.431012 2:0.521693 3:1.054004 4:0.835582 5:-1.763351 6:-1.648761 7:2.263641 8:0.475650 9:0.460000 10:-0.371096 11:0.047572 12:1.999324 13:-0.579698 14:0.140614 15:0.100467 16:-1.622160 17:0.305382 18:0.408866 19:0.139221 20:-0.059475 21:1.420837 22:-0.013627 23:-0.344530 24:-0.441416 25:-0.339280 26:1.220822 27:-0.710108 28:-1.155281 29:1.087361 30:2.181658 31:0.083504 32:1.550382 33:-0.557803 34:-1.452311 35:-1.133207 36:0.907396 37:-1.825783 38:-1.846873 39:-0.204736 40:-0.623032 41:-1.331851 42:0.324896 43:0.042081 44:1.205041 45:1.088838 46:0.111287 47:-0.753052 48:-1.686649 49:-1.989145 50:-0.225398 51:-1.197990 52:-0.206298 53:-0.664789 54:1.522538 55:-0.767548
-1 1:0.135346 2:1.330151 3:1.230839 4:0.222118 5:1.176002 6:-0.106941 7:-0.079986 8:0.133662 9:-0.001689 10:1.346673 11:-0.538981 12:-0.504043 13:1.239332 14:-0.844219 15:-0.763330 16:-0.791431 17:-0.392097 18:0.645185 19:0.829786 20:2.233433 21:-0.815657 22:0.193228 23:0.646760 24:0.596254 25:-1.826487 26:-0.916551 27:1.348268 28:0.535070 29:-0.249128 30:-1.919744 31:-0.891823 32:-0.360275 33:0.380794 34:-0.666264 35:1.218386 36:1.090552 37:0.953273 38:-1.051950 39:0.864265 40:0.164593 41:0.495170 42:1.186764 43:-1.199811 44:-0.615692 45:0.101662 46:0.320732 47:-0.399159 48:0.069947 49:0.656763 50:-1.197794 51:0.905932 52:1.891859 53:-1.136586 54:1.236830 55:0.896313
-1 1:-0.231351 2:0.635449 3:0.409093 4:1.945605 5:-0.818645 6:0.680798 7:1.052835 8:-0.148852 9:0.182640 10:1.879560 11:-1.389961 12:-1.708414 13:0.465111 14:-0.609743 15:0.546143 16:1.252917 17:0.567989 18:-1.271317 19:0.276107 20:-0.858613 21:-1.177996 22:0.958355 23:1.021105 24:0.531834 25:-0.246147 26:0.134053 27:0.161294 28:-1.171649 29:0.626544 30:0.014391 31:0.873761 32:-0.654689 33:0.516930 34:-0.587347 35:-0.460853 36:0.132099 37:0.424683 38:-0.397289 39:-0.066838 40:-0.711106 41:-0.702053 42:-0.095700 43:0.287364 44:0.010244 45:-1.222291 46:0.180392 47:-0.343020 48:-0.625487 49:-0.963829 50:-1.960529 51:0.329660 52:0.916114 53:-0.346314 54:-0.820581 55:0.686614
-1 1:-3.005892 2:-0.118989 3:0.577038 4:0.432693 5:1.021534 6:1.607567 7:0.291785 8:-1.460386 9:0.699958 10:0.296596 11:-0.678145 12:0.657841 13:0.777056 14:-2.444756 15:0.611790 16:1.013357 17:-0.671747 18:0.761891 19:0.855635 20:-1.026403 21:1.761868 22:0.773374 23:1.561084 24:0.037701 25:0.717954 26:-0.102834 27:-1.120423 28:-0.073832 29:0.465262 30:0.336661 31:-0.093745 32:1.158793 33:0.236713 34:0.881176 35:-0.665038 36:-1.676492 37:0.591881 38:-1.446858 39:1.293461 40:0.710794 41:1.039188 42:0.212023 43:-1.376313 44:1.784213 45:-1.093905 46:0.806886 47:-1.173774 48:1.001403 49:-0.415575 50:1.320729 51:0.492823 52:-0.390712 53:-1.199847 54:-1.024684 55:-0.477990
-1 1:-1.570799 2:-0.058874 3:-1.365700 4:-0.777115 5:-0.573694 6:0.126191 7:0.548894 8:-0.775019 9:-1.310534 10:0.504941 11:1.091764 12:0.935174 13:0.698479 14:0.610010 15:-0.451105 16:0.025139 17:-0.272033 18:-0.058158 19:0.500386 20:-1.112962 21:1.961698 22:-1.042338 23:1.404795 24:-1.394427 25:1.095271 26:1.744524 27:0.728579 28:0.098089 29:0.468998 30:-0.277432 31:0.845077 32:-1.042114 33:-0.650158 34:2.011354 35:-1.063668 36:-0.744493 37:0.552154 38:1.074071 39:0.487358 40:0.936898 41:1.329189 42:-0.274238 43:0.752698 44:-0.111549 45:0.154428 46:1.365999 47:0.432189 48:0.258821 49:-1.727757 50:-1.082688 51:0.603008 52:-1.465187 53:0.032036 54:-0.003173 55:-0.491008
-1 1:0.522619 2:-0.954536 3:1.026781 4:0.573024 5:-1.018321 6:1.638579 7:-0.370552 8:0.538159 9:0.165150 10:-1.701552 11:-2.789482 12:-1.280245 13:1.329424 14:-0.135972 15:1.512846 16:-0.599004 17:1.525207 18:-1.601724 19:-1.139533 20:-1.053116 21:0.502266 22:0.867691 23:0.720644 24:0.152782 25:0.179714 26:-0.164943 27:-0.438515 28:0.527166 29:0.899320 30:-0.290069 31:0.431298 32:-1.320463 33:1.140311 34:-0.863976 35:0.563719 36:-1.080063 37:0.469584 38:0.146705 39:0.436607 40:-1.648252 41:0.269999 42:0.169750 43:0.908118 44:-0.543127 45:-1.585264 46:0.223741 47:-0.366658 48:0.496721 49:0.468238 50:1.181439 51:0.154684 52:0.545961 53:-1.435289 54:0.512049 55:1.178678
-1 1:1.167708 2:0.400595 3:-1.762655 4:-0.515837 5:0.004899 6:-0.145749 7:-0.215437 8:-0.545070 9:-0.199452 10:-1.145147 11:-0.549084 12:-1.318313 13:0.424491 14:1.424023 15:1.949727 16:-0.318636 17:1.537897 18:-1.348415 19:-0.489533 20:0.000339 21:0.238430 22:1.607055 23:2.261012 24:0.089572 25:1.070586 26:-1.445218 27:-0.343849 28:1.954039 29:0.062671 30:0.226258 31:0.752690 32:0.121941 33:-0.368299 34:-0.178178 35:-0.417560 36:1.478098 37:-0.449856 38:-2.064315 39:-1.107430 40:1.097353 41:-0.382154 42:-0.862916 43:0.053591 44:-0.083750 45:-1.266695 46:0.743377 47:-2.276559 48:-1.337395 49:0.101506 50:0.503838 51:-0.391320 52:0.541582 53:0.855968 54:-0.519866 55:1.911753
-1 1:0.057981 2:-0.882371 3:1.010116 4:-1.603499 5:-0.654186 6:-0.078981 7:-1.008514 8:1.958018 9:-0.002589 10:-0.069217 11:0.403652 12:0.753337 13:-1.248540 14:1.227069 15:-0.944053 16:-0.764687 17:-1.594262 18:2.291663 19:-1.112672 20:2.372970 21:-0.251575 22:-0.048927 23:-0.974549 24:-0.214975 25:-0.806315 26:-0.782092 27:0.263833 28:-0.568257 29:-0.956103 30:-0.488157 31:1.030961 32:-0.478666 33:-1.040152 34:-2.495860 35:3.409427 36:-0.496479 37:0.412268 38:0.185136 39:1.212732 40:-1.031538 41:-1.567804 42:-1.050379 43:-0.794006 44:-1.432509 45:0.669339 46:0.086088 47:-1.653763 48:-2.726600 49:-0.593554 50:-1.325879 51:-2.084597 52:-1.091608 53:0.391750 54:0.485559 55:-1.233642
-1 1:-1.616428 2:-0.930660 3:1.653940 4:-1.163882 5:1.091119 6:-0.182490 7:-0.338995 8:0.374346 9:-0.622817 10:1.358767 11:-0.818070 12:1.500194 13:0.518836 14:0.404513 15:0.908462 16:-0.823958 17:-2.034831 18:-0.609006 19:1.609205 20:0.585913 21:-0.114882 22:-1.103844 23:-0.982770 24:0.735156 25:1.594216 26:1.471556 27:0.983925 28:1.038576 29:0.238819 30:0.701589 31:0.769691 32:-1.256024 33:-0.900812 34:-0.369063 35:-0.380691 36:0.051551 37:1.058714 38:1.644408 39:1.065614 40:1.036791 41:0.927707 42:-2.428517 43:-0.362753 44:0.625402 45:0.887126 46:-0.096132 47:1.276393 48:-1.312039 49:1.011007 50:-0.075309 51:0.105644 52:0.679122 53:-0.532010 54:2.089649 55:1.814332
-1 1:0.824668 2:-1.165893 3:-0.990489 4:-1.393944 5:1.722344 6:-0.421821 7:-0.903231 8:1.246440 9:-0.469483 10:0.724323 11:1.950848 12:1.061046 13:-0.504954 14:2.750171 15:-0.893219 16:2.008916 17:1.982917 18:0.207242 19:2.334504 20:-0.091881 21:0.996228 22:0.095097 23:-1.738649 24:-0.038111 25:0.882539 26:0.302283 27:0.445846 28:0.080552 29:0.786170 30:0.999311 31:1.387577 32:-0.359413 33:0.825259 34:-0.477826 35:0.825280 36:0.858081 37:1.485967 38:0.868029 39:0.583368 40:0.464382 41:0.248981 42:0.325361 43:-0.487762 44:0.141746 45:1.049225 46:-0.770248 47:-0.165520 48:-0.846262 49:0.151423 50:0.040139 51:-1.074355 52:-1.511251 53:1.275007 54:-0.359427 55:1.223196
-1 1:-2.010595 2:-0.381285 3:0.447398 4:-0.713114 5:0.760917 6:-1.365278 7:-1.038710 8:-0.126868 9:-0.862561 10:-1.225484 11:1.501460 12:0.561528 13:-0.290099 14:0.149769 15:2.040365 16:0.407026 17:0.340129 18:-2.327116 19:0.262872 20:-0.308150 21:1.382727 22:-0.103153 23:-0.320700 24:-1.205048 25:0.288682 26:-0.619775 27:-0.730758 28:1.421958 29:1.323678 30:-0.233846 31:-0.457769 32:-1.834552 33:-0.629931 34:0.748771 35:1.303816 36:1.230837 37:0.515566 38:1.004446 39:0.291946 40:-0.040174 41:-1.933121 42:-0.543513 43:0.944254 44:-0.504064 45:-0.077570 46:1.509153 47:0.031836 48:0.311725 49:1.802261 50:0.746541 51:0.507876 52:-0.952389 53:-1.564538 54:1.325698 55:0.669302
-1 1:0.018714 2:1.570056 3:-0.592200 4:0.297328 5:0.951884 6:-0.035442 7:-0.786542 8:0.462938 9:0.106700 10:0.413284 11:-0.221685 12:-0.762193 13:-2.088929 14:1.860566 15:-0.015858 16:-0.809766 17:-0.780733 18:0.200287 19:1.460304 20:-1.932547 21:-0.604685 22:0.755172 23:-0.042327 24:0.713202 25:-0.222724 26:0.550614 27:-0.804391 28:-1.199917 29:0.650210 30:-0.428142 31:-0.569240 32:-0.248444 33:0.017600 34:2.111132 35:0.268522 36:-2.043090 37:0.477519 38:1.185129 39:-0.179162 40:0.432342 41:-0.304561 42:-0.141486 43:-0.109974 44:-0.296080 45:1.530966 46:-0.064567 47:-1.362438 48:-1.137392 49:-0.414414 50:-1.185454 51:-1.440470 52:0.821764 53:-0.503596 54:0.409793 55:-0.032485
-1 1:-0.696398 2:-1.207470 3:0.192635 4:-0.262479 5:-0.434092 6:0.603269 7:-0.559134 8:-0.036397 9:0.411243 10:0.968839 11:-1.257375 12:-1.291488 13:-0.645873 14:0.442642 15:2.078745 16:-1.130841 17:0.520802 18:0.942512 19:-0.356945 20:-0.197087 21:0.220629 22:-1.270051 23:-0.445638 24:0.215584 25:0.546640 26:-0.520162 27:-1.140592 28:-0.313936 29:-0.119612 30:-0.508458 31:0.078549 32:1.017648 33:-0.880560 34:-0.967617 35:-0.234424 36:0.213363 37:-0.477095 38:-0.658744 39:0.202392 40:-0.907200 41:-1.350747 42:-0.030049 43:1.435510 44:0.771405 45:0.888839 46:1.332340 47:-0.193061 48:-0.461531 49:-2.856644 50:0.622336 51:0.522024 52:-0.827986 53:-0.320730 54:0.057759 55:-0.503335
-1 1:0.134412 2:-1.537000 3:-0.233462 4:-0.321508 5:1.068462 6:-2.176116 7:-1.263754 8:-1.398931 9:1.244819 10:-2.243365 11:0.040944 12:-2.020896 13:2.462226 14:-0.405675 15:-1.810091 16:-0.259859 17:0.547529 18:0.776048 19:-1.406508 20:2.278927 21:-0.123268 22:-0.948511 23:0.647596 24:1.461991 25:-1.835306 26:-0.111553 27:-0.378899 28:-0.381896 29:-1.023995 30:-0.452877 31:1.898153 32:-0.868630 33:-1.519076 34:1.762429 35:-2.006081 36:-0.366648 37:-0.629264 38:-1.633122 39:-0.368689 40:-0.020882 41:-1.132244 42:0.109328 43:1.858779 44:1.036576 45:-0.012351 46:-0.226296 47:0.057754 48:0.570603 49:0.867955 50:0.212913 51:0.190141 52:0.678075 53:-1.054518 54:0.008642 55:-0.953029
-1 1:-0.291951 2:-0.979248 3:-0.237496 4:-2.113003 5:-1.526334 6:-1.112982 7:-0.778853 8:-0.040256 9:-0.632485 10:-0.815361 11:-1.026473 12:1.077944 13:-0.183503 14:0.551863 15:-1.352350 16:0.620334 17:-2.889495 18:-1.392990 19:1.007590 20:-0.249232 21:2.238619 22:0.506316 23:1.653913 24:-0.243350 25:-0.940497 26:-0.063953 27:-1.252767 28:-0.077471 29:1.354020 30:0.297052 31:-0.617426 32:-0.871034 33:-0.852218 34:1.380702 35:1.009130 36:-0.072736 37:-0.963594 38:-0.493173 39:0.379687 40:-0.289104 41:-0.690602 42:-0.095807 43:-1.173325 44:0.748041 45:-1.584665 46:0.232893 47:-0.185275 48:-0.964847 49:-2.734203 50:1.689940 51:-0.236967 52:-0.222097 53:-0.026143 54:0.681514 55:0.544063
-1 1:-0.870596 2:2.126328 3:-1.618872 4:2.099400 5:-0.749783 6:-1.564902 7:1.696740 8:0.556609 9:1.554419 10:0.350791 11:-0.296441 12:-1.207818 13:0.002891 14:0.620079 15:-1.108461 16:0.584713 17:0.265238 18:0.262593 19:-0.389088 20:-0.022390 21:-1.185591 22:1.192099 23:-0.390437 24:0.649372 25:1.519779 26:0.426409 27:0.527457 28:-0.326051 29:-0.892774 30:-0.970162 31:-1.401005 32:0.738704 33:0.334154 34:-1.062808 35:0.912960 36:0.414111 37:1.495845 38:1.288331 39:-0.379253 40:-0.485271 41:0.100635 42:-0.706245 43:0.376051 44:-0.237661 45:-0.588963 46:1.252092 47:0.694762 48:-1.343550 49:-0.426646 50:-0.072514 51:-1.142178 52:0.306982 53:1.042067 54:0.051728 55:0.433711
-1 1:0.508342 2:0.139795 3:-2.663089 4:-0.106876 5:0.654553 6:-0.830630 7:-0.015159 8:-0.775396 9:-1.088223 10:0.994043 11:-0.429706 12:0.281912 13:0.251741 14:-0.051540 15:-2.016091 16:-0.469396 17:0.976059 18:-0.918514 19:0.006073 20:0.398246 21:-0.090498 22:0.306686 23:-0.287530 24:0.301303 25:0.398659 26:-1.324663 27:-0.345877 28:-0.076437 29:-2.059881 30:-0.272944 31:-0.145253 32:-1.901623 33:0.802153 34:-2.188773 35:-0.261973 36:-1.323744 37:-1.068970 38:1.251964 39:0.432379 40:0.189897 41:-0.010174 42:1.410254 43:0.800531 44:-0.087556 45:-1.996146 46:-0.328557 47:1.277249 48:0.473939 49:-0.911351 50:-0.251750 51:0.357375 52:1.934202 53:-1.035239 54:0.445128 55:-0.978007
-1 1:1.610065 2:-0.094336 3:-0.463756 4:-0.003064 5:-0.120081 6:-2.148914 7:0.000110 8:-0.669127 9:0.684590 10:0.602581 11:-1.025487 12:1.125556 13:1.229036 14:-1.401284 15:-1.564069 16:-1.076418 17:-1.194507 18:-1.240141 19:-0.178753 20:-0.668119 21:-0.436494 22:0.149279 23:-1.058795 24:-1.513537 25:-0.728122 26:-0.145847 27:-1.065606 28:-0.171443 29:0.922404 30:-0.863047 31:2.031293 32:-0.053132 33:-0.895249 34:1.153768 35:-0.015847 36:-0.369937 37:1.078713 38:1.712672 39:-1.244663 40:0.030772 41:0.214688 42:0.843614 43:-2.302234 44:1.029109 45:0.376430 46:-1.419976 47:1.673634 48:-0.174789 49:1.172723 50:-1.089806 51:-0.437140 52:1.615041 53:-0.838864 54:-0.233335 55:-0.152263
-1 1:-0.924803 2:1.044735 3:1.683651 4:0.399436 5:0.895415 6:0.446108 7:-0.959383 8:0.315585 9:1.064873 10:3.119695 11:-1.158120 12:0.529424 13:0.429425 14:1.261661 15:0.141160 16:-1.178554 17:0.386959 18:1.912064 19:-0.794932 20:0.212397 21:0.440207 22:-0.829093 23:-2.553401 24:1.233959 25:-0.508247 26:-1.545249 27:0.920160 28:-1.101837 29:-0.585827 30:1.892287 31:0.589167 32:0.664045 33:0.363346 34:-1.255816 35:-0.586056 36:0.792469 37:-0.709415 38:0.165679 39:-0.551775 40:0.502570 41:-0.395170 42:-1.255984 43:-1.071029 44:-0.713843 45:0.759497 46:1.333026 47:1.458922 48:0.383837 49:0.148900 50:-1.654635 51:-0.009027 52:-0.290252 53:1.499657 54:-0.601227 55:1.939085
-1 1:-0.118586 2:-2.188823 3:-1.713392 4:0.359255 5:0.777827 6:0.917936 7:-0.415267 8:1.223964 9:0.539932 10:-0.027226 11:-0.857859 12:0.615913 13:-2.167268 14:-1.142889 15:-1.060227 16:-0.240010 17:0.466055 18:0.711493 19:-1.088144 20:1.127565 21:-0.538205 22:0.707558 23:-0.591276 24:-1.372220 25:1.649089 26:-0.350198 27:0.885921 28:0.706252 29:-0.697452 30:-0.267855 31:-1.332643 32:-0.244449 33:1.251152 34:1.071961 35:-1.308643 36:-1.259877 37:0.891069 38:1.110906 39:0.342567 40:-0.536236 41:0.374385 42:0.809674 43:1.076279 44:0.661114 45:-1.233742 46:-0.339137 47:-0.787380 48:1.827122 49:-0.771188 50:0.451423 51:-0.214817 52:0.541804 53:-1.721017 54:-0.682868 55:-1.791932
-1 1:-0.702502 2:-0.966341 3:-1.385257 4:1.016835 5:1.445526 6:0.429489 7:-1.026310 8:-1.223213 9:0.849229 10:1.835181 11:0.065506 12:1.358224 13:1.680098 14:0.205918 15:-0.118453 16:0.129201 17:0.271626 18:-1.010879 19:-0.183617 20:0.889173 21:0.859041 22:-0.834692 23:1.145828 24:0.843426 25:-0.237633 26:-1.661546 27:0.044596 28:0.289544 29:0.425830 30:-1.325475 31:-0.678084 32:-0.176771 33:1.045424 34:0.597560 35:0.282357 36:1.032771 37:-0.741715 38:0.079702 39:0.262808 40:-0.546959 41:-0.385190 42:-0.249962 43:1.090679 44:0.799954 45:-1.294529 46:1.902026 47:2.291017 48:-0.877120 49:0.515530 50:-0.969803 51:-0.213975 52:0.582074 53:0.480308 54:-1.245646 55:-2.769352
-1 1:0.750730 2:0.613519 3:0.477311 4:-2.075940 5:-0.022301 6:-0.437233 7:1.236053 8:-0.321154 9:0.206695 10:-0.013769 11:0.760597 12:0.213390 13:-1.216235 14:0.117211 15:-0.211896 16:-0.305019 17:0.092596 18:0.242261 19:0.499424 20:-0.169707 21:-1.132240 22:0.370698 23:1.829971 24:-0.365978 25:-0.214779 26:-1.148732 27:-0.476075 28:0.180049 29:1.568491 30:1.303238 31:1.337896 32:-0.465444 33:-0.449902 34:1.124076 35:-0.644147 36:0.446740 37:0.927521 38:0.116758 39:-2.780998 40:0.276620 41:0.478238 42:-0.128875 43:-0.402171 44:-0.706194 45:-0.226818 46:-0.654958 47:-0.301949 48:1.181101 49:0.482765 50:-1.302055 51:-0.966851 52:-0.234337 53:-0.304119 54:0.699369 55:0.657822
-1 1:1.032152 2:-0.684619 3:-0.653511 4:0.017009 5:-0.360488 6:0.249463 7:-1.561224 8:1.084747 9:0.632916 10:0.803089 11:0.339621 12:0.560390 13:1.220014 14:-0.572441 15:0.497063 16:-0.628564 17:-2.155001 18:0.765646 19:-1.840601 20:2.220287 21:0.063631 22:0.001821 23:-0.572950 24:0.795902 25:2.020837 26:-0.259703 27:-1.017979 28:0.899644 29:-0.679876 30:0.362878 31:-2.799782 32:-1.237452 33:-0.454723 34:-0.746638 35:0.529656 36:0.113721 37:-1.270067 38:-0.272958 39:0.689089 40:0.018136 41:0.013155 42:2.009353 43:0.904854 44:-0.073350 45:0.331074 46:-0.355764 47:1.742791 48:-0.286807 49:-0.422312 50:-0.297751 51:0.510701 52:0.900307 53:-0.832364 54:0.638677 55:0.985971
-1 1:0.735704 2:0.482491 3:-0.856106 4:0.107106 5:0.622108 6:2.767698 7:2.454667 8:-0.266178 9:-0.332997 10:-1.616058 11:0.123926 12:-1.353179 13:0.757465 14:-0.106214 15:-1.675525 16:1.554323 17:1.419212 18:0.923996 19:-1.281794 20:1.067349 21:-0.143859 22:-0.079721 23:-0.551206 24:-1.877396 25:-0.613167 26:-1.215103 27:-1.001543 28:0.878626 29:-0.256526 30:0.281053 31:-0.216492 32:1.217786 33:-0.973093 34:1.207576 35:0.711159 36:-0.015882 37:-2.151152 38:0.018672 39:0.739512 40:-0.592062 41:-0.518565 42:0.193419 43:1.359382 44:-0.298763 45:0.870545 46:-1.970024 47:-1.745262 48:0.728915 49:0.120954 50:-0.264380 51:0.749722 52:0.703570 53:0.082557 54:1.320953 55:-0.174949
-1 1:-0.749963 2:-2.237953 3:0.381378 4:2.560949 5:-0.719971 6:2.461995 7:1.189502 8:-1.409163 9:-0.799281 10:0.725745 11:0.696550 12:0.498139 13:1.477428 14:0.461017 15:-1.142285 16:1.340722 17:1.934023 18:0.415560 19:0.974902 20:-0.515593 21:-1.313132 22:-0.478651 23:0.486090 24:0.163006 25:0.390742 26:-1.934014 27:-0.397519 28:0.015795 29:0.029138 30:-0.008027 31:1.482607 32:-1.400228 33:-0.957495 34:-2.024628 35:-0.566642 36:0.576828 37:1.195720 38:2.004185 39:0.034621 40:-1.085783 41:-1.326929 42:-0.609714 43:-0.344614 44:-0.148981 45:-1.043951 46:0.226736 47:-0.487727 48:-1.472283 49:1.808456 50:0.384260 51:-0.757954 52:0.182307 53:0.302211 54:0.282499 55:-0.635995
-1 1:1.260909 2:-0.119084 3:-1.078114 4:0.760309 5:-0.778254 6:0.479570 7:-1.129538 8:1.371152 9:-0.706292 10:-0.323641 11:-1.252114 12:-0.003080 13:0.028805 14:-0.403881 15:-0.857865 16:1.171831 17:-0.333483 18:0.102747 19:-0.961502 20:2.355796 21:-0.186889 22:-0.288568 23:-0.458917 24:0.086171 25:0.987147 26:0.714273 27:0.777776 28:-0.918565 29:0.361488 30:-0.528600 31:-0.810419 32:-0.543588 33:-0.295420 34:0.607844 35:-1.473490 36:0.139306 37:-1.560777 38:0.383303 39:0.669078 40:0.565600 41:1.192984 42:-0.129588 43:-0.035966 44:-1.437769 45:-0.336419 46:0.851580 47:0.822215 48:0.239304 49:0.661464 50:0.590780 51:0.727180 52:-0.905494 53:-0.889695 54:1.737829 55:1.125989
-1 1:-0.940403 2:-0.380902 3:0.339263 4:-1.247061 5:-0.225016 6:-0.928140 7:0.614719 8:-1.489292 9:-0.842632 10:-1.072041 11:2.701305 12:-1.128480 13:0.942104 14:-0.411385 15:-0.702807 16:2.064134 17:0.705242 18:1.592435 19:0.099900 20:-2.232535 21:-0.963353 22:0.279211 23:-0.175249 24:-0.314548 25:1.616751 26:0.124118 27:-0.343536 28:0.039869 29:1.072315 30:-1.328798 31:-0.138673 32:-1.126754 33:2.191217 34:-0.349420 35:0.103567 36:0.582236 37:-0.445211 38:-1.484428 39:-1.794782 40:-1.170283 41:-0.126457 42:-1.000998 43:-1.695048 44:-0.533323 45:0.002423 46:1.547643 47:-0.159496 48:0.187782 49:-1.331962 50:-0.729011 51:1.577309 52:-0.439969 53:1.180058 54:1.233811 55:-0.689073
-1 1:-0.431387 2:-0.507371 3:0.756338 4:-0.109073 5:-0.741904 6:-0.004082 7:-0.648512 8:0.120407 9:0.601261 10:1.765294 11:1.010866 12:1.519896 13:-1.147449 14:-0.034537 15:-0.775810 16:0.272374 17:-2.228582 18:0.023364 19:-0.116362 20:-1.043651 21:0.448444 22:1.643648 23:0.782501 24:2.283966 25:1.515454 26:1.032910 27:-2.877871 28:0.990084 29:0.501898 30:1.348459 31:-1.964341 32:0.594498 33:-0.293503 34:-0.168776 35:0.545594 36:-0.997114 37:0.941546 38:0.804291 39:0.463544 40:-1.890970 41:0.057932 42:0.449168 43:-0.645131 44:2.066383 45:-0.846231 46:-0.836029 47:0.105833 48:-0.855919 49:1.576802 50:-2.344782 51:0.813708 52:-0.880065 53:0.134504 54:0.791732 55:-0.400221
-1 1:0.439158 2:0.644431 3:0.098711 4:1.430844 5:0.187073 6:-0.129973 7:-0.085151 8:1.099355 9:-0.630446 10:1.037089 11:-1.379222 12:-0.978368 13:-1.384237 14:0.741086 15:1.111171 16:1.280590 17:-0.757392 18:-1.103738 19:-2.088386 20:0.089540 21:0.462600 22:-0.823542 23:1.130009 24:-1.036398 25:-0.361980 26:-0.184336 27:-0.166473 28:-0.963402 29:2.495342 30:-0.153589 31:0.366265 32:0.366426 33:0.179141 34:0.807831 35:1.265694 36:-0.316210 37:-1.022322 38:-0.946714 39:0.869476 40:0.192882 41:-0.440971 42:-1.538743 43:-2.455183 44:2.158103 45:-0.387679 46:1.079791 47:-1.198030 48:1.254877 49:1.113056 50:-0.296479 51:0.097378 52:-0.066021 53:1.484028 54:-0.746486 55:-0.225396
-1 1:1.116602 2:0.946597 3:1.605234 4:0.253563 5:1.204333 6:0.463022 7:-0.470110 8:1.687006 9:-0.737896 10:-0.250068 11:-1.292293 12:-1.080548 13:0.617014 14:-1.629372 15:0.133303 16:-0.433060 17:0.953918 18:0.703670 19:-0.957926 20:-0.343995 21:0.593294 22:-1.642532 23:-1.105804 24:0.806302 25:0.113574 26:0.779257 27:0.796793 28:-0.006853 29:-0.749796 30:-0.652133 31:-0.787105 32:0.867306 33:1.538766 34:-0.531722 35:-0.778834 36:1.925274 37:-0.418676 38:0.802170 39:1.438593 40:-0.238342 41:-0.351346 42:-0.321932 43:0.494786 44:0.724019 45:0.115152 46:0.842287 47:-1.346083 48:1.420357 49:0.978163 50:0.869067 51:-1.913146 52:-0.107312 53:-0.416801 54:1.227491 55:0.250036
-1 1:0.939130 2:-0.614399 3:0.063254 4:2.324800 5:0.134781 6:-0.078724 7:-0.139346 8:0.471160 9:0.526329 10:0.141212 11:1.408819 12:-0.945259 13:0.875290 14:-1.210015 15:-0.333312 16:0.380257 17:1.586516 18:-0.748598 19:1.301025 20:-0.452189 21:-0.138646 22:1.170992 23:0.196074 24:0.135612 25:0.339948 26:-0.140287 27:1.073712 28:0.096109 29:-0.050638 30:1.168135 31:0.292254 32:-0.483953 33:2.816723 34:0.873814 35:-0.827255 36:-0.320507 37:-0.093397 38:-2.084843 39:-0.263694 40:1.525398 41:-0.215134 42:-0.498291 43:-0.432929 44:0.221183 45:0.143209 46:1.665975 47:0.582099 48:-1.007765 49:0.395332 50:-1.230933 51:0.310849 52:0.064840 53:1.744279 54:-0.222848 55:0.142639
-1 1:-1.270966 2:0.958223 3:-0.163887 4:-2.076677 5:-0.427711 6:-0.159577 7:-0.341414 8:-0.227072 9:-0.647068 10:-0.660570 11:0.729354 12:1.019034 13:-1.074479 14:-1.450148 15:-0.814638 16:-1.006173 17:1.901419 18:1.445599 19:-0.776127 20:-1.275571 21:-1.623436 22:2.422454 23:0.828695 24:-0.009966 25:-0.398626 26:0.953633 27:0.526369 28:2.074629 29:0.210179 30:0.767693 31:0.636678 32:-0.077663 33:0.416391 34:-0.039625 35:-0.720957 36:-0.125023 37:0.900154 38:-1.188642 39:0.148504 40:-0.425199 41:1.067888 42:-0.075852 43:-2.380616 44:1.159219 45:-0.887341 46:0.823571 47:1.695297 48:-0.391932 49:0.375859 50:0.858365 51:-0.755266 52:0.597549 53:-1.600342 54:0.188612 55:0.434242
-1 1:-0.215755 2:-0.818436 3:-1.429998 4:0.527506 5:-0.349463 6:1.230214 7:-0.657800 8:-0.611220 9:0.092794 10:-0.486926 11:-0.969005 12:-0.427729 13:-0.668907 14:1.536728 15:-1.046051 16:-0.060839 17:1.934205 18:1.312356 19:1.755629 20:0.705153 21:-0.035326 22:0.409349 23:-0.114987 24:1.222740 25:-0.192328 26:-3.313768 27:1.518802 28:0.935857 29:0.073149 30:-1.478590 31:0.391488 32:-2.604317 33:0.983891 34:-1.063454 35:1.213781 36:-0.285576 37:0.573974 38:-0.665508 39:1.321968 40:1.248163 41:-0.759175 42:1.481853 43:-0.531802 44:-0.640789 45:0.514793 46:0.134144 47:2.723971 48:-0.410457 49:-0.992015 50:0.976838 51:-0.548070 52:1.223797 53:-0.040331 54:-2.779297 55:0.299449
-1 1:-0.269563 2:-0.363815 3:-0.507450 4:0.958388 5:1.388799 6:-0.194451 7:-1.234852 8:-1.310784 9:0.463791 10:0.618461 11:0.205284 12:0.940622 13:1.979357 14:0.504423 15:-1.811545 16:0.398347 17:-1.414339 18:-0.250674 19:0.250770 20:-0.721706 21:0.578806 22:0.511257 23:0.336174 24:-1.060882 25:-1.434327 26:1.614948 27:0.840882 28:-0.746098 29:1.419421 30:0.525815 31:1.989968 32:0.371938 33:-0.447580 34:-0.833014 35:2.043225 36:0.280753 37:-0.578592 38:0.071792 39:-0.356923 40:-1.314351 41:2.420290 42:0.106991 43:1.115525 44:1.418262 45:0.028226 46:-0.379084 47:-0.928743 48:-0.124429 49:-0.571311 50:0.129029 51:-0.111041 52:1.161625 53:-1.160814 54:0.667967 55:-0.230056
-1 1:0.553971 2:0.929559 3:-0.421775 4:-1.376109 5:1.062584 6:0.775265 7:-0.477592 8:-0.398850 9:-2.312993 10:0.616440 11:-1.103296 12:1.011332 13:-1.138524 14:-1.123032 15:-1.571931 16:-1.326094 17:-0.445560 18:1.841711 19:0.722709 20:1.217711 21:-0.547437 22:1.459354 23:1.582454 24:1.009675 25:0.083605 26:-0.887106 27:-0.598838 28:-0.247542 29:-0.347278 30:0.979448 31:2.115041 32:0.366039 33:-1.664337 34:0.912311 35:1.060272 36:-0.951817 37:-0.263934 38:-0.652906 39:0.769909 40:0.123507 41:0.084722 42:0.605892 43:1.788389 44:0.787270 45:0.869609 46:-0.139240 47:-1.682826 48:-0.578695 49:2.159043 50:0.102631 51:0.244894 52:-0.681096 53:-0.448113 54:-0.018645 55:-0.730187
-1 1:-0.164867 2:-0.494648 3:1.217638 4:-0.021109 5:-0.446319 6:-0.894831 7:-0.647560 8:-1.254078 9:1.450648 10:-0.163401 11:0.687684 12:0.292273 13:-0.553610 14:-1.482950 15:1.610106 16:-0.135301 17:-0.140683 18:0.638972 19:1.733330 20:0.912561 21:-1.050150 22:2.514915 23:-1.372296 24:1.809079 25:1.300809 26:-0.397598 27:-0.704179 28:-2.546675 29:1.115410 30:0.238460 31:0.197952 32:0.316289 33:-1.480959 34:-1.321760 35:-1.568097 36:-1.450217 37:-0.112459 38:-1.650092 39:0.968778 40:1.132026 41:2.224523 42:0.434834 43:-0.200410 44:-1.251770 45:1.488689 46:1.192142 47:-2.108262 48:1.254414 49:1.450202 50:-1.587478 51:1.702229 52:1.827366 53:-1.354111 54:0.146024 55:-0.971859
-1 1:0.764188 2:0.826333 3:1.490034 4:-0.745587 5:1.142264 6:-1.139664 7:-1.416248 8:0.390430 9:0.927016 10:-0.569859 11:0.374845 12:-1.379895 13:0.362494 14:1.066307 15:2.446884 16:0.094057 17:-0.858677 18:0.543502 19:0.567851 20:0.354728 21:-1.315042 22:0.035795 23:0.661489 24:0.322676 25:0.251376 26:-1.507796 27:0.221497 28:0.564733 29:-0.008194 30:0.513712 31:-0.199555 32:0.461187 33:-1.529017 34:0.223354 35:-1.289211 36:-0.158853 37:0.683443 38:0.190703 39:-0.974501 40:0.280889 41:-0.737677 42:-0.478739 43:-0.842428 44:-1.974538 45:0.429231 46:-0.213563 47:-1.488939 48:-0.500331 49:0.724352 50:0.688348 51:-0.257930 52:-0.159708 53:1.008382 54:-0.150233 55:-0.004482
-1 1:-0.875435 2:-0.884985 3:0.667328 4:-0.505507 5:-0.936571 6:-1.083348 7:0.313545 8:-0.107729 9:-1.510900 10:0.000160 11:-0.078481 12:-0.418856 13:-0.470895 14:-0.603387 15:1.628541 16:-0.823046 17:0.699353 18:0.256993 19:-0.142389 20:-0.442237 21:-0.762500 22:1.504010 23:-0.369445 24:-0.169165 25:2.501279 26:1.080002 27:1.326887 28:-1.516462 29:0.078239 30:-1.080958 31:-0.881666 32:-0.006400 33:-0.755074 34:-1.252405 35:-0.261181 36:-0.287833 37:0.094193 38:-0.721420 39:-0.607239 40:2.082271 41:0.102945 42:-0.999064 43:0.965539 44:0.247750 45:-1.616472 46:0.063351 47:0.528097 48:0.664533 49:0.533093 50:1.138453 51:-1.380291 52:1.440693 53:0.716186 54:1.288353 55:-2.110862
-1 1:-0.460286 2:1.466765 3:-0.884241 4:-0.133526 5:-0.239886 6:0.819706 7:0.953172 8:-1.660091 9:-0.945880 10:-0.601751 11:1.021878 12:0.029064 13:1.161437 14:0.867852 15:-0.840799 16:0.678911 17:-0.750493 18:0.539182 19:1.423425 20:-1.010172 21:1.732356 22:0.193742 23:0.744912 24:-0.011815 25:0.412981 26:-0.511857 27:-0.864250 28:0.385937 29:-0.146559 30:-0.930135 31:0.124311 32:1.064843 33:-0.346202 34:0.910458 35:0.332337 36:0.333767 37:-0.662993 38:0.499223 39:0.002530 40:1.529837 41:-0.024408 42:0.530704 43:0.429970 44:-0.024321 45:0.620514 46:-0.245235 47:-0.823637 48:0.164983 49:-0.541466 50:-0.301030 51:0.329447 52:-0.750849 53:-0.475830 54:-0.455783 55:0.558467
-1 1:1.243122 2:-1.596058 3:-0.048698 4:0.642265 5:1.004402 6:-0.794301 7:2.205172 8:-0.467151 9:-0.134227 10:1.239797 11:-1.083344 12:-1.104769 13:1.839953 14:0.374701 15:1.163934 16:-0.481356 17:-0.592164 18:-0.826212 19:2.024509 20:0.149867 21:0.118571 22:1.327213 23:0.532315 24:2.060461 25:0.111089 26:-0.837149 27:0.928769 28:1.089150 29:0.202444 30:1.297253 31:0.035154 32:1.424783 33:-1.608299 34:-0.726828 35:-1.918402 36:0.704019 37:-2.287014 38:-0.788975 39:-0.480892 40:0.642893 41:-0.586725 42:0.647173 43:0.297439 44:-0.506913 45:0.849076 46:-1.506984 47:0.322241 48:-1.576862 49:1.504692 50:0.143551 51:-0.742302 52:-0.536587 53:0.031604 54:-0.243179 55:-0.102841
-1 1:0.622303 2:-0.886234 3:-0.452902 4:-0.198602 5:1.997334 6:0.472933 7:0.211244 8:0.347272 9:-0.451148 10:-0.509571 11:-0.417240 12:-2.236678 13:-0.529040 14:0.618257 15:0.734261 16:-0.342120 17:-0.888633 18:-0.450855 19:-1.490723 20:-0.257590 21:-0.105767 22:1.462154 23:-1.435937 24:2.501654 25:0.282181 26:-0.362214 27:0.530671 28:-0.096644 29:0.557870 30:-0.920191 31:-1.906499 32:0.790447 33:0.533141 34:-0.515733 35:-0.356792 36:1.097999 37:-0.594491 38:0.250112 39:1.104353 40:-0.471528 41:-2.856070 42:-0.801524 43:-0.568508 44:-1.174153 45:-0.151923 46:-0.182484 47:-0.727292 48:-2.619197 49:-1.965756 50:-0.422700 51:1.780313 52:0.155823 53:0.894690 54:0.943148 55:-0.633817
-1 1:-0.495035 2:2.066846 3:-1.156581 4:-0.474406 5:-0.075169 6:-1.128752 7:0.366502 8:0.597489 9:1.366385 10:1.847739 11:-0.203462 12:0.880130 13:1.072359 14:0.556017 15:-0.471916 16:1.442330 17:-0.489038 18:-0.385275 19:-0.260169 20:-0.645716 21:0.517270 22:-0.338982 23:-0.210391 24:-0.124243 25:-0.772758 26:-1.316637 27:-0.151482 28:0.376415 29:-1.337835 30:-0.251138 31:0.196679 32:0.055505 33:0.521158 34:-0.304652 35:0.655459 36:-1.694226 37:-0.675256 38:-0.481649 39:-0.169705 40:-0.118256 41:0.319656 42:-1.826740 43:0.543720 44:-0.107298 45:-0.208914 46:-1.357694 47:1.728223 48:-1.232011 49:0.936380 50:-0.321952 51:0.747565 52:0.611350 53:0.755172 54:-0.280377 55:0.313624
-1 1:-1.781721 2:0.909975 3:-0.883707 4:-0.352277 5:0.458073 6:-0.927317 7:0.143057 8:1.412025 9:2.000604 10:0.756091 11:-0.185143 12:0.792083 13:0.438929 14:-1.433683 15:-1.000642 16:0.954156 17:-0.730201 18:-1.594798 19:-0.705480 20:-0.017569 21:0.105845 22:0.712079 23:1.356533 24:-1.859055 25:-0.421352 26:-0.272906 27:0.557532 28:1.400501 29:-0.409382 30:-0.993250 31:0.894714 32:-0.963771 33:1.093071 34:1.281063 35:-0.857656 36:-1.761259 37:0.035871 38:-0.337674 39:-1.042943 40:0.763640 41:1.847279 42:-0.719911 43:-0.914772 44:-1.357752 45:0.940417 46:-0.062291 47:0.649603 48:-2.094057 49:0.569716 50:1.516513 51:0.590794 52:0.847915 53:0.945670 54:-2.187702 55:-0.878450
-1 1:0.138746 2:2.052252 3:-0.910517 4:-0.220147 5:0.100782 6:-1.646938 7:-0.970981 8:-1.174815 9:-0.950773 10:-0.726834 11:0.842319 12:1.229434 13:-0.644972 14:-0.384260 15:0.508986 16:-0.588251 17:-1.510780 18:1.909572 19:0.251562 20:0.800582 21:-0.886257 22:-1.082489 23:0.033504 24:0.375116 25:1.247007 26:-0.443975 27:-0.435330 28:-1.253927 29:-0.094644 30:-0.830590 31:0.159913 32:-1.296642 33:1.149704 34:0.502019 35:0.649411 36:-0.923882 37:-0.298983 38:1.031123 39:0.100273 40:1.035270 41:-0.245585 42:-1.946552 43:0.008448 44:-0.723265 45:1.618331 46:0.062998 47:-1.483908 48:0.055457 49:0.791634 50:-0.537252 51:0.839876 52:0.368808 53:0.563992 54:0.670141 55:0.563594
-1 1:0.341479 2:0.820548 3:-0.410066 4:0.645858 5:-1.313382 6:3.061938 7:-1.081022 8:-0.641360 9:-0.419608 10:0.389120 11:0.025812 12:-0.233849 13:-0.566610 14:0.976374 15:-1.376410 16:-1.067519 17:0.184818 18:0.159992 19:-0.424689 20:1.223959 21:-0.056967 22:0.791397 23:0.484805 24:2.907750 25:-0.110983 26:-0.112466 27:1.279146 28:0.589537 29:0.333072 30:-0.319231 31:-1.182608 32:-1.011894 33:-2.146203 34:-0.785883 35:-1.149955 36:-0.490168 37:-1.992124 38:-0.117245 39:-0.830527 40:-0.311393 41:-0.712903 42:-1.027946 43:-0.954965 44:0.009258 45:0.840376 46:0.353306 47:0.930369 48:0.954563 49:0.082861 50:-0.872368 51:0.751574 52:0.822618 53:0.242629 54:-0.198973 55:-1.094591
-1 1:1.097909 2:0.380752 3:-0.610725 4:1.267340 5:0.793060 6:-0.071088 7:1.112947 8:0.416406 9:-1.318897 10:1.597727 11:0.984198 12:0.101895 13:1.870537 14:-1.435441 15:1.715480 16:1.367324 17:-1.121988 18:0.433436 19:-1.455516 20:-1.248818 21:-0.849583 22:1.495294 23:-1.411377 24:0.346178 25:0.532307 26:0.333729 27:-0.995920 28:0.885052 29:0.269778 30:0.968222 31:-0.438031 32:0.727014 33:-0.199206 34:-0.503834 35:-0.299772 36:-0.614935 37:-0.451915 38:-0.882204 39:-0.259338 40:-2.509062 41:1.404562 42:0.463121 43:-0.128104 44:1.204148 45:-0.959702 46:-1.146870 47:0.778934 48:-0.402800 49:-0.479578 50:0.136822 51:-1.373738 52:-1.437632 53:-0.847471 54:-0.023240 55:-0.806923
-1 1:-0.245784 2:-0.782231 3:-0.399189 4:-0.456816 5:0.772918 6:-0.970948 7:0.563225 8:0.965122 9:-0.747604 10:-2.176029 11:-0.279387 12:-1.053375 13:-0.107741 14:1.321665 15:0.247071 16:-0.807114 17:-0.836311 18:0.348069 19:1.994350 20:-1.214175 21:0.146247 22:1.250419 23:0.549287 24:0.533549 25:2.031588 26:0.813626 27:0.832377 28:-0.777252 29:-0.140911 30:-0.256583 31:0.669557 32:-0.673936 33:0.327267 34:-1.212977 35:1.198454 36:0.055718 37:-0.613523 38:-0.168226 39:0.671698 40:-0.144964 41:-0.139009 42:0.354994 43:-0.256856 44:0.332617 45:1.116804 46:-0.037402 47:-0.264620 48:0.163330 49:-0.001583 50:-1.195092 51:0.773262 52:1.705263 53:1.799334 54:0.009076 55:-0.108394
-1 1:2.387266 2:-1.286368 3:-1.130365 4:0.088649 5:-0.579733 6:-0.155796 7:-0.353907 8:-1.709355 9:1.519047 10:-0.801320 11:0.508165 12:0.096880 13:-1.231228 14:1.762533 15:0.908360 16:-0.233976 17:1.481179 18:-0.179025 19:-0.289002 20:0.392462 21:0.525953 22:0.754755 23:-0.400436 24:1.274103 25:0.752301 26:-0.337712 27:-0.128785 28:0.337550 29:-0.056637 30:0.306721 31:-0.659375 32:-0.773711 33:0.472252 34:0.197768 35:-1.487779 36:1.157155 37:-0.740088 38:-0.619388 39:0.617750 40:1.515636 41:-1.429541 42:2.098699 43:-0.469143 44:-0.280214 45:-0.338499 46:0.364973 47:1.573123 48:2.200709 49:-1.098312 50:-0.616835 51:-0.588253 52:-0.818499 53:-0.082648 54:1.732758 55:0.930361
-1 1:-0.193619 2:-0.310439 3:-0.623812 4:-0.346291 5:0.043543 6:-0.398682 7:1.538974 8:1.620170 9:0.677050 10:1.444720 11:-1.360638 12:0.431264 13:1.119839 14:-0.172760 15:-0.049526 16:-1.322561 17:0.877505 18:-0.210063 19:1.420143 20:-1.315221 21:-0.949089 22:1.187457 23:0.273360 24:0.502220 25:-1.709523 26:0.546928 27:-2.113574 28:-0.331072 29:0.110840 30:-0.284102 31:-0.467711 32:0.829092 33:0.594586 34:1.020350 35:0.508097 36:0.405853 37:1.279197 38:0.122288 39:0.257698 40:0.125309 41:0.457237 42:0.010887 43:-1.070799 44:0.240750 45:1.613281 46:-0.297550 47:-1.286283 48:-3.178262 49:-0.417315 50:1.065571 51:-0.446678 52:2.455051 53:0.084127 54:-1.002466 55:1.987245
-1 1:0.117072 2:-0.967302 3:1.437052 4:-0.336228 5:-0.885419 6:0.050027 7:0.044316 8:0.993253 9:0.765881 10:-0.436708 11:0.688912 12:-0.964327 13:-0.235145 14:0.134238 15:-0.950141 16:1.071804 17:1.457577 18:0.079785 19:-0.812532 20:0.584350 21:-0.157089 22:-1.311944 23:0.682861 24:-1.054011 25:-1.558648 26:0.500879 27:1.182399 28:-0.888019 29:-0.572926 30:-1.555662 31:-0.464938 32:-1.036049 33:0.393830 34:0.385894 35:-0.627406 36:-1.664557 37:-1.636620 38:1.075092 39:0.767702 40:0.803851 41:-0.019018 42:0.682749 43:-0.416931 44:-0.236580 45:-0.236601 46:0.170802 47:-1.890548 48:0.285550 49:-1.444045 50:-0.160034 51:-0.792987 52:-0.546121 53:-0.195203 54:1.251135 55:-0.601954
-1 1:-0.056142 2:-0.734313 3:-0.536117 4:0.153068 5:-0.702833 6:-0.341419 7:0.416004 8:0.809142 9:-1.473003 10:-0.314238 11:-1.030337 12:-1.201773 13:-0.841914 14:0.924447 15:0.761665 16:-1.662686 17:0.892584 18:0.419420 19:0.187308 20:-0.729207 21:0.199981 22:0.188280 23:-0.481914 24:-0.665422 25:-0.677773 26:-0.052927 27:0.005346 28:0.699847 29:-1.582702 30:0.477158 31:-0.254922 32:1.580444 33:0.666538 34:1.153238 35:0.602576 36:1.128672 37:0.124199 38:-0.481615 39:-0.301568 40:0.138409 41:-0.702560 42:0.825532 43:-0.408169 44:-1.293237 45:1.491499 46:-0.893899 47:1.418728 48:-0.312513 49:-2.145140 50:-0.580398 51:-0.867676 52:0.441198 53:1.070139 54:-0.090669 55:0.622370
-1 1:0.288862 2:-0.349505 3:0.314883 4:-0.422694 5:-1.615552 6:-0.329365 7:2.281214 8:0.248579 9:1.664259 10:1.032726 11:-1.821355 12:0.154215 13:0.121324 14:-1.487136 15:1.042568 16:0.100219 17:1.333968 18:-2.044228 19:-1.056532 20:-0.944486 21:0.121349 22:-1.102434 23:0.778245 24:0.268204 25:-0.558597 26:-0.000042 27:-1.334254 28:-1.018272 29:0.221966 30:-0.240279 31:-1.324807 32:-0.810030 33:-0.712980 34:2.122171 35:-0.757924 36:1.717872 37:-0.076392 38:-0.488709 39:-0.505313 40:-1.223992 41:-1.661618 42:-0.172668 43:0.299567 44:0.600884 45:-0.052559 46:0.608688 47:-1.383898 48:0.964402 49:0.596857 50:1.358271 51:-0.871292 52:1.741748 53:-0.598111 54:-0.951998 55:-0.130326
-1 1:0.697443 2:0.364356 3:-0.928169 4:2.261009 5:-1.121813 6:1.268728 7:0.792702 8:-1.837524 9:0.105860 10:0.461557 11:-1.027955 12:0.578977 13:-0.500053 14:0.808793 15:-1.032744 16:-0.956333 17:-0.808254 18:-1.728727 19:-0.015391 20:0.161350 21:0.654532 22:-1.307522 23:0.531207 24:0.949156 25:1.404406 26:0.312291 27:1.858660 28:-0.344579 29:0.353839 30:0.994684 31:-1.353982 32:1.435690 33:1.392327 34:-0.672350 35:0.115870 36:-0.398129 37:-0.393938 38:0.649189 39:1.963093 40:1.490207 41:1.432100 42:-1.000692 43:0.486863 44:-0.589036 45:0.226946 46:0.845551 47:0.288702 48:-2.076024 49:-1.070772 50:-1.563449 51:1.140857 52:-2.173309 53:-0.293441 54:-1.953596 55:0.720270
-1 1:-0.012448 2:0.562752 3:0.008915 4:0.678247 5:1.461301 6:0.283273 7:1.876113 8:0.579023 9:-0.084986 10:0.074995 11:1.778458 12:-0.202915 13:0.964497 14:1.546298 15:0.286664 16:-0.101128 17:0.009657 18:-0.303750 19:-0.892806 20:0.142585 21:0.145111 22:0.491839 23:-0.445329 24:0.332122 25:1.203794 26:1.004311 27:0.435794 28:-1.526234 29:-1.174470 30:-0.688298 31:0.118197 32:-1.562180 33:0.498187 34:1.739740 35:-1.536982 36:1.505965 37:0.705236 38:0.236250 39:1.025659 40:1.014250 41:0.354923 42:-2.278834 43:0.697203 44:-0.305765 45:-0.705360 46:1.260447 47:-0.347244 48:-1.143397 49:0.506103 50:-0.820582 51:-2.021205 52:0.844504 53:-0.791546 54:-1.658217 55:0.144348
-1 1:-0.450943 2:-2.430160 3:-0.374446 4:-0.264100 5:-1.040834 6:-0.531652 7:0.998747 8:-0.059110 9:-0.940516 10:1.673212 11:-1.085521 12:0.629108 13:0.475882 14:0.483134 15:-1.412239 16:0.993618 17:0.537775 18:0.599502 19:-1.116230 20:1.039660 21:-0.341862 22:-0.517825 23:0.984799 24:-2.132825 25:1.299753 26:0.284258 27:0.498823 28:-0.363882 29:-1.692443 30:0.324739 31:1.443122 32:2.147436 33:-0.362643 34:0.522765 35:1.694918 36:-0.060096 37:-1.073828 38:1.897907 39:0.057064 40:0.378896 41:-0.499555 42:1.508264 43:2.131858 44:0.578215 45:0.495425 46:0.530152 47:0.339561 48:0.671163 49:-1.797316 50:0.305396 51:-0.491518 52:1.002042 53:0.694694 54:0.962866 55:-0.436727
-1 1:2.148589 2:0.783869 3:1.678852 4:-0.726320 5:0.753132 6:1.607840 7:-1.043862 8:1.139722 9:-1.626922 10:-1.286469 11:0.369743 12:1.230887 13:0.803895 14:-0.890079 15:-1.761792 16:1.086838 17:0.093583 18:-0.014958 19:0.021294 20:-1.315557 21:0.582077 22:0.411142 23:-0.146664 24:-0.011234 25:1.512244 26:-1.012352 27:-0.280811 28:0.734899 29:0.199324 30:0.660979 31:-1.087892 32:-1.053414 33:-0.018662 34:-0.988541 35:0.077149 36:-0.488410 37:-0.361200 38:-0.417085 39:-0.009504 40:-0.239775 41:0.591700 42:-1.237260 43:0.427756 44:1.039441 45:1.034191 46:0.677271 47:-0.022334 48:-1.841794 49:-1.683697 50:0.671747 51:-0.898711 52:2.060444 53:0.607277 54:0.624914 55:0.173254
-1 1:0.189046 2:0.216151 3:1.180337 4:1.089431 5:1.943276 6:0.254474 7:-1.234727 8:0.120050 9:0.123971 10:-0.039599 11:0.128138 12:-0.567829 13:-1.235745 14:0.569929 15:0.487045 16:-1.582724 17:0.183916 18:-1.113859 19:-1.673371 20:-0.495980 21:0.778883 22:0.029741 23:-1.671761 24:-0.730324 25:-0.361646 26:-1.089068 27:-3.154065 28:0.049097 29:-0.727550 30:-2.083800 31:1.175416 32:0.910682 33:1.986639 34:-0.151539 35:0.355759 36:-2.142544 37:0.232418 38:-1.007935 39:1.923834 40:1.815410 41:-0.852636 42:-1.624523 43:1.099848 44:-0.420353 45:-0.693160 46:-0.208523 47:0.544357 48:-0.108478 49:-1.677211 50:0.690368 51:-0.424865 52:0.405716 53:-1.078393 54:-0.648001 55:-1.426457
-1 1:-0.584392 2:-1.228953 3:0.606529 4:-0.713415 5:0.359013 6:0.786299 7:-1.410751 8:-0.127272 9:-0.651608 10:-0.172603 11:0.397438 12:0.075896 13:0.128763 14:-1.739519 15:0.100360 16:1.560494 17:-0.523918 18:-0.628597 19:0.521386 20:1.166088 21:0.378375 22:-1.005216 23:0.623033 24:0.153177 25:-0.953042 26:-1.539808 27:-2.695372 28:0.342729 29:0.677828 30:0.775475 31:-1.305386 32:0.528533 33:-0.259819 34:-3.473843 35:-1.915303 36:1.284701 37:-0.472813 38:-1.184387 39:-1.305093 40:-1.882631 41:-0.991159 42:-1.404045 43:-0.248870 44:-1.685622 45:1.401217 46:0.053748 47:0.887538 48:-0.422837 49:0.362726 50:-0.447384 51:0.962782 52:1.428426 53:-0.935988 54:-0.306528 55:-0.020679
-1 1:-0.099311 2:0.849634 3:0.134163 4:0.345239 5:0.850466 6:0.495133 7:1.202884 8:-0.850089 9:0.117717 10:-1.077732 11:0.438380 12:-0.226587 13:0.302408 14:0.886601 15:-1.220739 16:-0.461250 17:1.238898 18:0.508789 19:0.592035 20:-1.108933 21:-0.256925 22:-0.939935 23:1.206279 24:0.446377 25:1.211282 26:0.120758 27:-0.665070 28:0.227847 29:0.608479 30:-2.246442 31:-1.412605 32:-0.585253 33:-2.081313 34:-1.374653 35:0.010530 36:0.721292 37:0.375491 38:0.723576 39:0.999437 40:-1.157507 41:0.832493 42:1.347643 43:-0.455062 44:-0.725115 45:-0.360472 46:-1.798358 47:-0.696683 48:-0.557700 49:1.683124 50:-0.883052 51:-2.100833 52:-2.474124 53:-1.244599 54:1.450731 55:-0.138943
-1 1:0.208949 2:0.553520 3:0.884841 4:-0.799533 5:-1.233468 6:0.629185 7:1.382557 8:-0.528491 9:-0.012540 10:-2.111235 11:-0.054072 12:0.886352 13:2.163968 14:0.760405 15:-0.975126 16:0.657173 17:-0.060408 18:-0.510428 19:-0.784997 20:-1.063484 21:0.118451 22:0.420713 23:0.222962 24:-0.509251 25:0.633759 26:-0.573330 27:1.182886 28:-1.219972 29:0.852701 30:-0.043711 31:0.527695 32:-0.648274 33:0.292213 34:0.082288 35:0.025961 36:-1.355466 37:-0.512924 38:-0.652133 39:-0.785885 40:-0.442133 41:0.268585 42:-1.547989 43:-0.800842 44:0.652609 45:-1.593080 46:0.348575 47:-0.084082 48:0.245807 49:-0.608040 50:-0.836674 51:-0.878714 52:-2.122805 53:-0.317478 54:-1.328923 55:0.917544
-1 1:-1.377002 2:-0.589408 3:0.279472 4:0.230286 5:-0.496315 6:-0.044982 7:-1.073933 8:-1.944625 9:0.508770 10:-0.543482 11:-0.611536 12:-0.494144 13:-2.456418 14:2.380584 15:0.054088 16:-1.629810 17:-0.267537 18:1.325436 19:-1.823183 20:-0.794760 21:0.703741 22:-0.200406 23:0.981020 24:0.008390 25:-2.196887 26:0.585627 27:1.582206 28:-3.133785 29:0.422167 30:0.460267 31:1.013883 32:-0.449168 33:-0.051384 34:0.995611 35:0.263570 36:0.010016 37:0.897814 38:-1.597080 39:-1.088395 40:-0.575815 41:1.516887 42:1.822185 43:0.273249 44:-1.350167 45:-0.521624 46:0.426867 47:-0.855014 48:0.906958 49:-0.397689 50:0.487828 51:-0.055976 52:-0.030889 53:2.352978 54:-1.943301 55:0.993004
-1 1:-0.392153 2:1.100636 3:-1.717068 4:-0.653777 5:-1.400183 6:0.003428 7:1.268733 8:-0.292180 9:2.464528 10:0.610185 11:0.150324 12:1.626022 13:0.538796 14:-1.201995 15:0.752278 16:-1.389564 17:0.463076 18:-0.984234 19:-0.548335 20:1.168126 21:-0.138366 22:1.322891 23:0.141803 24:0.347056 25:1.133413 26:0.234907 27:0.147038 28:-0.874187 29:-0.203526 30:0.726448 31:-1.053447 32:0.053689 33:-0.303123 34:-0.542787 35:-0.509375 36:-1.087251 37:-1.178798 38:0.595524 39:-0.307297 40:-0.792422 41:0.155081 42:-1.349580 43:0.387382 44:-0.767645 45:1.106161 46:-1.543807 47:1.289676 48:0.448596 49:-0.146372 50:-1.136323 51:1.779917 52:-0.226105 53:-1.097351 54:0.341462 55:-0.960560
-1 1:-0.303449 2:1.398483 3:-0.805314 4:0.934117 5:1.402130 6:0.269006 7:-1.025343 8:1.380896 9:-0.198287 10:-0.899526 11:-0.191195 12:-0.217624 13:-0.860017 14:-1.976571 15:-0.234769 16:0.785341 17:1.526529 18:-0.409925 19:-0.644699 20:-0.510217 21:-1.105479 22:-0.204182 23:1.228911 24:-0.445850 25:0.651765 26:-0.415034 27:-1.106389 28:0.918943 29:0.499695 30:-0.629205 31:1.124527 32:-2.226249 33:-0.834809 34:2.268235 35:-1.037416 36:1.419702 37:0.676214 38:-0.041730 39:-0.383665 40:-0.108112 41:-1.569818 42:0.138092 43:-0.184702 44:0.801191 45:-0.403728 46:1.359640 47:1.366877 48:3.373663 49:0.577150 50:-0.025478 51:0.018876 52:0.739423 53:0.983982 54:-0.793196 55:0.264797
-1 1:0.181041 2:-0.329176 3:1.171179 4:0.162008 5:-1.007677 6:-0.593760 7:1.803822 8:0.681006 9:-1.301827 10:1.259294 11:-0.928857 12:-0.465248 13:-0.818604 14:1.916683 15:-0.819412 16:0.594645 17:-1.131331 18:1.178556 19:0.629115 20:1.881876 21:-0.402341 22:-0.641875 23:0.650371 24:0.188677 25:-2.461232 26:0.321168 27:2.173502 28:-0.259714 29:-0.321002 30:-2.171871 31:0.477379 32:-0.977058 33:-0.533915 34:-0.116963 35:-2.797193 36:-0.840471 37:1.285706 38:-1.040616 39:-0.007055 40:0.247427 41:-1.534487 42:0.088662 43:-2.293227 44:0.421075 45:-0.993465 46:0.013815 47:-0.192928 48:-1.640399 49:0.697529 50:1.002244 51:-0.065991 52:0.245087 53:-1.043903 54:-0.404628 55:0.860943
-1 1:0.683499 2:-0.511399 3:-0.117705 4:-0.171877 5:-0.557058 6:-0.843809 7:-0.203495 8:-0.080283 9:-0.086423 10:1.696440 11:-0.592749 12:0.411312 13:1.159516 14:-1.136500 15:-1.724083 16:-0.423019 17:0.986802 18:-0.521751 19:-0.836579 20:-0.349775 21:-0.755464 22:0.766426 23:1.145113 24:0.720366 25:1.416925 26:1.380297 27:-0.662947 28:0.728745 29:-0.927989 30:-1.147793 31:-1.624962 32:0.147930 33:0.470723 34:1.565573 35:-2.120575 36:0.890937 37:-1.746043 38:0.807833 39:-0.530583 40:-1.600653 41:0.160714 42:-0.859656 43:-1.830573 44:0.568706 45:-0.774295 46:-0.383480 47:0.639121 48:-1.111837 49:0.800033 50:1.979181 51:-0.414996 52:-0.132571 53:0.695676 54:0.436204 55:-1.727199
-1 1:-0.644348 2:1.380945 3:0.507422 4:0.007674 5:0.371916 6:-0.590926 7:-1.322989 8:-1.147963 9:-0.546494 10:-1.230523 11:0.338340 12:0.060932 13:1.901420 14:0.219716 15:0.502591 16:-1.248161 17:0.140623 18:-0.371529 19:0.048323 20:-0.880122 21:1.697041 22:-0.049567 23:0.606642 24:0.014530 25:-0.716344 26:-0.234119 27:-0.883080 28:1.296328 29:0.405012 30:0.205764 31:-0.361925 32:-0.109064 33:0.940677 34:0.153149 35:-1.405441 36:0.625277 37:1.013936 38:-0.247637 39:2.474989 40:-0.841954 41:1.002421 42:-0.071498 43:-0.027707 44:0.666146 45:-0.264431 46:0.180046 47:0.729459 48:0.010252 49:0.906879 50:-0.027490 51:-0.430903 52:0.839938 53:0.007762 54:0.619549 55:0.270080
-1 1:-0.324945 2:1.285370 3:-0.305491 4:-0.154786 5:-0.270291 6:-1.186742 7:0.763473 8:0.425122 9:0.995178 10:3.440224 11:-1.192158 12:-0.133124 13:1.242075 14:-0.708625 15:0.265856 16:-0.746186 17:-0.201156 18:-0.255418 19:2.074302 20:1.137418 21:0.129062 22:1.313081 23:-0.589824 24:-0.368973 25:0.647371 26:-0.125559 27:-1.009975 28:1.475238 29:0.090152 30:0.582236 31:2.278019 32:-0.429355 33:-0.302261 34:0.334674 35:0.207040 36:-0.100353 37:-0.127835 38:-0.347052 39:1.197609 40:0.462191 41:-1.837682 42:1.701409 43:0.136499 44:-0.226378 45:0.423991 46:-1.298492 47:-0.885393 48:-1.131524 49:0.584489 50:-0.199746 51:1.084636 52:-0.076339 53:-1.397990 54:-0.128071 55:-0.771836
-1 1:0.364217 2:0.089897 3:2.298979 4:-1.038346 5:0.400740 6:-0.958027 7:-1.630587 8:-1.102697 9:-0.811080 10:-0.084673 11:0.717527 12:-0.149061 13:1.461896 14:-0.690962 15:0.938337 16:0.491986 17:-0.674673 18:0.179920 19:-1.412590 20:-1.296351 21:1.231416 22:1.422979 23:-2.386873 24:0.685923 25:-0.671108 26:1.075414 27:-0.304864 28:0.581332 29:-1.012950 30:0.763194 31:-0.605560 32:1.787366 33:-0.162086 34:-1.367389 35:1.297634 36:-0.292903 37:-0.266631 38:-1.542794 39:0.880071 40:0.054032 41:0.176189 42:-0.510726 43:-0.288894 44:0.153450 45:0.711984 46:0.321484 47:-0.769806 48:0.240977 49:-1.215372 50:0.336482 51:0.335089 52:-0.528743 53:-1.648623 54:0.763294 55:-0.019431
-1 1:-0.217511 2:-0.464357 3:-0.018373 4:-0.451129 5:0.174006 6:-2.144344 7:-0.100196 8:-0.986172 9:-0.126845 10:0.703328 11:-1.905084 12:-0.194984 13:-0.394416 14:-0.249451 15:0.949927 16:-0.222052 17:0.702409 18:0.177260 19:-0.630663 20:-0.749208 21:0.499889 22:-0.751549 23:-2.142653 24:-0.458757 25:0.206182 26:-0.040900 27:0.684387 28:1.216349 29:1.192270 30:-0.362771 31:-0.861705 32:-0.458348 33:0.362861 34:0.786076 35:-0.870603 36:0.470660 37:-0.669594 38:0.973343 39:0.336130 40:-0.132431 41:1.271143 42:0.274463 43:0.260688 44:-0.351894 45:0.268731 46:-0.364154 47:-0.581763 48:0.099103 49:0.626980 50:-0.075616 51:1.245355 52:-1.217917 53:-0.701076 54:1.032652 55:0.423514
-1 1:1.072306 2:0.940136 3:-0.547890 4:0.698117 5:-0.515925 6:0.177268 7:0.618056 8:0.683283 9:-0.825349 10:0.339169 11:0.156627 12:-1.459172 13:-0.080883 14:1.878812 15:-0.114227 16:-0.148488 17:0.527662 18:-0.164421 19:0.833888 20:-0.955943 21:-0.823963 22:1.292812 23:0.858523 24:1.912910 25:-0.899474 26:1.520674 27:0.463805 28:0.700654 29:0.289828 30:0.214286 31:1.751082 32:-0.046244 33:-1.117504 34:-1.302430 35:-0.306246 36:-0.561067 37:0.603225 38:0.979599 39:-0.843076 40:-0.791621 41:1.362433 42:-1.549876 43:-0.138086 44:-1.406284 45:0.428363 46:1.409706 47:-0.001465 48:-0.146179 49:1.149185 50:-0.121197 51:-0.306515 52:-0.875032 53:0.968204 54:1.491269 55:-1.063935
-1 1:0.020620 2:-0.279896 3:1.780379 4:0.046378 5:-1.262083 6:-0.900808 7:0.383382 8:-0.012350 9:-0.764910 10:-1.432701 11:-1.482089 12:0.131261 13:-0.739047 14:2.590531 15:-0.246609 16:-0.227912 17:-2.489333 18:-0.430333 19:-0.627445 20:0.667176 21:2.109997 22:-1.487581 23:-0.246235 24:-0.699821 25:-0.841818 26:1.094391 27:0.449499 28:-0.435768 29:0.727524 30:0.169562 31:-1.867824 32:-1.142068 33:-0.268404 34:1.284406 35:-0.367286 36:-0.160537 37:1.733800 38:0.230734 39:1.751094 40:-0.620597 41:0.587855 42:0.204566 43:-1.197623 44:0.661185 45:1.923137 46:-0.569474 47:-0.204889 48:-0.065720 49:0.872616 50:-0.033119 51:0.173623 52:-2.140175 53:0.147877 54:0.193110 55:1.488234
-1 1:0.371613 2:0.049802 3:-0.301875 4:0.784922 5:-1.619066 6:-0.291269 7:0.595977 8:0.395382 9:0.169328 10:0.775378 11:-0.015747 12:0.235590 13:-0.510671 14:0.118158 15:-0.679419 16:1.740814 17:0.013751 18:1.087939 19:0.159119 20:-1.754572 21:-0.590819 22:1.318751 23:0.607888 24:-0.742072 25:0.560853 26:-0.471310 27:0.773929 28:-0.456197 29:1.907834 30:0.142409 31:1.373994 32:0.117047 33:0.063305 34:1.526506 35:2.509335 36:-0.095510 37:0.407559 38:-2.810545 39:0.611852 40:1.255798 41:-1.414089 42:-1.483856 43:-1.322608 44:0.122711 45:-0.265845 46:-1.488109 47:-0.068854 48:0.538133 49:-1.173937 50:-0.694040 51:0.587766 52:1.518978 53:-1.566690 54:-0.836312 55:-0.751686
-1 1:-1.815859 2:-0.571159 3:-1.316022 4:-0.355639 5:-0.510816 6:-0.861884 7:2.264360 8:-0.657397 9:-1.503773 10:0.073692 11:-0.132323 12:-1.690728 13:-0.856333 14:0.406906 15:0.751627 16:-1.375916 17:0.268166 18:0.689966 19:-0.103897 20:0.901156 21:-0.659408 22:-0.933849 23:0.753331 24:0.112388 25:-1.346916 26:-2.573635 27:0.648339 28:1.705227 29:1.189260 30:-1.183963 31:-1.379559 32:1.170438 33:-0.539697 34:0.057075 35:-1.287245 36:1.374530 37:-1.386724 38:1.116193 39:1.783312 40:0.229347 41:-1.593825 42:0.156144 43:0.035896 44:-1.271490 45:1.399550 46:1.247154 47:-0.131437 48:-2.395815 49:0.005752 50:-0.336006 51:0.864577 52:-1.388795 53:-0.979830 54:-1.039604 55:0.649789
-1 1:-2.096902 2:-0.066954 3:-0.968826 4:-2.806774 5:1.369813 6:1.831451 7:0.886511 8:-1.334908 9:-0.244278 10:0.371007 11:-0.426774 12:0.011172 13:1.329389 14:-0.887147 15:-2.510301 16:-0.487675 17:0.134546 18:0.288781 19:-1.074196 20:-1.122576 21:1.297080 22:-1.252433 23:-1.579979 24:-1.114786 25:1.408214 26:-0.806879 27:0.504160 28:0.082115 29:-1.775917 30:-1.877702 31:1.253328 32:0.156046 33:0.098243 34:0.103845 35:0.809739 36:0.921235 37:0.438434 38:0.871470 39:0.445756 40:-0.848956 41:1.134889 42:-0.792871 43:1.082431 44:2.618267 45:-2.349596 46:0.345599 47:-0.326445 48:1.670515 49:1.339866 50:0.460668 51:0.876139 52:-0.532432 53:-0.891896 54:1.169586 55:0.809402
-1 1:-0.656047 2:0.011481 3:-1.492683 4:2.259586 5:-0.044705 6:0.065562 7:0.619008 8:-1.221982 9:-0.101313 10:0.030060 11:0.218234 12:0.052950 13:0.041388 14:1.058761 15:0.769719 16:-1.603176 17:-0.539515 18:0.096440 19:-0.021730 20:-0.045534 21:-1.837124 22:0.274001 23:0.587450 24:-0.293846 25:-0.394659 26:0.840076 27:-0.412309 28:0.169888 29:0.448656 30:-0.928691 31:-1.050505 32:-1.127937 33:-0.104284 34:-0.258011 35:-2.259271 36:-0.842613 37:0.620277 38:0.245273 39:-0.782466 40:-0.035610 41:-0.789540 42:1.232919 43:0.642277 44:1.230709 45:0.232942 46:0.916442 47:1.171429 48:-0.947364 49:-0.864501 50:0.669020 51:-0.171678 52:-1.585247 53:-0.235860 54:-1.759644 55:-0.258479
-1 1:1.081722 2:2.110573 3:0.690677 4:-0.314907 5:0.004942 6:0.159123 7:0.498628 8:0.401160 9:-1.730475 10:-0.450631 11:0.842028 12:0.365295 13:-0.028207 14:0.571645 15:0.407115 16:-0.336324 17:-0.629990 18:-1.578387 19:-0.491752 20:0.801000 21:0.460963 22:-0.118112 23:-0.426453 24:0.089903 25:-1.697472 26:-0.259601 27:0.500411 28:0.300884 29:1.201957 30:0.416078 31:-0.119931 32:0.394002 33:1.365269 34:0.171043 35:0.983566 36:1.488150 37:0.899469 38:-0.036668 39:-0.229527 40:0.885612 41:0.497524 42:-0.621987 43:0.843302 44:-0.907832 45:-1.926645 46:1.782538 47:1.107748 48:-0.834954 49:-0.958565 50:1.218444 51:0.499890 52:0.116119 53:-0.582003 54:-0.789839 55:1.015011
-1 1:-0.502740 2:-0.142860 3:-0.047272 4:-0.842348 5:-1.074291 6:1.623608 7:0.122215 8:0.503764 9:-0.587080 10:0.063698 11:-0.368984 12:0.003149 13:2.060399 14:0.395273 15:-0.148302 16:-1.450458 17:-0.338369 18:-0.340851 19:-0.583788 20:0.881301 21:-0.241283 22:0.658021 23:0.086509 24:-0.013971 25:-1.352610 26:1.802378 27:2.000814 28:-0.110954 29:0.359670 30:0.877395 31:-1.232935 32:0.994236 33:0.860151 34:0.687906 35:1.425572 36:-0.622763 37:0.177082 38:-0.148041 39:-0.395596 40:-2.692944 41:1.121947 42:1.464842 43:0.755628 44:1.092769 45:-1.387509 46:1.567778 47:0.854072 48:1.616818 49:1.873053 50:-0.029347 51:-1.545497 52:-0.313701 53:1.206371 54:0.249829 55:0.021950
-1 1:0.907375 2:0.146265 3:-1.907654 4:0.505180 5:-1.340082 6:0.365220 7:-1.061629 8:-0.075613 9:-1.020044 10:-0.354624 11:-1.112391 12:0.718119 13:-1.767808 14:0.246932 15:-1.767698 16:0.244973 17:-1.534637 18:-0.028583 19:-0.553860 20:-0.041974 21:0.649442 22:-0.693267 23:-0.727628 24:-0.604519 25:0.329974 26:-1.926025 27:0.175758 28:0.630219 29:0.339858 30:-0.752051 31:0.566729 32:-0.217680 33:1.041050 34:1.021167 35:0.849527 36:-0.274388 37:0.066101 38:1.121174 39:-0.745095 40:-2.308433 41:1.043021 42:-0.107144 43:0.724912 44:1.956275 45:-0.425165 46:0.676814 47:2.673840 48:-0.623698 49:-0.120179 50:-1.043607 51:-1.524982 52:-0.423872 53:3.277005 54:-1.192082 55:0.020621
-1 1:-0.667578 2:0.176036 3:1.270254 4:-1.289628 5:0.401622 6:2.129334 7:-0.304325 8:0.180707 9:0.647327 10:-1.017000 11:-0.724931 12:-1.184431 13:2.541880 14:-0.393264 15:0.233500 16:-1.335706 17:0.062993 18:-0.380454 19:0.216936 20:-1.027384 21:0.587898 22:0.525966 23:-0.825114 24:0.845920 25:0.460800 26:1.465659 27:-0.156682 28:1.739250 29:-0.585679 30:-0.455298 31:0.759053 32:0.285307 33:0.529865 34:0.663046 35:-1.487522 36:0.508143 37:0.525715 38:0.124142 39:0.188193 40:0.631202 41:0.965874 42:-0.783165 43:0.555236 44:-1.830993 45:1.096464 46:-2.004178 47:0.509078 48:-0.861827 49:-0.714359 50:-0.600320 51:0.584279 52:-2.119679 53:0.634605 54:-0.448265 55:0.242904
-1 1:-0.235151 2:-0.551542 3:0.082296 4:-0.133624 5:0.119114 6:-2.000778 7:0.154967 8:-0.383195 9:-0.329771 10:-0.374981 11:-0.112741 12:-2.378965 13:-1.827102 14:0.335755 15:1.243211 16:-1.391712 17:-0.286649 18:-1.389375 19:0.496511 20:0.180951 21:-1.385223 22:-0.203002 23:2.158389 24:0.467606 25:-1.615314 26:-0.908149 27:-0.467962 28:-0.084151 29:0.586755 30:0.653459 31:-1.403064 32:1.032464 33:-0.208003 34:2.081442 35:0.975148 36:-0.246566 37:1.604834 38:-0.585257 39:0.315288 40:0.737061 41:-0.443197 42:2.072025 43:-1.934096 44:0.920667 45:-0.243326 46:0.449617 47:0.119646 48:-2.314987 49:-0.952724 50:-0.880850 51:-0.419516 52:0.937081 53:-0.679722 54:1.477933 55:0.414077
-1 1:0.457386 2:-0.317296 3:0.846990 4:1.514486 5:1.698132 6:0.562771 7:-0.106355 8:1.668853 9:-0.364648 10:0.275104 11:-0.559927 12:-0.934627 13:-1.627553 14:0.532711 15:-0.383206 16:0.784496 17:0.094895 18:-0.342834 19:1.015586 20:1.947944 21:0.568620 22:-0.498656 23:-1.169700 24:0.286099 25:0.577274 26:1.636782 27:-0.785514 28:-1.579032 29:-0.513150 30:0.921726 31:0.115746 32:-1.543565 33:0.217211 34:0.208533 35:0.114135 36:-1.841257 37:-0.310427 38:0.905557 39:-1.965736 40:-0.968325 41:-0.639868 42:1.490424 43:-0.772427 44:0.059404 45:-0.199766 46:0.379209 47:-0.494658 48:1.798169 49:0.058961 50:-0.733186 51:1.205739 52:-0.158641 53:-0.504354 54:1.566975 55:-1.029313
-1 1:-1.359305 2:-2.446896 3:1.587290 4:-0.538693 5:-0.149598 6:-0.062466 7:0.325452 8:0.046216 9:-0.222761 10:-1.190327 11:0.063732 12:-0.693105 13:-0.412427 14:-0.945056 15:-0.646150 16:0.330897 17:-0.344417 18:0.412978 19:-0.688399 20:-1.120001 21:-2.690459 22:-0.435649 23:-0.355641 24:-1.332234 25:-0.274397 26:-0.536240 27:0.498104 28:-0.527892 29:-0.078968 30:-0.841888 31:0.728995 32:0.420984 33:-1.239068 34:-2.029264 35:-1.206831 36:-1.366532 37:0.446730 38:-0.079274 39:-1.763495 40:-1.539708 41:-0.720667 42:-0.533581 43:-1.127615 44:-1.808586 45:0.427758 46:-0.663417 47:0.412851 48:-0.014697 49:-0.028323 50:0.962318 51:0.574829 52:0.354748 53:-1.628656 54:1.577109 55:-0.744600
-1 1:0.667077 2:-0.267544 3:-0.517230 4:1.053742 5:-0.633702 6:0.185962 7:-2.279664 8:0.515890 9:1.214144 10:1.922717 11:0.878952 12:-0.768891 13:-0.591694 14:-1.064822 15:0.886477 16:-0.906447 17:0.345741 18:-0.071046 19:-1.410507 20:0.117126 21:-0.643429 22:0.400428 23:0.698780 24:1.173998 25:1.010258 26:0.401658 27:0.728636 28:-0.619841 29:0.887150 30:0.189783 31:2.867275 32:1.156581 33:-0.621780 34:0.723064 35:0.825278 36:1.016235 37:0.429210 38:-0.207372 39:-1.287896 40:0.262391 41:-1.232590 42:0.011296 43:1.688061 44:0.121021 45:-0.498933 46:3.312565 47:-0.958002 48:1.390612 49:-1.033654 50:0.248818 51:0.920931 52:0.873833 53:0.639969 54:0.506687 55:0.523387
-1 1:0.676519 2:-0.686847 3:0.098565 4:-1.535217 5:0.855268 6:0.559358 7:2.082542 8:0.553578 9:-0.403152 10:-0.700614 11:-0.629709 12:1.198140 13:0.058668 14:1.052552 15:-0.623859 16:-0.023831 17:0.517657 18:0.100853 19:1.139512 20:-1.245747 21:0.410690 22:-0.201581 23:1.755917 24:1.680647 25:-1.311733 26:1.901644 27:0.074041 28:0.523123 29:0.386304 30:1.354809 31:0.171742 32:-0.048909 33:0.875943 34:-0.322681 35:0.429522 36:0.594566 37:2.838713 38:-0.459220 39:1.593668 40:1.340045 41:-0.051882 42:1.086604 43:1.151823 44:-0.047095 45:-0.290081 46:0.492926 47:0.118333 48:-0.934179 49:1.020063 50:-0.298748 51:0.056211 52:-1.826584 53:1.537039 54:1.044628 55:0.272142
-1 1:0.218777 2:-0.451162 3:-0.878703 4:0.992865 5:-0.471794 6:0.026937 7:0.339953 8:-0.203152 9:-0.356798 10:0.637546 11:-2.187972 12:0.268408 13:0.811864 14:0.384488 15:0.575651 16:1.350620 17:1.058652 18:0.070485 19:-0.973741 20:-0.371712 21:-0.330081 22:2.196331 23:0.089800 24:-0.858183 25:0.404163 26:0.559673 27:0.678805 28:1.416790 29:-0.056116 30:-0.431027 31:-1.102113 32:-0.150310 33:-1.293233 34:0.902201 35:-0.061841 36:1.045708 37:-1.086551 38:0.259002 39:0.883550 40:1.500816 41:1.116192 42:-1.227266 43:0.418174 44:-0.787731 45:-1.299920 46:-0.647232 47:-1.689121 48:0.412626 49:-1.737581 50:-0.569408 51:0.353799 52:-0.571960 53:0.757734 54:1.488960 55:0.437085
-1 1:0.809253 2:-0.585129 3:-0.676339 4:0.384967 5:1.878900 6:-1.214624 7:-0.410155 8:0.338986 9:0.727149 10:0.756186 11:-1.832088 12:-1.231236 13:-0.638485 14:-0.915181 15:0.085182 16:0.147408 17:-1.393423 18:1.421211 19:-0.676901 20:-0.061414 21:0.389404 22:-1.952477 23:1.902816 24:-0.395091 25:-0.894631 26:-1.285287 27:0.583485 28:0.359533 29:0.810413 30:0.349645 31:0.110044 32:0.099486 33:-0.104330 34:1.166742 35:1.178433 36:2.937323 37:-0.461974 38:-0.233546 39:-1.079851 40:0.653306 41:-0.840394 42:1.057370 43:-0.085440 44:-1.250651 45:-0.307959 46:0.448065 47:0.124612 48:-0.635931 49:0.122444 50:-1.220943 51:0.064896 52:2.626756 53:1.714168 54:-0.427417 55:-0.666867
-1 1:-1.388140 2:-0.541171 3:-0.652790 4:0.776181 5:2.102998 6:1.326488 7:-0.801855 8:1.061125 9:0.779172 10:0.067485 11:-0.687970 12:-0.882304 13:1.407701 14:0.371733 15:0.737539 16:0.014769 17:0.251268 18:-0.250032 19:1.441939 20:1.040180 21:0.289197 22:-1.054064 23:0.503703 24:-1.682934 25:-1.623395 26:1.172697 27:-0.243463 28:0.493608 29:-0.450592 30:-1.240273 31:0.281409 32:-0.913251 33:2.555806 34:0.779449 35:0.117651 36:1.386144 37:1.388551 38:-0.093174 39:0.383242 40:-0.045937 41:0.692926 42:0.349059 43:0.112101 44:0.445041 45:1.188288 46:1.624568 47:0.397689 48:-2.958069 49:0.486878 50:-0.429277 51:1.987856 52:0.659870 53:-0.146374 54:-1.084307 55:2.224490
-1 1:-0.072575 2:-0.313498 3:0.616648 4:0.652932 5:0.759644 6:0.220418 7:-1.682426 8:0.434170 9:-0.675637 10:0.864751 11:0.790423 12:1.866522 13:-1.357795 14:-1.352057 15:0.305907 16:-0.623897 17:-0.626043 18:1.794571 19:-0.505774 20:0.302048 21:0.365005 22:-0.540862 23:0.647695 24:-0.757646 25:-0.355857 26:1.188898 27:1.197331 28:-0.782750 29:-0.654369 30:1.707634 31:-1.686994 32:-0.440703 33:0.327286 34:1.260219 35:-0.336981 36:-0.093855 37:-0.258909 38:0.988153 39:-0.398902 40:-1.190107 41:-1.915739 42:-0.480661 43:-0.260803 44:0.118114 45:0.594744 46:-0.340320 47:2.629761 48:0.052994 49:-1.070893 50:0.833364 51:0.260405 52:-0.964488 53:-0.334359 54:0.616646 55:-0.894863
-1 1:-0.191321 2:0.129987 3:0.828369 4:1.324128 5:-0.122504 6:-0.235738 7:-0.398303 8:1.295530 9:-1.317190 10:-0.460265 11:-1.352114 12:-0.344282 13:-0.795266 14:-1.002256 15:2.949739 16:-0.979514 17:-0.241757 18:0.138118 19:-1.633851 20:-0.914292 21:1.428718 22:-0.870234 23:-0.517735 24:-0.448401 25:-0.412802 26:0.479086 27:0.733669 28:-0.674307 29:-0.404380 30:1.003045 31:-0.841250 32:0.196307 33:-0.175930 34:1.400104 35:-1.498667 36:1.418739 37:1.077638 38:1.587392 39:1.481191 40:-0.901958 41:-1.811887 42:-0.331867 43:0.867386 44:-1.313867 45:-1.192600 46:-0.438395 47:1.536248 48:-0.431318 49:-0.882674 50:0.387130 51:-0.716355 52:1.034355 53:0.736286 54:-1.773922 55:-0.151480
-1 1:-0.258836 2:-1.338279 3:-0.599124 4:-0.420902 5:1.140377 6:-0.049478 7:-1.237767 8:-0.217612 9:2.133896 10:1.699636 11:-1.743867 12:0.475329 13:0.150410 14:-1.388360 15:-0.880034 16:-0.215561 17:2.210624 18:1.873594 19:2.040314 20:0.832231 21:-1.459071 22:-0.235456 23:-0.415994 24:-0.742739 25:-0.410737 26:0.755447 27:0.603048 28:-0.077281 29:-0.050639 30:1.521935 31:-0.804738 32:0.925361 33:0.853591 34:-0.182077 35:0.766873 36:-0.602508 37:-0.571231 38:0.686142 39:0.945660 40:-1.197465 41:2.072504 42:0.314477 43:0.498962 44:-1.222271 45:-1.205647 46:-0.490865 47:-0.835213 48:2.400998 49:-0.626089 50:0.625421 51:-0.149749 52:-0.828782 53:-0.404350 54:0.522183 55:1.898193
-1 1:-1.481729 2:-1.597255 3:0.799965 4:-0.966434 5:1.041957 6:0.283773 7:1.606747 8:1.067613 9:1.900349 10:-1.325904 11:-0.893490 12:-0.427372 13:-0.419120 14:0.563204 15:1.792655 16:0.871579 17:1.349844 18:-0.826148 19:-0.388829 20:0.518578 21:0.483810 22:-1.587438 23:-1.503959 24:-0.828830 25:-0.801529 26:-0.976885 27:-1.431308 28:0.087215 29:-0.922169 30:0.144845 31:1.048842 32:-0.198535 33:0.245042 34:1.084697 35:0.809827 36:-0.210262 37:0.876917 38:-0.478535 39:0.605311 40:-0.311638 41:0.384307 42:-1.161642 43:-1.377195 44:-1.529879 45:0.819994 46:0.863289 47:0.271054 48:0.504429 49:-0.394020 50:0.508303 51:0.897470 52:-0.536262 53:0.175754 54:0.514640 55:0.401106
-1 1:1.339358 2:-0.391447 3:2.181985 4:1.057705 5:-0.906649 6:1.516569 7:0.879561 8:0.296409 9:0.967898 10:0.080655 11:0.176303 12:0.134768 13:1.206418 14:1.375865 15:0.913567 16:-0.647370 17:0.138237 18:1.895786 19:-1.345897 20:0.014487 21:0.805574 22:-0.074843 23:-0.293354 24:0.048405 25:-0.953638 26:0.144971 27:0.513712 28:-0.764682 29:-0.636335 30:0.174370 31:-0.744303 32:-1.454582 33:-0.107235 34:1.253620 35:1.471205 36:0.063067 37:-1.025118 38:1.026787 39:-0.194734 40:0.205171 41:-1.055964 42:-0.892535 43:0.081334 44:1.975384 45:-1.546190 46:0.399383 47:0.202854 48:0.604534 49:0.708460 50:0.472503 51:-2.360799 52:-0.374546 53:-0.251685 54:-3.115225 55:-0.938924
-1 1:0.584426 2:-0.022776 3:0.682440 4:-0.903702 5:-1.940274 6:1.184976 7:0.033770 8:3.054364 9:0.137154 10:-2.082380 11:1.508179 12:0.253616 13:-0.184480 14:-1.247879 15:-0.006397 16:1.147374 17:0.353647 18:0.890575 19:0.466572 20:0.555314 21:-0.850580 22:-0.893866 23:-0.242504 24:1.190693 25:0.855060 26:-1.706124 27:0.535411 28:0.705943 29:1.372062 30:0.346070 31:0.131604 32:1.316325 33:-0.457751 34:-1.101200 35:0.684330 36:-1.552880 37:-0.366994 38:-1.406813 39:0.007396 40:-0.054362 41:-0.751810 42:-0.876927 43:-0.279884 44:-0.747936 45:1.971247 46:0.402934 47:0.130846 48:-0.179028 49:0.034644 50:0.171112 51:-1.427527 52:1.097765 53:-0.833715 54:-0.872671 55:-1.581847
-1 1:-0.211438 2:0.235726 3:-1.537846 4:-0.353107 5:-0.278583 6:0.096895 7:2.310284 8:0.766610 9:-1.004163 10:0.151273 11:-1.468322 12:1.416647 13:-0.182771 14:-0.380448 15:1.556144 16:-2.118703 17:-0.234720 18:-1.413668 19:1.148620 20:0.542154 21:0.675423 22:0.366527 23:-0.582338 24:-0.999411 25:0.168889 26:0.762217 27:-1.210616 28:0.951474 29:0.005037 30:-1.062892 31:2.744258 32:1.711739 33:1.048284 34:0.054915 35:-0.522101 36:-1.091521 37:-1.748056 38:-0.361635 39:-0.261760 40:-0.785277 41:0.800133 42:2.762432 43:-1.030685 44:-1.256565 45:-0.621317 46:0.957532 47:-0.697264 48:-0.535772 49:0.228184 50:-1.188212 51:1.040333 52:2.321817 53:-0.716198 54:-0.663100 55:1.239386
-1 1:0.068769 2:-1.100061 3:1.128985 4:-0.012003 5:1.759277 6:-1.576517 7:1.248979 8:-0.674753 9:2.211912 10:-1.524916 11:0.592416 12:0.268198 13:-0.008328 14:-1.832076 15:0.899689 16:-2.539515 17:0.849551 18:0.163860 19:-0.255614 20:-0.090818 21:1.238451 22:-0.205959 23:-0.179777 24:-1.461317 25:1.042801 26:-0.021748 27:-0.093536 28:-2.234871 29:0.146426 30:-0.676330 31:0.162393 32:0.174017 33:-0.009261 34:0.435787 35:0.028453 36:0.259205 37:-2.014181 38:0.793616 39:-0.714751 40:-0.259806 41:-1.435115 42:1.544802 43:0.452145 44:1.093536 45:-0.025652 46:0.310668 47:-0.239419 48:0.325366 49:0.755815 50:-0.115336 51:-0.299000 52:-0.927506 53:0.456417 54:0.556098 55:1.018359
-1 1:0.492401 2:-0.862106 3:-1.079391 4:-0.849545 5:-0.771954 6:0.103229 7:0.827407 8:1.636722 9:-1.801923 10:-0.770911 11:-0.116025 12:0.610259 13:1.935241 14:0.199334 15:-1.697604 16:1.199348 17:-0.018724 18:-0.223077 19:-0.356511 20:1.710436 21:0.486552 22:-0.101049 23:0.226821 24:-0.652810 25:1.615429 26:0.374070 27:-0.124718 28:-0.854268 29:2.015414 30:0.602252 31:0.285970 32:-0.308244 33:1.303576 34:0.041376 35:-0.662953 36:-3.523836 37:-0.091702 38:-0.810874 39:0.508740 40:0.249110 41:1.236722 42:-0.268726 43:-1.039734 44:-0.065000 45:1.104401 46:-1.348655 47:-1.153201 48:-2.545281 49:0.371733 50:-0.247792 51:0.238192 52:-1.108510 53:1.239056 54:2.982838 55:-3.492050
-1 1:0.345660 2:-0.430694 3:0.973814 4:-0.300323 5:-0.639029 6:-0.840058 7:0.076077 8:0.682194 9:-0.835490 10:0.302959 11:-0.683482 12:-1.379126 13:-1.364621 14:2.321775 15:0.400277 16:1.105533 17:-1.356897 18:-0.048579 19:-1.046699 20:-0.521353 21:-1.249788 22:-1.578947 23:0.092817 24:1.460882 25:-1.082631 26:-0.116275 27:-2.069755 28:1.044919 29:-0.128120 30:0.417274 31:-1.753019 32:0.165535 33:-0.834066 34:0.869525 35:-2.082678 36:-2.426675 37:1.320192 38:-0.958949 39:0.114831 40:0.410462 41:0.638795 42:0.842696 43:0.334139 44:0.630244 45:1.945155 46:0.501803 47:0.171388 48:-0.363052 49:0.013510 50:-0.515482 51:-1.324492 52:-0.050375 53:0.388036 54:-1.022857 55:-1.704734
-1 1:0.218231 2:-0.236561 3:0.281386 4:0.475692 5:1.336586 6:-1.691139 7:-2.089371 8:-1.917915 9:0.189163 10:1.011757 11:0.908130 12:0.341573 13:-0.763151 14:1.352979 15:0.575091 16:1.155541 17:-0.775581 18:-0.827359 19:-0.748724 20:-0.438460 21:1.528276 22:-0.102539 23:1.258444 24:-0.439585 25:0.433346 26:-0.153235 27:-0.981817 28:-1.379907 29:-1.035992 30:0.779295 31:0.714757 32:0.361133 33:-1.010150 34:-1.014611 35:-1.212004 36:-0.497097 37:-0.246134 38:-0.458257 39:-0.114068 40:-0.042680 41:1.189921 42:-0.048865 43:0.312240 44:-0.952311 45:0.248665 46:0.025007 47:-0.894246 48:0.724836 49:-0.963348 50:-1.000902 51:-1.116882 52:-0.054969 53:-1.499602 54:-0.345916 55:-0.641080
-1 1:1.897544 2:1.302570 3:0.499681 4:-0.883542 5:0.219544 6:-0.599046 7:-0.136056 8:-1.137315 9:0.840293 10:1.052209 11:0.038167 12:0.676204 13:1.054319 14:-0.461748 15:0.639760 16:-0.761584 17:1.274555 18:0.415159 19:0.677372 20:-0.893852 21:-0.303571 22:0.394757 23:0.822443 24:-0.912974 25:1.808909 26:-1.405386 27:-1.359807 28:-0.167219 29:0.841109 30:-0.782268 31:-1.515974 32:-0.143644 33:0.004030 34:-0.700680 35:2.344823 36:-1.488204 37:0.904641 38:1.297340 39:-0.357283 40:2.122583 41:0.289163 42:-0.747499 43:-0.121860 44:1.248959 45:-0.045747 46:-0.700414 47:-0.375680 48:1.105847 49:-0.101129 50:1.281284 51:-1.946676 52:1.487990 53:-0.671367 54:1.438949 55:-0.888310
-1 1:0.941107 2:1.349008 3:-0.965099 4:-0.047572 5:-0.859849 6:-1.566653 7:-2.066846 8:-0.039482 9:1.089997 10:-0.240894 11:0.889889 12:-1.250351 13:1.619062 14:0.904570 15:1.592737 16:0.179213 17:1.960829 18:0.536895 19:-0.829592 20:-0.036246 21:0.434222 22:-0.240545 23:0.686557 24:-0.344984 25:0.331961 26:1.567898 27:0.879281 28:-0.796475 29:-0.181475 30:-0.567975 31:-0.388709 32:0.519639 33:0.257568 34:-0.571492 35:0.927235 36:0.768467 37:-0.011991 38:1.909843 39:1.025369 40:1.269047 41:1.541541 42:-0.573321 43:-0.068797 44:0.595975 45:-0.062335 46:-0.140272 47:-0.430084 48:-1.230963 49:-0.548269 50:-0.223870 51:-0.051224 52:0.260313 53:-1.548651 54:-0.478928 55:1.548554
-1 1:0.110550 2:0.243316 3:0.668855 4:0.781853 5:-0.695236 6:0.176537 7:0.272152 8:-0.200537 9:0.188727 10:0.669030 11:0.289238 12:-2.478264 13:0.017075 14:0.141348 15:-0.258302 16:1.257119 17:-0.238714 18:-0.411316 19:1.449764 20:-0.032821 21:-1.234658 22:0.028422 23:-0.379928 24:0.684623 25:-0.856743 26:0.885917 27:-0.221007 28:-0.452974 29:1.264841 30:-0.792304 31:-1.280900 32:1.206925 33:-1.082730 34:0.046257 35:0.410453 36:-0.064120 37:1.290034 38:-0.790115 39:-0.126413 40:-1.145496 41:1.888505 42:0.273473 43:-0.020084 44:0.080689 45:-0.481305 46:-0.069780 47:-0.567338 48:-1.547612 49:0.702812 50:0.162135 51:0.510188 52:1.223331 53:-0.719369 54:-1.095209 55:0.130428
-1 1:-0.607888 2:0.320474 3:1.772805 4:-0.827093 5:0.724506 6:0.267780 7:0.910575 8:0.861965 9:0.006280 10:-2.015720 11:-0.675367 12:0.180521 13:-2.392832 14:-0.915579 15:-1.052889 16:-0.823466 17:-1.844084 18:0.829010 19:-0.478212 20:-0.168606 21:0.796414 22:0.576681 23:-0.672684 24:-0.418715 25:-0.138276 26:-0.109046 27:-1.121850 28:-0.534173 29:-0.046924 30:-2.204965 31:0.965029 32:0.799590 33:-0.685915 34:0.549183 35:-2.380250 36:0.392626 37:-0.214813 38:-0.743145 39:1.832757 40:-0.344940 41:-2.332014 42:1.259973 43:-0.257978 44:0.199072 45:-0.243459 46:-1.375615 47:-0.610983 48:-0.306065 49:-1.428866 50:-0.770305 51:-0.858876 52:-1.240323 53:-0.014383 54:-0.125652 55:0.775233
-1 1:-0.853435 2:0.040206 3:1.447507 4:0.042266 5:2.046932 6:-0.855280 7:0.990888 8:-1.403200 9:-0.400424 10:1.296522 11:-0.084665 12:-1.181234 13:-0.344829 14:-0.317068 15:0.193705 16:-0.782136 17:0.978066 18:0.245599 19:-0.797065 20:-0.293198 21:0.759545 22:-1.003967 23:0.948978 24:0.815057 25:-0.476662 26:-0.970956 27:1.269631 28:0.222027 29:-2.212062 30:-0.572097 31:-3.075390 32:0.226932 33:0.146247 34:-0.528105 35:-1.397465 36:0.301875 37:1.235527 38:0.432089 39:-0.293313 40:0.237522 41:-0.195169 42:-0.173599 43:1.102161 44:-0.945300 45:-0.683361 46:-1.930451 47:1.381113 48:0.360793 49:1.203040 50:0.140664 51:1.894160 52:1.304027 53:-1.636562 54:1.053654 55:0.279850
-1 1:1.359387 2:-1.513823 3:0.519092 4:0.300864 5:1.183352 6:0.430757 7:-0.448238 8:-1.127354 9:0.750131 10:2.313047 11:-0.989755 12:0.674921 13:-0.324122 14:-0.164781 15:-0.639791 16:-0.333307 17:-1.854753 18:-0.167735 19:0.234194 20:0.958394 21:2.040600 22:-1.335234 23:-0.269531 24:-0.394461 25:-0.061385 26:1.194562 27:-1.323030 28:-1.346901 29:0.475028 30:0.068308 31:-1.358561 32:-0.227589 33:-0.177834 34:0.950521 35:-1.017250 36:0.068688 37:0.872117 38:-1.538238 39:-0.719623 40:-0.052318 41:-1.567865 42:-0.636824 43:-0.094939 44:1.331678 45:0.666080 46:0.133545 47:1.537855 48:0.465472 49:0.006944 50:1.491875 51:0.037726 52:-0.956402 53:0.309283 54:0.877347 55:0.135608
-1 1:-0.212542 2:-0.410872 3:-0.344895 4:0.971208 5:0.485309 6:0.533570 7:0.011045 8:-0.143178 9:-0.198092 10:0.514067 11:1.005130 12:0.087821 13:-0.331138 14:-0.524841 15:-2.224863 16:0.194111 17:0.940177 18:0.256033 19:-0.299497 20:-0.042999 21:-1.456078 22:0.077879 23:0.687428 24:-0.471139 25:-1.610976 26:1.452678 27:-0.133094 28:-1.808047 29:-1.600836 30:0.155061 31:-0.180996 32:-2.308979 33:0.970368 34:-0.533483 35:-0.772745 36:-0.910716 37:-0.696565 38:1.325501 39:-1.702666 40:-1.329560 41:-1.228420 42:1.046532 43:-1.556218 44:-1.340638 45:0.552101 46:-1.730236 47:0.328135 48:-2.143585 49:-0.154352 50:1.110110 51:0.775337 52:0.112185 53:0.240513 54:-0.043150 55:-1.366764
-1 1:1.539831 2:-1.155161 3:-1.294323 4:0.780483 5:0.875512 6:1.281266 7:-1.354335 8:-1.176658 9:0.836791 10:0.948631 11:-0.782386 12:-0.295365 13:-0.889427 14:0.111774 15:0.262863 16:0.713043 17:-1.014900 18:0.084379 19:1.201495 20:0.257520 21:0.566079 22:0.230837 23:0.689142 24:-1.109720 25:2.233501 26:-1.144936 27:0.374116 28:0.361073 29:-0.082869 30:1.051378 31:1.030860 32:-2.151582 33:-0.361371 34:-0.163407 35:1.197939 36:-0.538356 37:-0.968058 38:0.854141 39:-0.322128 40:-1.093409 41:0.722762 42:2.616480 43:1.418186 44:-0.512868 45:-0.761628 46:0.344321 47:1.856921 48:-1.062056 49:-0.526483 50:3.657425 51:0.212003 52:-2.389429 53:-0.368332 54:-0.456829 55:-0.943055
-1 1:-0.584668 2:-0.339521 3:0.528936 4:1.008045 5:-0.172596 6:-0.519637 7:-0.430389 8:-0.087055 9:-0.559490 10:1.405032 11:2.026387 12:0.250516 13:0.741415 14:-0.248071 15:0.975581 16:1.684714 17:-0.338859 18:0.587802 19:-1.013077 20:0.542178 21:0.028024 22:-0.715902 23:1.618164 24:0.609426 25:-0.244193 26:-1.554664 27:-1.027555 28:0.726389 29:1.222505 30:-0.938034 31:0.226956 32:1.160286 33:-0.125643 34:1.075608 35:-1.148253 36:3.105625 37:-1.468441 38:-1.859322 39:0.078233 40:1.664183 41:1.161496 42:-0.305985 43:1.092065 44:0.541609 45:1.518988 46:-0.327833 47:0.803007 48:-0.765611 49:0.056274 50:0.983861 51:0.308972 52:-0.710996 53:0.308262 54:-0.917093 55:-1.699803
-1 1:0.555865 2:-0.020879 3:-0.503755 4:-1.107493 5:1.978748 6:1.781978 7:-1.329672 8:-0.306853 9:0.875605 10:1.755642 11:0.634202 12:-1.155400 13:-0.690891 14:0.767073 15:0.117509 16:0.208612 17:-1.104238 18:-0.958097 19:-0.814733 20:1.192597 21:0.021305 22:-0.338621 23:0.167821 24:-0.321536 25:0.620135 26:0.161200 27:1.843429 28:0.022284 29:-0.395346 30:0.029706 31:-0.396366 32:-1.560586 33:0.606528 34:-0.577463 35:1.225496 36:1.439455 37:0.535258 38:-0.838961 39:-0.856355 40:-2.168883 41:-1.163668 42:0.999567 43:-0.179793 44:0.950576 45:-0.570720 46:0.777039 47:1.065674 48:1.037015 49:1.887260 50:-0.472455 51:-1.193932 52:0.332344 53:-0.056258 54:0.973439 55:0.274577
-1 1:0.745540 2:0.577942 3:-0.635065 4:0.632718 5:1.006064 6:1.784546 7:-0.352668 8:0.847637 9:-0.019259 10:-1.506837 11:-0.953660 12:-2.454046 13:0.266940 14:-0.064807 15:-3.049037 16:-2.339578 17:1.072329 18:0.649937 19:0.083198 20:-1.200119 21:0.282796 22:0.473423 23:0.384934 24:0.072498 25:-0.338506 26:1.971895 27:-0.468037 28:0.000931 29:1.094130 30:0.038615 31:-1.100943 32:1.370858 33:-2.078108 34:-0.305809 35:-0.550203 36:0.230523 37:-0.043403 38:1.691435 39:-0.058217 40:-0.852885 41:0.239699 42:-0.619142 43:-1.660193 44:-0.845539 45:-0.933196 46:0.613437 47:-1.261743 48:0.734512 49:-1.147555 50:0.011955 51:-1.265218 52:0.299027 53:-1.156584 54:0.948483 55:-0.246752
-1 1:-0.581896 2:-0.442292 3:2.077574 4:-2.298822 5:0.075449 6:-0.085249 7:-2.036643 8:-1.089623 9:0.106286 10:0.253292 11:-0.271228 12:-1.188872 13:0.118659 14:-1.499473 15:-0.486590 16:1.634572 17:0.225406 18:-0.168672 19:0.186786 20:-2.256010 21:-0.015230 22:0.463878 23:-0.125723 24:0.526106 25:0.002710 26:0.747092 27:-0.687904 28:0.742037 29:-0.863402 30:-2.085214 31:-0.158099 32:1.842386 33:-0.836129 34:-1.786461 35:0.239824 36:0.307720 37:-0.368946 38:-0.949428 39:-0.266882 40:0.895758 41:0.824402 42:0.153855 43:-0.399678 44:0.301422 45:1.574272 46:1.272195 47:1.578009 48:0.473746 49:-0.741128 50:-0.772655 51:-0.186926 52:1.103871 53:-2.204917 54:-0.113004 55:-0.853284
-1 1:-1.681597 2:0.716814 3:-1.700030 4:-0.813140 5:0.958082 6:-0.956267 7:0.794502 8:0.461051 9:-0.437244 10:-0.320607 11:0.898143 12:-1.314704 13:2.271705 14:-0.169670 15:0.731675 16:-1.944344 17:-1.495485 18:-0.979905 19:-2.513305 20:0.110435 21:0.908518 22:1.969814 23:0.260556 24:-3.046523 25:0.990304 26:-2.354658 27:-2.105586 28:-0.654865 29:0.395975 30:0.231308 31:0.270180 32:0.059768 33:-1.095677 34:0.560597 35:-1.271522 36:0.138577 37:0.585470 38:1.128281 39:1.287691 40:-0.519718 41:-1.122481 42:0.011545 43:0.556234 44:0.501716 45:1.104930 46:-1.304355 47:2.207258 48:1.122244 49:-2.405535 50:-0.305795 51:-0.507719 52:-0.892646 53:0.613062 54:-0.502920 55:-1.222517
-1 1:0.888905 2:1.277755 3:0.849527 4:-0.153521 5:-0.018837 6:-0.150571 7:0.290563 8:-1.451168 9:0.286725 10:-1.022911 11:0.297537 12:-0.895676 13:0.537135 14:0.015611 15:-0.510685 16:0.017427 17:1.246688 18:0.727813 19:1.158817 20:-0.226999 21:-0.202742 22:-0.854819 23:-1.243398 24:-0.726498 25:-0.291338 26:2.108491 27:-0.929884 28:0.761206 29:1.403750 30:0.170674 31:0.738771 32:1.037105 33:-1.001676 34:-1.528838 35:-0.497553 36:0.407800 37:0.453748 38:-1.029698 39:-0.616229 40:-0.277266 41:0.830932 42:0.729352 43:-1.025578 44:0.314880 45:0.191385 46:0.875620 47:0.729392 48:-0.645098 49:-0.180893 50:-0.107815 51:-1.170763 52:-0.168777 53:1.870130 54:-0.892277 55:2.482222
-1 1:-0.476138 2:0.471309 3:-2.335862 4:-0.691145 5:0.189968 6:-0.109672 7:0.922851 8:-1.126702 9:1.478080 10:-0.424362 11:1.060782 12:-1.695723 13:-0.604612 14:-0.538643 15:1.071723 16:0.551875 17:-0.121585 18:-0.877929 19:1.926069 20:-1.253492 21:-0.097779 22:-0.859226 23:0.166281 24:1.420854 25:-1.392067 26:-0.263009 27:0.534603 28:-0.897735 29:0.495600 30:-0.018202 31:1.556442 32:0.377607 33:-0.457166 34:-0.542921 35:0.256254 36:0.379104 37:0.873440 38:-2.163387 39:0.371988 40:-0.979379 41:0.109966 42:-0.836219 43:-0.349989 44:-1.566363 45:-0.914745 46:1.707021 47:-0.195743 48:0.270398 49:-0.201628 50:-1.213654 51:-0.616999 52:-1.713568 53:-0.046346 54:0.980282 55:1.261146
-1 1:-0.650078 2:0.653602 3:-0.977349 4:-1.022442 5:0.641966 6:0.127238 7:-0.305187 8:-1.440931 9:-1.540725 10:1.807181 11:-0.265347 12:-0.514353 13:-0.128184 14:0.678767 15:0.022807 16:-1.089861 17:-1.604408 18:-1.649075 19:-0.556423 20:-1.142857 21:0.184184 22:0.778163 23:2.475496 24:0.503419 25:0.634078 26:-1.798691 27:0.360226 28:-1.289602 29:-1.124082 30:0.644139 31:-0.617656 32:0.152117 33:0.124446 34:-0.783506 35:-2.845777 36:1.223183 37:1.163356 38:0.665604 39:1.170501 40:-1.485643 41:-0.038585 42:0.273186 43:-0.057231 44:0.559915 45:0.390437 46:0.784021 47:1.492938 48:0.415556 49:-0.206677 50:-0.282971 51:-0.270148 52:1.286691 53:-0.025571 54:-1.390284 55:-1.076076
-1 1:-0.449149 2:0.524595 3:-0.828347 4:-0.006600 5:-1.079200 6:0.480620 7:-1.853287 8:-1.293188 9:-0.810075 10:-0.880210 11:-0.672970 12:0.937499 13:0.230525 14:0.064219 15:-0.029429 16:-0.142253 17:0.433122 18:-1.164491 19:-1.547596 20:-1.982945 21:1.414692 22:1.880672 23:0.666614 24:-0.410229 25:-0.316066 26:0.674271 27:1.252306 28:1.425077 29:-2.156338 30:-0.360072 31:0.507221 32:0.700384 33:0.462035 34:0.326012 35:-0.061110 36:0.061624 37:-0.959501 38:-2.561238 39:1.568166 40:-1.429015 41:-1.273497 42:-0.009401 43:-0.881674 44:-0.994654 45:1.946287 46:-1.142151 47:0.961683 48:-0.387316 49:1.518099 50:-0.052716 51:-0.751384 52:0.002174 53:0.173997 54:-0.145475 55:1.351626
-1 1:0.593771 2:-0.976786 3:-0.846611 4:-0.355736 5:1.701314 6:0.244875 7:-1.397318 8:-1.014737 9:0.556566 10:-1.290119 11:1.124389 12:-0.239069 13:0.973136 14:-0.490680 15:-0.435198 16:1.354324 17:0.932815 18:0.560183 19:0.099279 20:1.117543 21:0.144824 22:1.563725 23:-1.393290 24:-0.406269 25:0.173322 26:0.095187 27:-1.144911 28:-0.081578 29:1.434399 30:1.608509 31:-0.420499 32:0.205937 33:-2.121758 34:-0.644104 35:0.397122 36:1.300680 37:0.705516 38:0.559374 39:0.358528 40:0.597848 41:-0.763610 42:1.360324 43:-0.207031 44:-1.430428 45:-0.063457 46:0.489898 47:-0.887787 48:-1.841669 49:-0.149018 50:-2.307989 51:-0.072455 52:-1.231779 53:0.148045 54:-0.093177 55:-0.532076
-1 1:1.329086 2:-0.235560 3:0.333686 4:1.945121 5:0.201734 6:1.608078 7:0.795097 8:0.916548 9:0.389761 10:-0.509356 11:0.215178 12:0.379504 13:-0.292359 14:-1.305176 15:1.533602 16:2.341855 17:-0.129329 18:-1.295489 19:-0.796324 20:0.880077 21:1.735434 22:0.532234 23:-0.714948 24:0.471778 25:-0.386897 26:1.444818 27:0.662372 28:1.211732 29:-0.095258 30:-0.196402 31:0.656931 32:-1.618430 33:-2.408503 34:1.903511 35:0.875479 36:-1.416780 37:-0.923025 38:1.420164 39:1.269908 40:-1.318393 41:1.167568 42:-0.197080 43:1.015536 44:-1.852747 45:-0.515094 46:-0.160375 47:1.838050 48:-2.528148 49:-2.368655 50:0.255223 51:0.979065 52:0.537449 53:-0.772115 54:-0.147667 55:-1.254007
-1 1:-0.286947 2:0.067337 3:-0.873654 4:1.017033 5:1.323374 6:1.363772 7:0.864891 8:0.318485 9:-0.754141 10:-0.324874 11:0.695071 12:1.163241 13:-1.762070 14:0.293607 15:-1.169111 16:0.381291 17:-0.400614 18:0.927383 19:-1.686657 20:2.324795 21:2.494459 22:-1.101919 23:-0.765835 24:0.157311 25:-0.609393 26:-0.689673 27:-1.811798 28:-0.558469 29:0.917304 30:-0.293128 31:1.406439 32:0.419066 33:0.134971 34:0.233945 35:0.414351 36:-0.564955 37:-0.030944 38:1.078678 39:-0.676020 40:1.088867 41:1.102390 42:-1.997393 43:0.453555 44:-0.128633 45:0.147568 46:0.447165 47:-0.131672 48:1.135658 49:-0.501130 50:-1.180088 51:-1.739282 52:0.136473 53:0.312539 54:-1.181055 55:-0.099622
-1 1:-0.918803 2:-1.101746 3:-0.211338 4:0.594719 5:0.372142 6:1.201467 7:1.123007 8:1.229363 9:1.234939 10:0.251734 11:1.699254 12:-0.822372 13:-0.410376 14:-0.369313 15:-1.632135 16:-0.683195 17:0.363161 18:-0.396195 19:0.096673 20:-0.525858 21:-0.570156 22:0.849390 23:-0.489593 24:2.023570 25:1.439987 26:0.662654 27:-0.750753 28:0.535669 29:0.779039 30:0.677552 31:-0.774070 32:0.930320 33:-1.371011 34:-0.334527 35:-1.116544 36:-0.661002 37:0.018264 38:1.330072 39:1.412779 40:-0.184550 41:0.787905 42:-0.375311 43:1.127324 44:-0.873820 45:0.174846 46:-0.825606 47:-0.221442 48:-1.829309 49:0.722279 50:-0.687137 51:0.019747 52:0.743417 53:1.055439 54:0.519141 55:-0.911860
-1 1:-1.589447 2:0.293858 3:0.753900 4:0.066083 5:-0.206087 6:1.242998 7:-0.127563 8:1.733089 9:1.586479 10:0.305530 11:1.688275 12:-0.574659 13:1.244976 14:0.655077 15:-0.238258 16:-0.042333 17:-1.043528 18:-1.332580 19:1.341865 20:-0.112409 21:0.209675 22:-1.646831 23:-0.752825 24:0.740846 25:-0.989331 26:-0.307230 27:0.143283 28:0.469367 29:-0.165527 30:-1.447176 31:1.692804 32:0.325971 33:0.484529 34:-0.908412 35:-0.772893 36:1.493295 37:0.833589 38:-0.872579 39:0.557018 40:1.310590 41:-1.481424 42:-1.001852 43:0.858579 44:-1.231575 45:-0.297818 46:-0.211281 47:-0.642929 48:-0.608923 49:0.636093 50:0.119892 51:-0.363961 52:-0.697279 53:-0.979025 54:0.678819 55:-1.216742
-1 1:2.081691 2:0.038383 3:1.291730 4:-0.107683 5:-1.195964 6:0.306857 7:0.544913 8:-1.218630 9:0.628848 10:-0.640928 11:-1.086810 12:-0.673672 13:-0.245000 14:-2.029690 15:-0.923305 16:0.262874 17:1.504966 18:-0.883892 19:0.022038 20:-0.800835 21:0.091115 22:-0.270812 23:-0.054841 24:-1.056011 25:0.917476 26:-1.735946 27:-1.142370 28:0.113853 29:-0.150667 30:1.526122 31:1.981731 32:-0.596026 33:-0.804673 34:-0.610322 35:-0.084334 36:-1.178459 37:-0.306468 38:-0.534393 39:-0.997035 40:-0.306359 41:-0.696034 42:-0.802422 43:0.693946 44:-1.569804 45:1.026750 46:-0.326303 47:-0.736983 48:-0.195950 49:-0.385448 50:-0.100168 51:-0.383169 52:-1.700889 53:-2.174380 54:-0.775631 55:0.148519
-1 1:1.072065 2:-1.562347 3:1.702059 4:0.236774 5:0.763939 6:0.572067 7:1.025985 8:0.210319 9:-0.440347 10:1.253480 11:-0.684572 12:-0.238691 13:-0.352189 14:0.004076 15:1.175685 16:-1.563638 17:0.240768 18:2.233551 19:0.933911 20:-2.056591 21:0.650207 22:-1.886083 23:0.669998 24:-0.100752 25:0.849901 26:-0.282122 27:1.032368 28:-1.440474 29:-0.113830 30:-1.444434 31:-1.126095 32:0.780686 33:0.102969 34:-0.237456 35:0.885828 36:0.924216 37:-2.269847 38:0.315943 39:0.849486 40:1.148547 41:-2.443734 42:1.177570 43:-0.567947 44:2.367662 45:2.028807 46:-0.761382 47:0.296579 48:-1.019849 49:-0.303006 50:0.694543 51:1.655049 52:-1.247236 53:-0.365419 54:0.981595 55:-0.716157
-1 1:-0.545069 2:-0.722201 3:-0.433270 4:-0.333865 5:-0.119213 6:-0.594901 7:0.160076 8:1.126363 9:0.444765 10:0.117463 11:1.375849 12:-1.690767 13:0.884785 14:-1.393425 15:-1.057521 16:1.633536 17:-0.434758 18:1.447883 19:0.271792 20:1.583486 21:0.060696 22:-0.909271 23:-0.523072 24:-0.199721 25:-2.847311 26:-0.368235 27:-0.861957 28:0.208074 29:0.627070 30:0.988507 31:1.168189 32:-1.358748 33:-0.164549 34:1.314919 35:-0.849016 36:-0.261211 37:0.027451 38:-0.349433 39:-1.698477 40:-0.266235 41:0.220898 42:-0.941705 43:0.241033 44:1.501320 45:0.471111 46:1.462106 47:0.729542 48:-1.520429 49:0.565919 50:0.466437 51:-0.143236 52:-1.775994 53:-0.348849 54:-0.419780 55:-1.312598
-1 1:-0.186336 2:0.303560 3:1.637725 4:1.393310 5:-1.976280 6:-0.396307 7:0.032554 8:1.930357 9:1.800581 10:0.589471 11:-1.308337 12:-0.030945 13:0.197962 14:0.758305 15:-0.259627 16:-1.013419 17:-0.480020 18:1.273696 19:0.245705 20:-0.100713 21:-1.083017 22:1.278260 23:-0.498927 24:0.488596 25:0.455545 26:-0.264639 27:0.201693 28:0.101418 29:1.159455 30:0.312144 31:-0.835192 32:0.453523 33:-0.112976 34:0.680787 35:-0.176387 36:1.788515 37:-0.358752 38:0.279831 39:1.342437 40:-0.589554 41:1.411301 42:0.954820 43:0.555246 44:0.041719 45:-1.015044 46:-0.450905 47:0.460544 48:-0.625960 49:1.433896 50:-0.037925 51:-1.369792 52:2.086476 53:0.372153 54:-0.980869 55:1.514061
-1 1:-0.432493 2:0.457482 3:1.694157 4:-1.343756 5:-1.273541 6:0.586337 7:0.573314 8:2.789329 9:-0.706909 10:1.891654 11:0.875014 12:1.077000 13:-0.644543 14:-0.168387 15:-1.017649 16:-1.513813 17:-0.289816 18:0.382580 19:0.472894 20:0.019810 21:-2.606753 22:-0.134469 23:0.081535 24:-0.039892 25:1.903917 26:0.527487 27:0.291064 28:0.308995 29:1.859823 30:0.133720 31:2.821545 32:-1.736808 33:-0.529401 34:0.984761 35:0.560707 36:1.836561 37:-2.459402 38:-0.154315 39:0.227944 40:1.467625 41:-0.131484 42:1.644688 43:-1.026977 44:0.324038 45:-0.994339 46:-0.308033 47:-1.265167 48:-1.473326 49:-0.440790 50:-1.344239 51:-0.748342 52:0.172817 53:-0.137874 54:0.733112 55:-0.216695
-1 1:-1.574434 2:0.221513 3:-0.678769 4:-0.071707 5:0.178368 6:-0.867064 7:0.992186 8:-0.402338 9:-0.921264 10:-1.279797 11:2.466405 12:-0.578574 13:0.365995 14:0.506975 15:-0.422278 16:0.813043 17:1.022599 18:0.546888 19:-2.158552 20:-0.188608 21:-0.872627 22:-0.394554 23:-0.617729 24:1.404577 25:-0.145917 26:0.231104 27:0.875963 28:0.570056 29:-2.021503 30:0.657941 31:0.650664 32:-0.171699 33:0.781853 34:0.868209 35:0.426934 36:1.830934 37:-1.683983 38:0.932662 39:-0.667465 40:-0.562899 41:-1.519878 42:-0.143873 43:-2.259585 44:0.702866 45:0.407715 46:1.964736 47:0.714329 48:0.385600 49:0.345822 50:-1.064028 51:-0.268261 52:-0.550557 53:-1.401191 54:0.426924 55:-1.161394
-1 1:-1.334563 2:-1.212455 3:0.825349 4:2.099951 5:0.009418 6:1.268478 7:-1.168567 8:0.809904 9:-0.895486 10:-1.300233 11:0.923390 12:0.537973 13:-0.099139 14:-0.104761 15:-2.456182 16:1.919796 17:-1.088428 18:-0.966077 19:-0.580277 20:-1.764436 21:-0.406399 22:0.468209 23:1.539984 24:1.551533 25:1.591809 26:-0.764899 27:0.835280 28:1.366475 29:0.608151 30:0.769602 31:-0.903817 32:-0.505644 33:0.214363 34:-0.039025 35:0.858283 36:-1.766958 37:0.495956 38:-0.119850 39:-1.764313 40:1.901276 41:-0.808914 42:0.189096 43:0.433856 44:-1.228806 45:-2.063004 46:3.065782 47:-0.473381 48:1.115462 49:-0.649891 50:0.524365 51:-1.691949 52:-0.080344 53:0.791438 54:0.373333 55:-1.206192
-1 1:0.201686 2:0.430353 3:-1.575583 4:-0.991661 5:0.327334 6:-2.170631 7:0.689415 8:0.339900 9:-0.534574 10:-0.883047 11:-1.829263 12:1.044504 13:-0.796967 14:-1.094451 15:0.456358 16:0.979111 17:-0.130050 18:2.175906 19:1.044756 20:1.333666 21:-0.722434 22:-0.881232 23:-0.063463 24:-0.167561 25:-0.068968 26:-0.232571 27:2.381530 28:1.040547 29:0.033675 30:-0.522041 31:-0.717983 32:0.869550 33:-1.470190 34:-0.696266 35:-0.719849 36:1.574951 37:-0.058821 38:-2.141481 39:-0.487987 40:-0.549899 41:-0.300255 42:-1.059645 43:1.681164 44:-0.418913 45:-0.638314 46:-0.790483 47:0.931750 48:1.087113 49:0.602078 50:0.866836 51:-1.266624 52:-1.246334 53:0.223685 54:-1.061417 55:-0.409825
-1 1:1.564468 2:0.224775 3:-0.105003 4:1.320050 5:-0.462518 6:0.813138 7:-1.235511 8:1.591703 9:-0.616962 10:0.587353 11:1.589507 12:0.309054 13:-1.003419 14:-0.078378 15:0.635653 16:-0.173368 17:1.175706 18:-0.394252 19:-0.490731 20:-2.502300 21:2.074456 22:0.125823 23:-1.378978 24:2.320442 25:0.703815 26:0.143958 27:-0.985760 28:-0.020529 29:-1.043619 30:-2.808563 31:-0.135601 32:2.002417 33:0.429295 34:1.680227 35:-0.072032 36:-1.364160 37:-0.075456 38:0.162155 39:0.576088 40:0.917634 41:0.947893 42:-0.636274 43:-1.933719 44:1.228369 45:0.351051 46:0.194015 47:-0.060675 48:-1.384628 49:0.157150 50:-1.090772 51:-0.508873 52:0.976813 53:0.128448 54:-0.797292 55:-0.410374
-1 1:-1.322418 2:1.070619 3:-2.095949 4:0.907812 5:2.012474 6:0.183560 7:0.354182 8:-0.547732 9:0.845677 10:-1.066301 11:-0.390215 12:0.917015 13:-0.172854 14:0.162286 15:1.737684 16:-0.925792 17:-0.661430 18:-0.849625 19:0.197978 20:0.069255 21:-1.219581 22:0.724734 23:-0.219366 24:-0.422817 25:-0.776090 26:-0.374272 27:0.192541 28:0.465157 29:0.022017 30:0.414802 31:0.661205 32:0.689358 33:-0.907300 34:0.719812 35:0.413597 36:0.085160 37:1.089445 38:-0.715612 39:-2.117743 40:1.941939 41:-1.148862 42:0.001470 43:1.044375 44:-0.008840 45:0.002635 46:-0.171213 47:1.891481 48:1.065924 49:-0.162403 50:-0.549425 51:-0.539324 52:-0.317028 53:1.202271 54:-1.592086 55:0.543315
-1 1:-0.060497 2:-0.940691 3:-0.170872 4:-1.038437 5:-0.137626 6:-0.031730 7:-0.189549 8:0.950304 9:-1.470638 10:-0.882018 11:0.252282 12:-0.775337 13:0.182824 14:-0.069424 15:0.219134 16:0.374993 17:0.284403 18:-0.479833 19:-0.340985 20:0.200715 21:0.703883 22:-0.238586 23:-0.291883 24:0.594026 25:-1.782943 26:1.099871 27:-0.796536 28:1.666347 29:1.337299 30:-1.004825 31:-0.785404 32:-0.393436 33:-2.738056 34:1.776909 35:0.232860 36:-0.528286 37:0.047274 38:-0.052539 39:-1.843092 40:0.577060 41:1.103553 42:0.123753 43:0.205487 44:1.096302 45:-1.188598 46:0.073839 47:0.743448 48:1.820066 49:0.606663 50:-0.401608 51:0.945061 52:0.644383 53:1.073948 54:0.162905 55:0.168810
-1 1:-0.140714 2:-0.327253 3:-0.392503 4:0.109910 5:0.699106 6:1.505849 7:-0.088743 8:-0.269160 9:0.004780 10:-0.250216 11:0.764277 12:0.418535 13:-1.608605 14:-1.317735 15:0.506631 16:0.810333 17:0.246756 18:-1.106742 19:-0.061489 20:0.590218 21:-0.773649 22:0.384480 23:-0.937504 24:-0.300712 25:-0.683926 26:-0.913151 27:-2.045830 28:-0.916469 29:-1.314819 30:-1.394648 31:-0.082250 32:0.621874 33:0.387840 34:-0.340255 35:-1.039394 36:0.112743 37:-0.825687 38:0.083724 39:1.353045 40:-0.574565 41:2.154083 42:-0.809903 43:-2.463980 44:0.489617 45:0.480243 46:0.032892 47:0.901150 48:0.420028 49:-0.359473 50:-1.528424 51:-1.125620 52:-0.132401 53:-0.180176 54:0.486306 55:0.780116
-1 1:-0.331197 2:-0.408329 3:0.231439 4:-0.117611 5:0.128194 6:-1.141963 7:1.355154 8:0.556615 9:-0.865015 10:-0.980668 11:-1.026854 12:1.357638 13:0.952595 14:1.277128 15:0.600183 16:0.021040 17:-1.576230 18:1.254114 19:0.449395 20:-0.055898 21:0.156878 22:-0.049115 23:0.607078 24:-1.018961 25:-0.419410 26:-0.683872 27:-1.151276 28:0.999110 29:0.037530 30:-0.550007 31:-0.745563 32:-0.451131 33:-1.483237 34:0.030957 35:0.742595 36:0.194698 37:-0.900651 38:1.594929 39:-0.130062 40:-0.842139 41:1.216699 42:0.831056 43:-0.664493 44:-0.461447 45:0.805102 46:-0.948332 47:-1.739677 48:0.161026 49:0.407047 50:0.486699 51:-1.106795 52:-1.126568 53:-1.022912 54:-0.101104 55:0.119917
-1 1:-0.551336 2:0.166923 3:-0.801329 4:-0.675006 5:0.332172 6:-0.820258 7:0.114549 8:0.779389 9:0.993342 10:-0.601575 11:1.011839 12:1.923112 13:-0.705847 14:-0.626953 15:-0.405180 16:-1.007584 17:-0.702523 18:-0.854832 19:0.673845 20:-0.319283 21:0.720205 22:-0.341454 23:-0.233507 24:-0.574297 25:0.228869 26:-0.390425 27:-1.091816 28:-0.310792 29:1.342429 30:1.619497 31:-0.362147 32:-0.869305 33:-0.547074 34:-1.354697 35:-0.124667 36:0.692826 37:-0.402448 38:0.181974 39:1.174806 40:-0.902969 41:-0.409507 42:1.758202 43:-0.215937 44:-0.112838 45:-0.797844 46:-0.042365 47:0.463856 48:-0.593236 49:-0.026124 50:1.036076 51:-0.376819 52:-1.523034 53:-1.098362 54:0.355861 55:-1.245189
-1 1:-0.607658 2:1.448139 3:-0.087252 4:0.775378 5:0.039491 6:-0.779756 7:-0.019162 8:-1.168869 9:0.238958 10:-0.920303 11:-1.390046 12:1.179821 13:-0.204879 14:1.376570 15:-0.879662 16:-0.776064 17:1.346545 18:0.208773 19:1.543415 20:-1.882874 21:1.062623 22:-0.220738 23:-0.074535 24:-1.310960 25:-0.369957 26:0.073641 27:0.610259 28:0.094623 29:0.688925 30:-1.001717 31:-0.985691 32:-0.924081 33:-0.523390 34:0.181839 35:0.927084 36:-1.118844 37:1.136268 38:1.132981 39:-0.494572 40:0.270154 41:-0.256643 42:0.288450 43:1.003402 44:-1.134542 45:1.483271 46:-0.262658 47:0.000875 48:-0.406291 49:0.702738 50:0.278837 51:0.660140 52:-1.038232 53:-0.213931 54:1.613070 55:0.480344
-1 1:1.537527 2:-0.580211 3:-0.715657 4:-1.311664 5:-0.105378 6:-0.540040 7:-0.634837 8:1.058841 9:-0.159625 10:0.080361 11:1.385362 12:0.240611 13:-1.339272 14:-0.395300 15:-0.257319 16:-0.100335 17:-0.332584 18:1.115807 19:-0.445554 20:-0.967416 21:-0.862887 22:1.293599 23:-0.499048 24:0.249816 25:-1.458187 26:-0.105369 27:0.572370 28:0.089598 29:-0.470544 30:-0.948840 31:1.472256 32:0.645809 33:0.455600 34:-0.548533 35:0.062054 36:1.042823 37:-0.337696 38:-1.194379 39:-1.545619 40:0.982194 41:0.455144 42:-1.371713 43:-1.508652 44:-0.231418 45:-0.356708 46:1.356481 47:1.057647 48:0.418157 49:0.990567 50:0.459556 51:-0.144416 52:-0.814678 53:0.861255 54:-0.334554 55:0.409989
-1 1:0.866577 2:-0.815159 3:-0.123073 4:-0.987024 5:0.085135 6:-2.214406 7:0.912352 8:1.064368 9:0.606633 10:0.945856 11:0.555820 12:0.002296 13:-0.800082 14:0.411881 15:0.033332 16:-0.897238 17:-0.551009 18:-0.474263 19:0.161792 20:0.141637 21:0.692312 22:-0.560536 23:-0.476930 24:0.881387 25:-0.909090 26:0.783181 27:0.769454 28:-0.770980 29:0.523058 30:0.331279 31:0.664078 32:0.286951 33:-0.693787 34:-0.692350 35:-0.582301 36:0.024010 37:-1.571746 38:-0.116754 39:-0.706027 40:0.101308 41:1.315241 42:-2.058776 43:-1.569949 44:1.296019 45:-1.026574 46:-1.335456 47:-0.090537 48:0.211001 49:0.736741 50:0.770880 51:-0.568725 52:-1.940450 53:0.982506 54:0.716006 55:-2.402012
-1 1:-0.066374 2:-0.833250 3:1.249464 4:0.256902 5:0.303308 6:0.658728 7:0.066093 8:-1.227617 9:-0.633562 10:0.695890 11:-0.702863 12:-3.023891 13:0.437188 14:0.999039 15:-0.937668 16:0.273205 17:-0.330316 18:0.254641 19:0.233864 20:0.015830 21:-0.955928 22:-1.457375 23:0.779062 24:-1.721288 25:-0.115530 26:0.670632 27:-0.409991 28:0.635865 29:-0.067570 30:-0.538325 31:0.109786 32:1.343429 33:0.017534 34:-0.821833 35:0.292127 36:-0.252186 37:1.159733 38:0.324375 39:1.702182 40:1.742599 41:0.138566 42:-1.598228 43:0.052160 44:-0.503368 45:0.715927 46:-0.887615 47:-0.395508 48:1.230146 49:-0.162891 50:1.771513 51:-0.071617 52:0.127452 53:0.946278 54:-0.896109 55:0.742163
-1 1:-0.123740 2:-0.012994 3:-1.309697 4:1.372980 5:0.396866 6:-1.143558 7:1.108915 8:1.073492 9:0.057809 10:1.555270 11:0.178739 12:0.732609 13:-0.878075 14:0.684339 15:1.181031 16:0.456611 17:-0.356816 18:0.817218 19:-1.138727 20:-1.669971 21:1.302132 22:-0.328198 23:-1.381389 24:-2.003404 25:-0.550541 26:1.071591 27:-0.486895 28:-0.531636 29:-0.153324 30:-1.447743 31:-1.481841 32:1.862554 33:-0.210708 34:0.431327 35:-0.155099 36:1.126780 37:0.370785 38:-0.208009 39:0.317462 40:1.236393 41:-0.933275 42:0.584596 43:-0.818053 44:-0.622901 45:-0.200745 46:-0.882838 47:0.184887 48:0.000176 49:-0.478980 50:-1.213352 51:-1.192043 52:0.192284 53:1.513439 54:-1.090992 55:-0.630588
-1 1:-0.819642 2:-1.122535 3:-1.671858 4:2.203489 5:-1.377295 6:-1.238468 7:-0.807883 8:-1.933320 9:-0.887851 10:-0.652458 11:0.422060 12:1.169332 13:0.131377 14:-1.403669 15:-1.575883 16:0.595143 17:-0.735134 18:0.325326 19:-0.558635 20:1.470159 21:-0.877524 22:-0.500348 23:-0.423856 24:1.494708 25:0.470040 26:-0.206735 27:1.403682 28:1.464010 29:-0.279554 30:-0.157604 31:-0.639236 32:0.070307 33:1.642782 34:0.524474 35:-0.386654 36:0.820668 37:1.578841 38:1.138927 39:1.808950 40:-1.559667 41:1.263507 42:-2.123839 43:-1.630970 44:-0.041762 45:0.741278 46:-0.420124 47:1.459421 48:-0.181421 49:1.129971 50:0.346472 51:-0.290204 52:0.864162 53:-0.766654 54:1.839094 55:-1.128964
-1 1:0.585063 2:0.970330 3:0.073450 4:-0.436574 5:0.174886 6:0.207065 7:-0.447873 8:-1.213488 9:-0.878739 10:-0.196811 11:1.026093 12:-1.144001 13:-1.008230 14:-0.460072 15:-0.348588 16:0.608708 17:-1.957267 18:-0.058022 19:1.360845 20:-0.551407 21:0.005328 22:-0.556211 23:0.452651 24:-0.858396 25:-0.423440 26:0.189781 27:-0.000208 28:1.374410 29:0.329717 30:1.623319 31:0.918428 32:-0.253129 33:-0.319647 34:0.000459 35:-0.023262 36:-0.025763 37:-0.690338 38:0.082501 39:-0.166447 40:1.720834 41:-0.210097 42:-0.754699 43:-0.388401 44:-2.666193 45:-1.965651 46:-1.029483 47:-0.370831 48:-0.705913 49:-0.075384 50:-0.811744 51:1.026627 52:-0.517893 53:0.643280 54:0.494649 55:0.280076
-1 1:-0.563077 2:-0.339509 3:-0.411487 4:-0.344930 5:-0.465566 6:0.221975 7:0.598541 8:1.232483 9:-0.784741 10:-1.261445 11:-0.722232 12:-1.123765 13:0.926188 14:-0.141223 15:0.007544 16:-0.433901 17:-0.322974 18:-1.339789 19:-0.132634 20:0.168500 21:-0.767636 22:1.176654 23:-0.396891 24:0.418573 25:-0.646441 26:0.619116 27:0.451791 28:-0.375471 29:1.069297 30:0.070452 31:0.581311 32:-2.326524 33:-0.313506 34:-0.963964 35:0.623090 36:-1.003693 37:-1.370235 38:-0.902625 39:1.412194 40:1.002920 41:0.378435 42:-0.265161 43:-1.438302 44:0.084123 45:-0.314790 46:-1.609602 47:-1.227213 48:-0.523858 49:2.421638 50:-0.162359 51:-1.051780 52:-0.653666 53:0.799244 54:1.504924 55:-0.208629
-1 1:0.865945 2:-0.978779 3:1.552574 4:-0.348936 5:-3.351572 6:-0.521332 7:-0.479361 8:1.546876 9:-0.357037 10:-1.043428 11:0.714183 12:-0.081496 13:0.159186 14:-0.277344 15:-0.370386 16:-2.198212 17:-0.120621 18:0.170862 19:0.379232 20:0.899773 21:-0.091376 22:0.577610 23:-1.364030 24:0.360811 25:1.104464 26:1.250780 27:0.426801 28:0.683910 29:-0.270338 30:1.935271 31:-0.970840 32:2.568846 33:-1.430387 34:0.570064 35:-0.383404 36:-2.766572 37:0.892256 38:-0.309492 39:-1.102541 40:-0.472071 41:0.631214 42:-1.512473 43:-1.153478 44:-0.228582 45:1.135660 46:0.092383 47:0.873524 48:0.165814 49:0.796432 50:-0.986484 51:-0.425658 52:-0.528568 53:-1.992499 54:-1.781347 55:-0.922751
-1 1:-0.575216 2:-1.287821 3:-1.143036 4:0.434899 5:0.640831 6:1.275582 7:0.487583 8:-2.541775 9:-0.780033 10:-0.349993 11:-2.871233 12:-1.634897 13:0.786223 14:-0.181310 15:-0.936647 16:-0.109414 17:0.464010 18:-0.510082 19:-1.955352 20:-1.037413 21:-0.181451 22:0.246745 23:0.234412 24:1.684265 25:0.910727 26:-0.270554 27:1.452853 28:0.322013 29:2.340285 30:1.653444 31:0.608189 32:0.263690 33:-2.666590 34:-0.336564 35:1.125231 36:0.118104 37:0.232140 38:1.212441 39:-0.253714 40:-0.324730 41:-2.435028 42:-0.470087 43:0.756643 44:0.551547 45:0.123246 46:-0.152242 47:-0.351480 48:1.819405 49:-1.442613 50:-1.528636 51:2.076773 52:0.131807 53:-0.633158 54:-0.208431 55:0.612800
-1 1:2.414350 2:0.041473 3:0.789713 4:-0.359647 5:0.699810 6:-3.194060 7:0.785661 8:-0.522098 9:2.059266 10:0.545643 11:1.790379 12:0.851690 13:0.172039 14:-0.690730 15:-1.174028 16:-0.842362 17:0.127759 18:-2.364563 19:0.709519 20:0.570058 21:-0.233825 22:1.307691 23:-0.414681 24:1.011608 25:2.125962 26:1.419454 27:0.792378 28:1.069354 29:0.713620 30:-0.005615 31:-1.416367 32:-0.367828 33:0.099059 34:0.183827 35:0.931264 36:0.195637 37:-0.133592 38:0.360227 39:-0.109734 40:1.091651 41:0.576582 42:0.436924 43:0.426724 44:-0.748697 45:0.614671 46:-0.559573 47:0.139363 48:0.796378 49:0.279931 50:-0.219661 51:-0.113047 52:-0.790735 53:0.538251 54:0.194194 55:0.501374
-1 1:0.055608 2:0.463319 3:-0.099082 4:0.123909 5:-1.554076 6:-1.487729 7:-0.152503 8:0.723417 9:0.119718 10:-0.203665 11:-0.893667 12:-0.015397 13:-0.319239 14:0.492945 15:1.694560 16:-0.864883 17:1.812720 18:1.108767 19:1.063481 20:-0.319627 21:-1.463828 22:-0.224704 23:0.979905 24:-1.899685 25:-0.488996 26:0.075385 27:-0.568903 28:-0.127681 29:0.092294 30:1.211486 31:0.071003 32:-0.895163 33:-0.507678 34:0.799000 35:-0.528399 36:0.364144 37:0.883208 38:0.465938 39:-0.800601 40:0.544197 41:-0.899187 42:-0.497008 43:2.690217 44:-0.896370 45:0.553629 46:-1.915983 47:0.528318 48:-0.441923 49:-0.594423 50:1.529518 51:-1.068479 52:1.009702 53:-0.328657 54:0.610812 55:-0.377174
-1 1:-0.020994 2:1.261356 3:-1.619949 4:0.999896 5:-0.072174 6:-1.082711 7:1.269911 8:0.807179 9:-0.573350 10:-0.520571 11:-0.113195 12:-1.342889 13:1.661019 14:-0.914266 15:-0.106443 16:0.165765 17:1.698918 18:-0.349489 19:1.043333 20:0.734305 21:0.443856 22:0.372165 23:-1.145428 24:-0.172194 25:-0.155871 26:-0.172448 27:0.734975 28:0.927388 29:-0.676018 30:-0.304908 31:-1.367866 32:0.565300 33:0.196840 34:-0.210944 35:1.479205 36:0.292197 37:0.523368 38:0.755192 39:1.214476 40:0.385519 41:1.687125 42:0.083127 43:-0.144990 44:-0.648853 45:1.368309 46:1.315849 47:1.697550 48:-0.226381 49:0.419758 50:-0.104433 51:0.094568 52:-1.917746 53:-1.625888 54:0.439385 55:-0.451717
-1 1:1.027591 2:-1.995903 3:-0.386244 4:2.578760 5:-0.398398 6:-1.336106 7:-0.581508 8:0.900027 9:1.657630 10:-0.807438 11:0.724214 12:1.152426 13:0.130040 14:-0.548156 15:-0.959844 16:0.808718 17:-0.515737 18:-0.585176 19:0.753484 20:1.391452 21:0.028267 22:0.009866 23:0.002208 24:1.098478 25:-1.871279 26:1.712016 27:0.527889 28:1.545868 29:-1.137049 30:0.456033 31:0.500808 32:1.813151 33:-0.216406 34:1.050626 35:-1.229365 36:1.126695 37:0.147566 38:-0.788659 39:1.155326 40:1.728586 41:0.772117 42:-2.134088 43:0.780673 44:1.479796 45:-0.570998 46:0.265956 47:0.314480 48:-0.939244 49:-0.508809 50:-2.963334 51:0.672520 52:-0.413824 53:-3.142047 54:-0.742492 55:0.699140
-1 1:0.360160 2:0.585634 3:0.130892 4:0.171234 5:-0.730155 6:0.989767 7:0.931798 8:0.471552 9:0.686638 10:-0.187290 11:1.067807 12:0.034535 13:-1.917973 14:0.730335 15:-1.891180 16:0.695889 17:-0.277034 18:0.460825 19:-0.182926 20:0.215427 21:-0.414014 22:-0.083401 23:0.502813 24:0.431107 25:-0.821811 26:0.883240 27:1.324996 28:1.355189 29:0.165803 30:0.398298 31:0.694316 32:-1.164522 33:0.239876 34:0.120895 35:-0.364894 36:-0.103436 37:-1.266022 38:0.453898 39:-1.368772 40:0.525037 41:0.305055 42:1.367739 43:-0.272536 44:-0.824362 45:-1.265286 46:-1.151502 47:-0.856810 48:-0.752202 49:-0.968942 50:-0.219679 51:0.060800 52:0.510763 53:-1.007090 54:0.512930 55:0.910649
-1 1:0.740625 2:1.363807 3:-0.479235 4:-0.244999 5:-1.633667 6:-1.338690 7:-0.078664 8:-1.443303 9:0.696691 10:1.054079 11:0.752461 12:-1.304668 13:-0.129701 14:-1.607984 15:0.164096 16:1.028848 17:-1.008823 18:-3.239975 19:0.920769 20:0.459125 21:1.562508 22:0.761185 23:0.919491 24:0.168609 25:0.012635 26:1.645815 27:-0.366895 28:-0.718960 29:1.508457 30:-0.299294 31:0.830803 32:0.477635 33:-0.347030 34:-1.694147 35:-0.081459 36:-0.726471 37:0.756911 38:-1.643164 39:-0.213728 40:-1.077246 41:0.588738 42:-2.069575 43:0.068235 44:0.317570 45:-0.033855 46:-0.553519 47:-0.275915 48:1.305135 49:0.092725 50:0.875286 51:0.739198 52:-1.000831 53:-0.375692 54:-0.036879 55:1.430575
-1 1:0.231955 2:1.858603 3:0.183905 4:1.451244 5:-0.009444 6:0.136082 7:-0.488957 8:1.777739 9:-0.939802 10:1.245911 11:-1.252539 12:0.054716 13:-0.166170 14:-0.305855 15:-0.638160 16:-0.540308 17:0.272804 18:-1.802886 19:-0.124538 20:1.465810 21:0.143058 22:0.239813 23:0.465423 24:0.297570 25:0.275604 26:0.784798 27:-1.050307 28:-0.383836 29:0.392283 30:0.230312 31:0.188145 32:-1.550222 33:0.445688 34:0.232088 35:1.007281 36:2.383541 37:0.317385 38:1.641636 39:0.749321 40:-0.249825 41:1.453774 42:-0.107573 43:0.122785 44:-1.957968 45:-0.497301 46:1.359384 47:-1.520305 48:-0.776583 49:1.026968 50:-0.220023 51:1.509032 52:-0.875902 53:0.099058 54:-0.024466 55:1.806170
-1 1:0.869683 2:0.315821 3:0.202605 4:-0.332110 5:0.703022 6:0.772932 7:-2.465613 8:0.516474 9:0.094073 10:1.098114 11:-0.810803 12:1.547910 13:0.173800 14:0.001884 15:-0.061169 16:1.464729 17:-0.314066 18:1.758511 19:1.223607 20:0.719767 21:1.110881 22:0.548518 23:-0.224243 24:-0.132130 25:-0.132286 26:0.146673 27:-0.094551 28:-0.821568 29:0.352276 30:0.182207 31:0.092398 32:1.142286 33:-0.367366 34:-0.807227 35:-1.840696 36:0.256189 37:-1.506685 38:-0.166088 39:2.787242 40:-0.376171 41:0.642835 42:0.692096 43:-0.566085 44:-1.449009 45:-0.605797 46:0.820636 47:-0.873366 48:-1.764873 49:1.986031 50:-0.608369 51:-1.222621 52:-1.988041 53:-0.325764 54:-0.364414 55:0.540207
-1 1:0.562413 2:-1.293051 3:-0.246647 4:1.108895 5:-1.291299 6:-0.542534 7:-1.333291 8:-1.429661 9:0.153363 10:-1.748486 11:-0.224619 12:2.878549 13:-0.581430 14:-0.592378 15:-1.369189 16:1.112072 17:0.625521 18:0.834513 19:0.023238 20:-1.654288 21:-0.401020 22:-0.371492 23:-0.944171 24:0.634760 25:-0.072417 26:-1.126903 27:1.205471 28:1.669901 29:-0.897036 30:0.059019 31:-1.077340 32:-1.554250 33:-2.212706 34:-3.130434 35:-0.273778 36:-0.042473 37:-0.233251 38:1.215197 39:-0.140367 40:-0.099952 41:-0.534131 42:-0.769153 43:0.873380 44:-0.005935 45:0.230507 46:-0.654836 47:2.441689 48:0.521946 49:-0.547552 50:-0.832380 51:1.563330 52:0.615978 53:-0.674281 54:-0.864946 55:-1.397247
-1 1:0.538333 2:-1.502537 3:-2.887740 4:-0.477410 5:1.062140 6:-1.009397 7:0.895956 8:1.044175 9:-1.947847 10:1.517157 11:1.317712 12:0.168749 13:-0.351519 14:0.278584 15:-0.279361 16:1.744159 17:-0.680102 18:0.046863 19:1.517626 20:-1.946583 21:0.715462 22:-1.681678 23:-0.531912 24:-0.121163 25:-1.137885 26:0.986632 27:-0.465063 28:0.352597 29:0.437540 30:0.894999 31:-0.012669 32:0.557315 33:1.563361 34:-1.910568 35:0.335664 36:0.190130 37:-0.147928 38:-1.489668 39:-0.947054 40:0.983525 41:-1.482124 42:0.146201 43:-0.542391 44:-0.976640 45:0.012032 46:-1.397096 47:0.759417 48:-1.078532 49:-1.021665 50:-0.124538 51:-1.733838 52:-1.266546 53:-1.001651 54:1.058135 55:0.919703
-1 1:-0.241679 2:0.197040 3:0.418891 4:-0.089120 5:0.151206 6:-0.118933 7:-1.042365 8:0.470376 9:-0.298747 10:-0.316923 11:-0.666798 12:2.020670 13:-2.067785 14:-0.124213 15:1.086754 16:-1.484593 17:0.637813 18:-2.317429 19:-0.409388 20:0.407977 21:-0.075246 22:-0.522576 23:-0.304680 24:0.268777 25:-0.128990 26:0.030076 27:1.391446 28:1.758007 29:-0.587150 30:-0.810431 31:-0.482693 32:-0.884424 33:-0.857370 34:-1.107267 35:0.072706 36:1.286628 37:1.571150 38:0.480667 39:-1.952147 40:-0.813961 41:0.300278 42:1.323654 43:0.227250 44:-0.325278 45:0.204002 46:-0.847140 47:-0.441057 48:0.427125 49:-0.475400 50:1.171271 51:0.228948 52:-1.123775 53:0.176284 54:1.344278 55:-1.048732
-1 1:2.193364 2:-0.209987 3:-0.679858 4:-0.416597 5:-0.148377 6:0.162920 7:0.688229 8:-0.273386 9:-0.136896 10:0.092906 11:-0.978061 12:1.322878 13:0.065087 14:0.632188 15:-0.487481 16:0.536960 17:-0.765093 18:0.128401 19:-0.984934 20:1.503183 21:0.078328 22:0.234735 23:-1.203908 24:-0.712767 25:0.849850 26:-2.030678 27:0.022083 28:1.339844 29:0.087921 30:-0.065525 31:-1.160288 32:-1.526315 33:2.118293 34:0.423569 35:0.427261 36:-0.799256 37:-1.980988 38:1.202267 39:-0.317009 40:0.738939 41:-1.397045 42:0.354992 43:1.570997 44:0.454843 45:0.383374 46:0.422333 47:1.514308 48:-0.280436 49:0.217129 50:-0.184733 51:0.136699 52:-1.443373 53:-1.413271 54:1.229932 55:-0.916395
-1 1:1.321959 2:0.411144 3:0.770048 4:2.114205 5:-1.260275 6:1.138248 7:1.170673 8:0.612747 9:0.030517 10:1.260333 11:0.504744 12:0.567671 13:-1.354513 14:-0.225404 15:-0.423464 16:-0.371858 17:0.674096 18:-1.408455 19:-1.055987 20:-2.973169 21:-0.407257 22:-0.694148 23:-1.412535 24:-0.751484 25:0.834830 26:-1.548936 27:-0.282537 28:0.372161 29:0.319160 30:-1.039610 31:0.908434 32:0.046587 33:-1.776992 34:0.301360 35:-1.454160 36:0.679333 37:0.158058 38:-0.639594 39:-0.968526 40:0.757370 41:-1.624441 42:-0.113591 43:1.498795 44:0.341893 45:0.226484 46:-1.107266 47:-1.928093 48:0.629781 49:0.691951 50:0.029271 51:1.155192 52:0.822411 53:0.970371 54:1.047927 55:0.658193
-1 1:1.566950 2:-1.467533 3:2.015595 4:0.625484 5:0.997845 6:-0.816694 7:-1.115310 8:0.167263 9:-0.127532 10:0.703950 11:0.803268 12:0.545057 13:-0.720965 14:0.221885 15:-0.545304 16:1.467496 17:-0.299279 18:0.992127 19:0.271302 20:0.270996 21:2.100473 22:0.082683 23:1.202296 24:-0.947904 25:0.526839 26:-0.594664 27:-0.562248 28:-0.818330 29:-0.041354 30:-0.351731 31:-0.026688 32:-1.111122 33:1.639433 34:-1.163441 35:-1.940101 36:0.205251 37:1.345878 38:-0.327638 39:0.022645 40:1.052615 41:0.304914 42:-0.519805 43:1.409122 44:1.207835 45:-1.191110 46:0.031953 47:-0.289020 48:1.192530 49:0.539988 50:-1.576083 51:-0.678479 52:-0.371659 53:1.064655 54:-0.686753 55:0.617444
-1 1:1.815267 2:0.425485 3:-0.469338 4:-0.885421 5:-0.764079 6:-0.652212 7:1.034435 8:0.037384 9:-0.098363 10:-2.072791 11:0.556393 12:-0.752508 13:-0.580794 14:0.317887 15:-1.217813 16:1.868547 17:-2.197545 18:-1.644970 19:0.975732 20:-0.925501 21:-0.113599 22:0.541186 23:1.412555 24:0.196611 25:0.365326 26:-1.329057 27:2.177676 28:-2.527403 29:1.475366 30:0.584640 31:0.325577 32:-1.406406 33:0.101679 34:0.616003 35:-1.013686 36:-0.146742 37:1.545282 38:0.387387 39:-0.861364 40:-0.360608 41:0.000180 42:-0.338144 43:-0.095983 44:0.336607 45:0.157526 46:0.956931 47:0.760094 48:-0.088864 49:-0.290322 50:0.346820 51:-0.240848 52:0.557613 53:-0.487967 54:1.443469 55:2.233076
-1 1:-0.010500 2:1.512778 3:0.040858 4:-0.307618 5:-1.902640 6:0.738159 7:0.744037 8:0.257441 9:-1.878392 10:-1.013129 11:0.243903 12:-0.100225 13:0.036459 14:-0.997023 15:0.676348 16:-0.687957 17:-0.020646 18:-1.490035 19:1.088987 20:-2.065177 21:0.098873 22:-0.914699 23:-0.060695 24:0.021810 25:-1.758040 26:-1.294271 27:0.847719 28:-1.477230 29:-0.180665 30:0.854177 31:0.600554 32:0.537306 33:0.877145 34:0.373975 35:0.531611 36:1.226884 37:0.284809 38:0.437859 39:0.453297 40:0.007355 41:0.241823 42:-1.579888 43:-0.211744 44:1.169498 45:0.560166 46:0.849200 47:-0.633414 48:-1.509630 49:-0.246213 50:1.607177 51:-1.159986 52:0.101181 53:0.937576 54:0.508919 55:-0.317493
-1 1:1.396592 2:-0.716456 3:-1.832322 4:-0.664742 5:-0.094653 6:0.071922 7:0.305971 8:-1.030918 9:-1.245559 10:-0.148274 11:-1.613604 12:-0.413595 13:1.002687 14:-1.167862 15:-1.952764 16:-2.442553 17:-1.353242 18:0.448578 19:-0.916513 20:0.473512 21:-0.361195 22:-0.837068 23:0.543791 24:-0.361313 25:-0.503846 26:-0.228266 27:-0.512330 28:-0.904473 29:0.880376 30:0.762856 31:0.687395 32:-0.327798 33:-0.030964 34:1.087584 35:1.649486 36:0.139786 37:-0.037112 38:-0.491679 39:0.733375 40:2.234312 41:1.183087 42:-0.650294 43:-0.988039 44:-0.872181 45:0.399305 46:0.350158 47:0.425490 48:-0.512334 49:0.400339 50:-2.256543 51:-0.490208 52:-0.151871 53:-0.033507 54:0.598493 55:1.647790
-1 1:-0.891525 2:1.146972 3:-0.484297 4:0.630748 5:1.288566 6:-0.301157 7:1.161798 8:1.113170 9:-0.016367 10:0.095559 11:-0.203568 12:0.136894 13:0.061242 14:1.281222 15:-0.990920 16:1.088874 17:0.147671 18:1.806614 19:0.354645 20:-0.143292 21:-1.440328 22:0.601981 23:-0.603198 24:0.572978 25:-0.414861 26:-0.516579 27:-0.264987 28:-0.908319 29:0.247409 30:1.277586 31:-0.393097 32:-0.034822 33:-1.230855 34:1.038323 35:-1.038639 36:0.500373 37:-0.739787 38:0.461817 39:0.309545 40:-2.203141 41:-0.855935 42:-0.585313 43:-0.461025 44:0.261479 45:-0.162529 46:-0.523791 47:0.174951 48:-0.190804 49:0.944551 50:2.140475 51:-0.362106 52:-0.080827 53:-0.369928 54:1.096039 55:1.850725
-1 1:0.262983 2:0.111363 3:-1.494728 4:-0.326923 5:0.743232 6:1.462889 7:0.364769 8:0.018229 9:0.554402 10:0.125573 11:0.070655 12:-0.868456 13:0.291122 14:0.077169 15:0.469991 16:0.711282 17:-2.597314 18:0.279354 19:1.276039 20:-0.572289 21:0.020070 22:0.380926 23:-1.164167 24:-0.976598 25:0.037088 26:-0.099716 27:-0.395688 28:0.128640 29:0.276929 30:-0.821160 31:-0.263849 32:0.400721 33:1.059644 34:0.776213 35:-0.046331 36:0.827335 37:1.226138 38:-0.431478 39:1.599227 40:1.264126 41:-1.782231 42:1.275687 43:-0.386379 44:0.297403 45:0.901987 46:0.096804 47:-0.426132 48:-0.037999 49:-1.206028 50:2.169428 51:-0.111331 52:0.198211 53:1.820157 54:-1.278495 55:-0.849732
-1 1:-0.591502 2:0.961878 3:-2.458942 4:0.157657 5:-0.543374 6:0.685025 7:-0.465877 8:0.388475 9:0.759956 10:-0.066952 11:-0.052018 12:0.237274 13:0.288562 14:-1.203613 15:0.478009 16:-0.402275 17:-1.195932 18:-0.817266 19:-0.586186 20:0.812006 21:0.300401 22:-1.256440 23:-0.771399 24:0.212120 25:0.899328 26:-0.401184 27:0.265978 28:0.618824 29:-1.083192 30:0.649938 31:-0.852882 32:1.015965 33:-0.303707 34:-3.320882 35:-1.886179 36:0.808693 37:-1.741943 38:1.594648 39:-1.969879 40:0.272270 41:-0.296843 42:1.086723 43:-1.423455 44:0.920122 45:-0.493246 46:0.000779 47:0.227793 48:0.171562 49:1.860167 50:0.889943 51:-1.991887 52:1.427202 53:-1.073396 54:1.118412 55:0.251091
-1 1:0.983362 2:-0.148417 3:0.744114 4:-1.175359 5:1.093779 6:0.499276 7:0.067907 8:-0.407445 9:-0.270297 10:1.003228 11:1.394282 12:-0.827175 13:1.151498 14:-2.612696 15:-0.088928 16:0.548471 17:0.803211 18:-0.707875 19:0.071336 20:0.870051 21:1.877113 22:-0.274950 23:-0.261708 24:-0.089336 25:-0.629765 26:-1.253378 27:0.073010 28:-0.594206 29:0.295184 30:0.545538 31:-1.662604 32:-0.276077 33:0.554676 34:-0.937391 35:-1.639597 36:-1.587392 37:1.889658 38:0.931272 39:0.105246 40:1.951181 41:0.262019 42:-1.197144 43:-0.928674 44:0.125732 45:1.616725 46:-1.115812 47:0.165364 48:-1.087419 49:-0.883477 50:0.726474 51:0.290851 52:1.050103 53:0.203586 54:0.736808 55:-1.159309
-1 1:-0.181623 2:0.061803 3:-0.782958 4:-0.400808 5:-0.073834 6:-1.197521 7:-0.750525 8:-0.099424 9:0.062122 10:-0.607371 11:0.727947 12:-0.538918 13:1.394266 14:-0.192670 15:2.305074 16:-0.017548 17:-2.438927 18:1.043968 19:0.024625 20:3.219629 21:-2.618545 22:0.867158 23:-1.271804 24:-1.293889 25:0.482810 26:-0.435059 27:1.378889 28:-1.637881 29:-0.873873 30:-1.099857 31:-0.472229 32:-1.657606 33:1.256367 34:2.868272 35:-1.526774 36:-0.002897 37:0.549918 38:-0.399936 39:-0.725169 40:1.944158 41:0.308275 42:1.761941 43:-0.863096 44:0.610607 45:-0.658434 46:0.283536 47:-0.896642 48:1.392244 49:-0.672479 50:-1.035556 51:1.597384 52:0.286735 53:-0.699266 54:0.482060 55:0.487949
-1 1:0.173921 2:-0.838408 3:0.209583 4:0.211891 5:-0.199292 6:0.132858 7:0.773866 8:0.076202 9:-0.856782 10:0.280253 11:0.308025 12:0.132541 13:-0.881451 14:0.350283 15:1.239639 16:0.018234 17:0.467549 18:-0.954927 19:-0.705186 20:-0.168411 21:0.753724 22:-1.142192 23:-0.573301 24:-3.763361 25:-0.377016 26:-0.531952 27:-1.420301 28:0.946223 29:-0.938317 30:2.473292 31:0.337897 32:1.215073 33:0.266367 34:-0.889388 35:0.576890 36:0.306768 37:0.203964 38:0.544989 39:0.385221 40:-0.495221 41:-1.197971 42:0.147105 43:1.108542 44:0.225042 45:0.955758 46:0.381136 47:0.008222 48:0.567213 49:-0.302677 50:0.310044 51:0.463789 52:0.346476 53:-0.032694 54:-0.587298 55:-0.682172
-1 1:1.068974 2:0.202073 3:0.423180 4:-0.488305 5:-1.098069 6:-1.322936 7:-1.125903 8:1.099585 9:-0.214739 10:-0.259052 11:-0.950785 12:0.173634 13:-0.476866 14:0.437946 15:-1.000736 16:-1.777797 17:0.248080 18:-0.672303 19:-0.860671 20:-0.807319 21:-0.606680 22:-0.209469 23:-0.984238 24:0.567387 25:2.549331 26:0.145964 27:-1.757994 28:-0.392701 29:-0.058259 30:-0.942393 31:1.776498 32:1.380513 33:0.650846 34:0.185639 35:0.902208 36:-0.052529 37:0.152125 38:1.070081 39:-0.889961 40:0.415383 41:-1.038304 42:1.982172 43:0.933686 44:-0.742242 45:-0.002354 46:-0.345350 47:-0.940157 48:-1.036342 49:-1.221373 50:1.948884 51:0.557789 52:0.604342 53:1.255776 54:1.181216 55:0.825240
-1 1:-0.801782 2:0.288290 3:-1.652131 4:-0.748504 5:-0.233703 6:0.183227 7:-2.128549 8:-0.437150 9:0.715952 10:0.193027 11:0.081733 12:0.155187 13:-0.045638 14:1.735359 15:-0.211943 16:-0.927610 17:-1.745514 18:-1.790456 19:-1.559136 20:-0.608806 21:1.156831 22:-1.630066 23:-1.936717 24:-0.220111 25:0.190933 26:1.754480 27:0.159903 28:-0.077825 29:-0.278409 30:1.597163 31:-0.649079 32:0.015159 33:-0.403125 34:1.608644 35:-1.735517 36:0.544993 37:-1.102334 38:-1.490334 39:0.295345 40:-0.890946 41:0.255441 42:-0.524506 43:-0.159066 44:0.665743 45:-0.080539 46:-1.708348 47:-0.694774 48:-1.704076 49:0.727442 50:0.964896 51:-0.665896 52:-0.836791 53:0.749950 54:0.332528 55:1.620595
-1 1:1.787270 2:-0.975120 3:-0.621940 4:-0.198199 5:-0.282170 6:-0.241637 7:-0.475620 8:0.242969 9:0.585551 10:0.199309 11:-1.347519 12:0.078093 13:1.195944 14:-0.177032 15:0.167053 16:1.960043 17:-1.886652 18:-0.219493 19:0.073529 20:1.115491 21:-1.317466 22:-0.964015 23:0.653188 24:0.921121 25:0.307140 26:0.245711 27:0.020689 28:-0.574477 29:-0.310533 30:-1.542909 31:0.970681 32:2.737437 33:-1.151284 34:1.394809 35:0.535783 36:0.112392 37:0.125065 38:-0.515467 39:-1.143438 40:0.313286 41:1.020955 42:0.031667 43:-0.102304 44:1.778275 45:-2.109389 46:-2.053048 47:0.126958 48:0.017984 49:1.429596 50:-0.895374 51:0.352229 52:-2.547829 53:-0.714768 54:0.384295 55:-0.038789
-1 1:-0.535705 2:-0.154265 3:1.362581 4:0.347236 5:2.117364 6:0.581764 7:0.849592 8:-1.300846 9:-0.000229 10:-0.385217 11:-0.645332 12:-2.551492 13:0.615332 14:-1.272802 15:1.188522 16:-0.073313 17:-0.621408 18:0.317426 19:1.898357 20:-0.762758 21:0.190172 22:0.293227 23:-0.788425 24:0.428079 25:0.341814 26:0.337161 27:-1.705590 28:-1.698240 29:1.721078 30:0.314008 31:1.156155 32:2.142634 33:-0.356990 34:-0.558811 35:0.043296 36:0.433688 37:0.195983 38:-0.531667 39:-0.106762 40:-0.314716 41:1.111273 42:1.763678 43:1.350607 44:0.790637 45:1.291319 46:-0.200916 47:-0.373158 48:-1.224790 49:0.422863 50:-0.871918 51:-0.882306 52:0.309219 53:-1.390084 54:1.977083 55:-1.023279
-1 1:-0.588539 2:1.050332 3:-0.818761 4:0.213071 5:0.277807 6:0.496995 7:-0.308021 8:-0.364157 9:-1.151134 10:1.950162 11:0.213261 12:-1.296898 13:0.806839 14:0.572356 15:-0.061232 16:-1.187816 17:1.104300 18:2.169823 19:-0.472951 20:0.314970 21:-2.031780 22:0.207584 23:-1.004788 24:-0.192002 25:0.019752 26:0.262580 27:0.473292 28:0.907358 29:0.018505 30:-0.242107 31:-0.975886 32:1.676870 33:-0.892309 34:-2.563616 35:-1.678583 36:-1.444147 37:0.964003 38:0.038055 39:-0.627073 40:0.544141 41:-0.111662 42:0.351087 43:-1.188885 44:0.975323 45:-0.783277 46:0.045913 47:1.515367 48:-0.475603 49:1.582607 50:0.032610 51:-0.117298 52:0.136500 53:1.347196 54:-0.540307 55:2.576163
-1 1:-1.741832 2:1.721709 3:0.934990 4:0.109195 5:0.111287 6:0.572437 7:0.388952 8:0.667405 9:-1.240394 10:0.200201 11:0.755978 12:0.988559 13:-1.184541 14:0.408324 15:-1.868691 16:0.031043 17:-1.174375 18:-1.798612 19:-1.497774 20:1.257994 21:-0.452008 22:2.341887 23:1.271216 24:1.145507 25:1.829246 26:-0.930785 27:0.499024 28:0.358016 29:0.374692 30:-1.221800 31:-0.246115 32:0.467853 33:-0.830516 34:0.497307 35:-1.460322 36:-1.985857 37:-0.857048 38:0.697496 39:-0.120036 40:0.012125 41:0.409888 42:0.321145 43:1.714207 44:-0.849611 45:2.852068 46:-0.870505 47:0.311273 48:2.102579 49:-0.554159 50:-1.066101 51:0.404695 52:0.653964 53:-0.259671 54:-0.507796 55:2.121438
-1 1:-0.453212 2:-1.130315 3:-1.472579 4:0.582976 5:0.619160 6:0.390051 7:-0.642321 8:1.047168 9:1.319544 10:-0.221583 11:0.923698 12:-1.042067 13:-2.856522 14:-1.442920 15:-0.726703 16:0.028063 17:-0.445151 18:-1.032893 19:0.354452 20:0.440504 21:-0.097952 22:-0.449041 23:-0.866545 24:-1.270361 25:1.710659 26:-0.637446 27:-0.473322 28:-0.714984 29:-1.738313 30:-0.766555 31:-0.959427 32:-1.343015 33:-0.340803 34:-1.541622 35:0.240357 36:-0.496796 37:-0.775335 38:-0.255892 39:0.958156 40:0.414244 41:0.770524 42:0.465363 43:0.362977 44:-0.665005 45:0.978828 46:-3.348576 47:1.038192 48:-1.206772 49:1.344599 50:0.193776 51:-0.221252 52:-1.368786 53:-1.314572 54:-1.332767 55:0.421426
-1 1:1.909322 2:-0.224422 3:-1.507967 4:0.700305 5:0.588134 6:-0.065581 7:3.262301 8:-1.507760 9:-2.354091 10:0.453650 11:0.316929 12:2.242330 13:-0.356670 14:2.550729 15:0.027960 16:-0.318375 17:-1.240847 18:0.854397 19:-0.845032 20:-0.982266 21:-0.218462 22:-0.901339 23:-0.884331 24:1.620813 25:-0.346112 26:-0.317784 27:1.115194 28:0.254646 29:0.241831 30:0.313976 31:-0.640576 32:-1.015417 33:-0.352134 34:-0.151583 35:0.625715 36:-1.198096 37:0.063202 38:1.178953 39:-0.483608 40:0.105718 41:0.530805 42:-1.286979 43:-0.691245 44:-1.311856 45:-0.603471 46:0.642814 47:0.941565 48:-1.563136 49:-0.534521 50:-3.021682 51:-2.306025 52:-0.401577 53:-0.032994 54:-1.019059 55:0.685504
-1 1:0.023194 2:-1.825126 3:-1.397791 4:-1.426829 5:0.892566 6:0.276854 7:-2.683055 8:-1.985931 9:0.320230 10:-1.468848 11:0.017667 12:1.172589 13:1.227787 14:-0.087279 15:0.670460 16:0.286694 17:-1.460264 18:0.345339 19:-1.212588 20:-1.464582 21:-0.758901 22:0.352220 23:-1.578841 24:1.110947 25:-1.221249 26:0.188331 27:0.535978 28:0.373972 29:0.239821 30:1.685291 31:-2.020474 32:0.657705 33:0.232064 34:-1.589549 35:0.285414 36:-1.177136 37:-1.136209 38:0.175636 39:1.706465 40:1.677925 41:-0.249709 42:-1.507135 43:0.345943 44:0.315658 45:0.672435 46:-0.529066 47:-1.073006 48:-1.525554 49:-0.875700 50:-0.336697 51:-1.209679 52:-2.191147 53:-0.187197 54:-0.031270 55:0.551403
-1 1:0.554120 2:0.857142 3:0.166490 4:-0.319885 5:0.474269 6:-0.412351 7:-0.027647 8:1.516837 9:-0.499105 10:1.666213 11:1.105108 12:0.579818 13:0.112552 14:0.786199 15:-0.291541 16:-0.557123 17:-0.551857 18:-0.828774 19:1.044039 20:-0.316293 21:-0.609348 22:-0.424295 23:0.078386 24:-0.911909 25:0.869471 26:0.566471 27:0.040046 28:0.194523 29:0.975402 30:1.393891 31:-0.727342 32:-1.264775 33:0.196460 34:-0.325458 35:2.060895 36:0.926981 37:0.584862 38:0.095662 39:-0.447726 40:1.380688 41:-2.722075 42:-0.503728 43:-0.505503 44:0.078401 45:1.024320 46:-1.061639 47:-1.580491 48:-0.810408 49:0.175501 50:-1.137698 51:-1.201863 52:0.331018 53:-0.689436 54:-0.281697 55:0.325021
-1 1:0.870699 2:-0.391133 3:0.415182 4:-0.669495 5:-0.455455 6:-2.509819 7:-0.234182 8:-1.798109 9:-0.991514 10:0.921663 11:-0.470268 12:0.375043 13:-0.717248 14:0.134246 15:-1.169484 16:-3.102154 17:-1.450011 18:-1.573817 19:-1.282825 20:-0.320952 21:-0.867517 22:-0.587722 23:0.508804 24:0.099927 25:0.707296 26:-0.240647 27:0.342554 28:-0.295199 29:-0.274962 30:-0.284038 31:-0.684425 32:-0.114110 33:1.560494 34:1.303173 35:-0.150415 36:0.531478 37:-0.367766 38:-0.712135 39:-0.760594 40:0.465614 41:0.778597 42:-1.417933 43:-1.205876 44:-0.326263 45:-0.396415 46:1.592441 47:-1.750106 48:-1.292573 49:-1.659501 50:-0.357449 51:-0.129158 52:-0.926711 53:0.972107 54:-1.018053 55:0.679976
-1 1:-0.433347 2:-2.649876 3:-0.348450 4:-1.044448 5:0.753452 6:-0.788549 7:0.430491 8:-1.276651 9:-0.780490 10:-0.807828 11:0.597032 12:0.079784 13:-1.148801 14:-0.348508 15:-0.502287 16:0.283449 17:1.346305 18:0.612935 19:-0.742302 20:-0.245550 21:1.465592 22:1.423485 23:-0.663104 24:-1.019491 25:-0.153481 26:0.131868 27:-0.332119 28:-0.463275 29:-0.653973 30:2.395461 31:0.394873 32:-0.070527 33:-0.974039 34:-1.690832 35:-0.690210 36:-0.086467 37:0.507427 38:0.050361 39:-0.029615 40:0.144520 41:1.249721 42:-0.133110 43:1.260678 44:-2.574176 45:0.831000 46:-1.120516 47:0.682121 48:-0.524141 49:0.200670 50:1.440901 51:0.060593 52:-0.122870 53:-0.407484 54:-0.007329 55:-1.692572
-1 1:0.556002 2:0.040058 3:1.232379 4:-1.152114 5:1.095318 6:1.784159 7:-0.918615 8:0.994831 9:-0.626419 10:0.881619 11:-0.702677 12:-0.329425 13:0.913919 14:-0.661925 15:-1.342106 16:-0.538911 17:0.525315 18:-0.815200 19:-1.001087 20:0.014771 21:1.053211 22:0.244697 23:0.634770 24:-1.718290 25:1.205112 26:1.758486 27:0.541730 28:-0.697936 29:-1.892185 30:-2.231215 31:0.181320 32:-0.802118 33:-0.185326 34:1.037933 35:0.514652 36:0.477748 37:-2.774364 38:-2.338169 39:1.416811 40:0.562023 41:-0.549565 42:-0.585795 43:0.639024 44:-0.955948 45:0.538462 46:-1.768348 47:-1.223131 48:1.177465 49:-0.039474 50:0.379395 51:1.716418 52:-0.662208 53:1.009044 54:-0.363029 55:0.789048
-1 1:0.111042 2:-1.029849 3:1.433553 4:0.954674 5:-0.970334 6:-1.048121 7:0.651946 8:1.126559 9:0.474748 10:-2.153187 11:0.420097 12:-1.745252 13:-1.151357 14:-1.363316 15:-0.703816 16:-0.658591 17:-1.226885 18:-0.918415 19:2.096413 20:0.103320 21:-0.792193 22:1.842829 23:1.148622 24:1.182626 25:-1.503901 26:0.782201 27:-0.931401 28:-0.432652 29:-1.088119 30:0.946932 31:-0.045342 32:-1.357675 33:-1.318070 34:0.389997 35:0.449054 36:1.128615 37:0.727070 38:1.336979 39:-0.892383 40:-1.073094 41:-0.602931 42:-1.201735 43:-0.075406 44:-0.198337 45:-0.837382 46:0.894017 47:1.614891 48:-0.914514 49:1.062032 50:0.240459 51:-0.390382 52:0.437043 53:0.498285 54:1.087079 55:0.369536
-1 1:1.566379 2:1.722046 3:0.620975 4:-0.352359 5:-1.484834 6:-0.886443 7:-0.502112 8:-1.301226 9:-0.819522 10:-1.134732 11:-0.023618 12:-0.508767 13:-0.282875 14:1.627891 15:-0.936861 16:0.744822 17:-1.314677 18:-1.359289 19:2.457582 20:0.833702 21:1.283036 22:-0.347983 23:1.210924 24:-1.469892 25:-0.654347 26:-1.968838 27:0.333833 28:0.469403 29:0.916386 30:1.366539 31:-0.264672 32:0.282147 33:0.060646 34:-1.671038 35:2.128602 36:0.217288 37:-1.199713 38:0.944806 39:-0.827719 40:0.383948 41:-0.721034 42:-0.396193 43:0.503551 44:-0.455153 45:-2.122815 46:0.134731 47:0.678541 48:-0.346609 49:-1.081160 50:-1.105766 51:0.564191 52:0.439953 53:-0.035487 54:-0.481065 55:0.041254
-1 1:0.484392 2:0.145520 3:0.219141 4:0.136734 5:1.281737 6:0.749285 7:0.237364 8:-0.470458 9:-1.117574 10:0.347064 11:0.492641 12:-0.639928 13:-0.229508 14:0.731948 15:-0.229000 16:0.807778 17:-2.222562 18:-0.394463 19:-0.854747 20:-0.188259 21:0.964379 22:0.945095 23:-0.230928 24:-1.543682 25:0.783731 26:-1.025146 27:0.056758 28:0.828710 29:-1.076430 30:2.110026 31:-0.069341 32:-0.464421 33:0.277072 34:0.854911 35:0.567056 36:-1.467207 37:-1.067814 38:-1.076869 39:1.745683 40:0.031213 41:-1.095349 42:-0.291980 43:-0.262003 44:-0.593440 45:-1.049784 46:1.787529 47:-1.625460 48:0.174947 49:-1.141615 50:-1.127004 51:0.514614 52:0.144532 53:0.361591 54:0.637149 55:-0.157488
-1 1:0.281833 2:0.418836 3:-0.788060 4:1.227903 5:0.230168 6:-0.944213 7:-0.177199 8:0.144331 9:0.369988 10:2.048699 11:0.898203 12:0.131794 13:-1.168360 14:-0.902553 15:-0.835395 16:-0.960753 17:1.898657 18:0.208825 19:0.849856 20:0.985433 21:0.517733 22:-1.243554 23:-0.875052 24:0.561331 25:-1.403135 26:-0.089656 27:0.783873 28:-1.227016 29:-0.244229 30:1.347870 31:2.572069 32:0.716338 33:0.666538 34:-0.859457 35:-0.185317 36:1.596265 37:1.998273 38:0.219989 39:0.083352 40:-2.893399 41:1.414805 42:-1.808923 43:-0.143905 44:-1.655459 45:1.567246 46:0.153214 47:0.520126 48:0.268355 49:-0.111261 50:-0.099133 51:-0.204397 52:-0.337545 53:0.301060 54:0.197098 55:0.068119
-1 1:0.159307 2:1.364336 3:-1.015174 4:0.679536 5:2.048198 6:0.221064 7:-0.167483 8:0.536739 9:-1.766610 10:-0.460276 11:0.448555 12:0.890220 13:-0.702139 14:0.262749 15:0.255755 16:0.426126 17:1.198441 18:0.380756 19:-0.329027 20:-1.071561 21:-0.166625 22:-0.683540 23:1.086405 24:-0.816791 25:0.052413 26:0.004731 27:-0.592195 28:-0.046480 29:0.170137 30:0.407270 31:0.838998 32:-0.841327 33:-0.015342 34:0.078515 35:0.574137 36:1.323161 37:0.410085 38:1.164690 39:-0.498123 40:-0.223926 41:-1.205178 42:-1.878822 43:-1.357385 44:1.871815 45:-0.692258 46:0.991675 47:0.776987 48:-0.059616 49:0.212926 50:0.597123 51:1.875560 52:0.223454 53:-0.131574 54:-1.007313 55:-0.259325
-1 1:-0.876364 2:0.105629 3:0.025607 4:0.019692 5:0.274939 6:0.579607 7:-2.021928 8:0.686051 9:-0.856238 10:-0.790437 11:-0.110183 12:-0.451783 13:-0.284606 14:-0.488905 15:-0.907180 16:-0.608730 17:-1.187688 18:0.156424 19:0.297623 20:0.142925 21:0.190167 22:-0.254275 23:-0.343944 24:0.601541 25:0.985467 26:2.838198 27:-2.274876 28:-0.754664 29:0.820853 30:-0.396402 31:-0.179467 32:-1.427236 33:0.027158 34:1.638529 35:1.293638 36:-1.740324 37:1.159667 38:0.673479 39:0.648330 40:-1.192788 41:1.934805 42:0.735758 43:-0.365018 44:-0.191082 45:0.861041 46:0.223639 47:0.345032 48:-0.119518 49:-0.191845 50:-0.712324 51:-0.376756 52:0.508136 53:-0.328335 54:-0.331108 55:1.044044
-1 1:-0.762965 2:0.338749 3:0.045823 4:-0.322326 5:1.557868 6:-0.032079 7:-0.022534 8:-1.765978 9:1.036552 10:1.032364 11:-0.560729 12:-0.390900 13:-0.800491 14:0.200553 15:1.211744 16:0.716491 17:-1.401980 18:-0.408467 19:0.838849 20:-0.665664 21:-0.590532 22:0.699916 23:-0.169891 24:0.380282 25:1.302704 26:-0.162675 27:0.311294 28:-0.181172 29:-0.335000 30:0.826894 31:0.906655 32:2.316312 33:-0.036590 34:-0.127684 35:0.408885 36:0.107722 37:0.921688 38:-0.052793 39:0.285056 40:-0.039874 41:-0.065671 42:0.555150 43:0.092952 44:-0.904392 45:2.113578 46:0.425981 47:1.740228 48:1.234926 49:0.303273 50:-1.360768 51:-2.014950 52:1.233648 53:-0.707357 54:2.590004 55:-0.838391
-1 1:-0.445420 2:0.011828 3:-0.250365 4:-0.600609 5:-2.413878 6:-0.988746 7:-2.213128 8:-0.515353 9:-0.882583 10:-0.164221 11:-0.675483 12:-0.254109 13:2.077219 14:-1.000402 15:-0.221860 16:0.536253 17:-2.260657 18:-0.394473 19:-0.049495 20:0.366362 21:0.811883 22:-0.184375 23:-0.344868 24:-1.017832 25:-0.074227 26:1.919225 27:-0.469252 28:0.688665 29:0.316741 30:-0.474551 31:-0.829212 32:0.410128 33:0.909501 34:1.176273 35:-0.948370 36:-0.022115 37:1.060434 38:-0.160181 39:1.988276 40:1.174460 41:-0.123167 42:-0.140988 43:0.299419 44:1.005562 45:-1.724271 46:-0.159025 47:-0.817244 48:0.176158 49:-0.052279 50:0.056839 51:0.917169 52:-1.085235 53:0.843451 54:0.074067 55:0.646033
-1 1:1.256910 2:-2.457461 3:-1.652270 4:-1.994282 5:0.022436 6:1.464949 7:0.430653 8:0.141963 9:-1.028613 10:0.327216 11:0.028720 12:-0.940782 13:0.921212 14:-0.824353 15:-1.097486 16:-0.275582 17:0.015132 18:-0.040388 19:0.534521 20:-2.591540 21:0.094877 22:-0.607842 23:-0.544632 24:-0.709457 25:-0.345568 26:1.120170 27:-1.472194 28:-0.664247 29:-0.180403 30:-0.445168 31:-0.675895 32:-0.205666 33:-0.596494 34:0.171346 35:3.271352 36:-0.093383 37:1.105400 38:-0.098075 39:0.052933 40:1.081586 41:-0.421837 42:-0.869395 43:0.848824 44:-0.852075 45:-0.503078 46:0.417978 47:1.193646 48:1.200489 49:-0.747150 50:0.622047 51:-0.178396 52:-0.830582 53:1.025205 54:1.366635 55:0.277114
-1 1:-0.696728 2:-1.090864 3:-0.981709 4:-1.443659 5:-0.533945 6:-0.723408 7:-0.041031 8:-0.165471 9:0.067943 10:0.431558 11:0.092280 12:-1.628629 13:-1.455019 14:0.866614 15:-0.709583 16:0.669575 17:-0.106054 18:-1.312875 19:-0.051866 20:-0.062774 21:0.830720 22:0.317331 23:-0.370723 24:0.254449 25:-1.100840 26:-1.577970 27:1.205540 28:-0.807876 29:-1.153925 30:-1.687564 31:-1.174773 32:-1.447621 33:-0.110390 34:0.182873 35:-0.115027 36:-1.214120 37:-0.217429 38:0.351000 39:-1.978378 40:-0.239358 41:0.597268 42:-0.012617 43:-0.588357 44:0.295805 45:-0.250299 46:0.006432 47:-0.249100 48:-1.041772 49:-0.484201 50:-0.265936 51:-0.253106 52:-0.755919 53:-1.573729 54:-0.177144 55:0.956395
-1 1:0.128443 2:-0.175942 3:-0.295128 4:1.468279 5:-0.283524 6:2.167466 7:-0.651759 8:1.649174 9:-0.296970 10:0.213182 11:-0.412610 12:-0.840067 13:-0.042310 14:-0.484664 15:0.021225 16:-1.491715 17:-1.851980 18:-0.383646 19:0.686106 20:0.353939 21:-0.871415 22:-0.320474 23:0.543019 24:-1.168154 25:-1.362911 26:0.533891 27:0.789559 28:0.089083 29:-0.348792 30:-0.495636 31:2.190580 32:0.878731 33:-0.484819 34:-0.477041 35:-0.267683 36:-0.638108 37:-1.061608 38:-0.919208 39:1.540118 40:-0.883865 41:-0.394261 42:-0.432246 43:0.134814 44:0.730122 45:-2.078782 46:-0.810969 47:0.428419 48:0.816535 49:-0.519599 50:-1.012121 51:-0.697804 52:-0.320698 53:-2.120022 54:0.721138 55:0.212232
-1 1:3.470615 2:-0.898720 3:-0.290731 4:0.723442 5:-2.510101 6:1.038308 7:0.019892 8:1.039356 9:0.442553 10:1.686410 11:-2.196895 12:-0.948828 13:0.390171 14:-0.899895 15:0.242793 16:-0.354784 17:-0.330384 18:1.821752 19:0.874056 20:-0.177224 21:-0.303858 22:-0.256969 23:0.352344 24:0.042641 25:-1.107839 26:-0.288179 27:-0.822642 28:-1.037246 29:0.724929 30:0.548128 31:0.560940 32:-0.126512 33:-1.403031 34:0.957919 35:-0.067861 36:-0.200084 37:-0.294192 38:-1.295784 39:0.600844 40:2.604044 41:0.337899 42:-0.232624 43:-0.048719 44:-1.195693 45:-0.229235 46:-0.920958 47:-1.480155 48:-0.227133 49:1.022130 50:0.263011 51:0.708457 52:-0.283226 53:1.616110 54:-0.400477 55:0.247827
-1 1:0.893841 2:-1.467840 3:-2.027855 4:2.239639 5:-0.149383 6:-0.738310 7:-0.686019 8:-1.312372 9:0.174841 10:-1.513221 11:-0.283524 12:1.173857 13:1.888127 14:-0.910920 15:-1.105853 16:-1.482225 17:-0.471147 18:0.169702 19:-0.129122 20:0.042334 21:-0.586473 22:-0.582385 23:-0.885450 24:2.044150 25:-0.808075 26:0.087158 27:0.170304 28:0.048671 29:0.142896 30:-1.816461 31:-0.186008 32:2.531097 33:0.155656 34:-0.052966 35:-1.188056 36:-2.271613 37:3.750676 38:0.639149 39:1.500907 40:-0.385558 41:-0.347491 42:-0.958897 43:0.227930 44:-1.738856 45:0.536590 46:-0.154331 47:-1.152271 48:-0.094318 49:-0.576478 50:-0.352672 51:-0.136292 52:-1.266689 53:1.820430 54:-1.374732 55:0.136365
-1 1:-0.350243 2:0.718526 3:-0.815643 4:0.507800 5:-0.210064 6:-0.586880 7:-1.036088 8:1.224763 9:-0.127142 10:-0.318930 11:-1.325125 12:0.205277 13:0.902987 14:-0.425332 15:0.056502 16:0.673433 17:-0.767527 18:0.566713 19:0.564664 20:-0.870571 21:-0.400505 22:0.665312 23:1.220992 24:-1.444186 25:1.024528 26:-0.586636 27:0.346977 28:-1.820028 29:-1.257207 30:-0.520453 31:-0.506189 32:0.935235 33:-0.574224 34:0.311801 35:-0.181515 36:1.165663 37:-0.648221 38:0.028877 39:-1.069773 40:0.577260 41:0.238108 42:-0.897855 43:-0.182659 44:1.710771 45:0.130479 46:-0.432479 47:-1.539797 48:0.910433 49:0.140630 50:0.241484 51:0.457809 52:0.707131 53:-0.406648 54:0.790089 55:0.002560
-1 1:0.933179 2:-0.046219 3:-0.193642 4:1.211443 5:1.374930 6:1.106015 7:-0.840099 8:-0.221343 9:-0.809352 10:1.666406 11:0.803906 12:-0.118338 13:-0.801417 14:0.405475 15:0.244381 16:-0.649511 17:-1.385291 18:-0.299319 19:-2.198391 20:0.817054 21:0.748488 22:1.120326 23:-0.597745 24:-0.476887 25:0.112284 26:0.439056 27:-3.002241 28:-0.365177 29:0.654167 30:-0.131048 31:-0.049014 32:-1.015566 33:0.554618 34:1.931608 35:0.775211 36:1.146069 37:-1.599094 38:-1.248252 39:0.399993 40:0.854839 41:1.272045 42:0.101238 43:0.888490 44:0.510068 45:1.398770 46:-0.832802 47:1.364734 48:1.317918 49:0.906998 50:0.703421 51:1.025111 52:0.701931 53:-0.004279 54:0.367518 55:-0.089899
-1 1:0.822757 2:0.654216 3:0.517709 4:1.095038 5:-0.753281 6:0.339772 7:-2.609936 8:1.009986 9:-0.079809 10:0.180832 11:-0.135459 12:1.708596 13:-0.362075 14:1.411975 15:-0.539227 16:0.891244 17:0.019077 18:0.219842 19:1.097174 20:-1.592548 21:-0.279630 22:0.191672 23:0.246122 24:1.207045 25:0.751319 26:0.860817 27:0.306636 28:-0.383341 29:-0.309079 30:-0.482013 31:0.746255 32:-0.679331 33:0.960337 34:-0.851140 35:0.934628 36:1.073013 37:-2.174775 38:-1.447542 39:-0.762071 40:-0.087829 41:1.587446 42:0.242367 43:1.582209 44:-1.240733 45:1.142899 46:-0.467142 47:-0.421017 48:1.062319 49:-0.468310 50:-1.036090 51:-0.791760 52:-1.135366 53:-1.000828 54:0.925857 55:0.187536
-1 1:-0.360826 2:-0.664225 3:0.474301 4:-0.907543 5:0.173671 6:-0.847574 7:0.194785 8:-1.588721 9:-0.066025 10:-0.347741 11:-0.928821 12:-0.329100 13:-0.200632 14:-0.125825 15:0.249436 16:-1.307045 17:-0.111696 18:-0.999691 19:-0.754719 20:0.779617 21:-1.002158 22:-0.193941 23:-1.543354 24:-0.350521 25:1.032903 26:-1.335511 27:-0.815824 28:-0.446034 29:1.031986 30:-0.466119 31:0.965633 32:0.533449 33:-0.189895 34:-1.009315 35:-0.336364 36:0.741850 37:-0.103827 38:0.601071 39:-0.037918 40:1.700390 41:-0.672133 42:-0.816926 43:0.932364 44:0.667350 45:-0.602686 46:-0.060090 47:2.147993 48:0.216019 49:1.557743 50:-1.207454 51:-1.082402 52:-0.996957 53:0.288727 54:0.382100 55:0.272338
-1 1:1.210812 2:-1.699641 3:0.407859 4:-0.267346 5:-0.142677 6:-0.449400 7:0.356058 8:0.224554 9:0.672701 10:-0.506933 11:-0.881697 12:-0.440888 13:-1.147689 14:-0.886390 15:-0.939621 16:-0.523052 17:0.957028 18:0.207505 19:-0.688322 20:-0.274279 21:-0.243848 22:0.138562 23:-0.966447 24:0.310581 25:-0.863033 26:0.350554 27:-1.406982 28:0.589704 29:0.597326 30:-0.506628 31:-2.127144 32:-0.726912 33:0.122865 34:1.578111 35:0.798805 36:-0.648708 37:-0.450443 38:0.248018 39:1.295727 40:0.949675 41:-1.371716 42:-0.308202 43:0.630629 44:1.007954 45:-0.365916 46:-0.836198 47:0.816855 48:-1.534398 49:0.736614 50:-1.394686 51:0.716986 52:0.321829 53:0.278312 54:0.067670 55:-3.381724
-1 1:-0.587284 2:0.239362 3:-1.048120 4:-0.026555 5:-0.782639 6:-0.187946 7:-1.684691 8:0.135465 9:0.388923 10:-0.105524 11:0.219177 12:1.195730 13:-0.021826 14:-0.567709 15:-0.066619 16:0.963781 17:0.575953 18:0.153923 19:0.357382 20:0.971943 21:-0.262810 22:-1.504371 23:-0.916736 24:-0.717604 25:-0.381462 26:-0.923061 27:1.405336 28:1.581453 29:-1.422129 30:0.810497 31:0.436332 32:-0.193029 33:0.294082 34:-0.330693 35:-0.571865 36:0.125553 37:-0.104895 38:-0.947148 39:-0.073197 40:0.860472 41:1.393843 42:-1.036595 43:0.218780 44:0.665085 45:-1.570103 46:-0.027829 47:0.634119 48:-0.880772 49:-0.193111 50:1.935206 51:-0.425464 52:0.276050 53:0.611492 54:0.000487 55:1.053762
-1 1:0.391124 2:0.101383 3:-1.182013 4:0.832538 5:-0.481895 6:-0.416758 7:-0.268140 8:-1.335240 9:-1.741179 10:-0.084006 11:0.906851 12:0.521205 13:-0.995897 14:0.542224 15:-0.854335 16:0.206712 17:-0.646420 18:-0.814390 19:1.639331 20:1.153529 21:0.066514 22:0.381572 23:1.062190 24:0.437181 25:0.530978 26:-0.561331 27:-1.515481 28:-0.091900 29:-0.330263 30:1.247280 31:1.403769 32:-2.583970 33:-0.921118 34:-0.141127 35:-0.622862 36:-0.286684 37:-0.035482 38:0.268945 39:-1.734333 40:0.933784 41:0.642472 42:-0.745824 43:0.086453 44:-1.355181 45:-0.186471 46:-0.659802 47:0.016712 48:0.923172 49:-0.095847 50:-2.249163 51:0.444425 52:0.245367 53:-0.290793 54:-0.738822 55:-2.761441
-1 1:-0.537962 2:0.454794 3:0.373882 4:0.254378 5:-0.223981 6:0.837859 7:-1.053400 8:0.063637 9:1.024952 10:0.587958 11:1.149794 12:-2.603621 13:-0.370697 14:-0.232404 15:-0.642414 16:0.245474 17:0.308626 18:0.659513 19:1.407724 20:1.186932 21:-1.294999 22:0.738780 23:-0.087222 24:0.459482 25:0.953851 26:1.482600 27:0.070819 28:-0.029782 29:0.134892 30:-1.086382 31:-0.972840 32:0.209899 33:0.122167 34:1.295042 35:1.207685 36:-0.597652 37:2.358254 38:-0.324458 39:-1.846991 40:0.214093 41:0.695952 42:0.550452 43:0.196955 44:0.470022 45:-0.683434 46:1.331169 47:-0.250078 48:-2.299752 49:-0.200040 50:1.033522 51:0.007255 52:1.328143 53:0.953111 54:2.250635 55:0.130858
-1 1:0.915718 2:-2.260529 3:-0.042181 4:2.488300 5:-1.159337 6:0.301407 7:0.913674 8:0.095309 9:-1.075539 10:-0.416770 11:0.311760 12:-1.309234 13:0.907046 14:0.267678 15:-0.444819 16:0.344751 17:0.604068 18:0.765977 19:0.427104 20:-0.402666 21:1.484710 22:-0.059058 23:-0.176452 24:0.027848 25:-1.711996 26:2.552707 27:1.887254 28:0.717090 29:0.832403 30:0.317787 31:0.434984 32:-0.550069 33:-0.466989 34:0.512336 35:0.421883 36:-0.810943 37:-0.987890 38:1.833968 39:-0.289798 40:-0.326910 41:-1.249218 42:0.516564 43:1.299274 44:0.775985 45:1.062285 46:0.150961 47:-0.613948 48:-0.629911 49:-0.393255 50:1.240993 51:-0.109078 52:2.410967 53:1.315057 54:-0.032174 55:-2.148409
-1 1:0.038623 2:0.074255 3:1.116632 4:1.830673 5:0.609758 6:1.276829 7:1.156333 8:-1.196149 9:1.114952 10:-1.270345 11:-0.537481 12:1.019874 13:-1.247765 14:0.477749 15:0.779223 16:-0.119702 17:0.465437 18:1.227341 19:-0.480412 20:-0.199294 21:0.356155 22:1.955534 23:0.629026 24:0.329863 25:0.286190 26:-0.388537 27:1.389010 28:-1.090615 29:0.087872 30:0.776287 31:-2.041800 32:-1.922021 33:-0.023920 34:-1.613868 35:-0.880565 36:-0.882204 37:0.565942 38:-0.902361 39:-0.511885 40:-0.358687 41:2.367962 42:0.767000 43:-0.120079 44:-0.876273 45:-0.668789 46:0.073230 47:1.445291 48:0.008883 49:-1.649667 50:0.028324 51:1.460764 52:-0.507134 53:0.944249 54:1.118117 55:0.526322
-1 1:1.208976 2:0.551551 3:-2.079106 4:0.944133 5:0.734328 6:0.254396 7:0.283546 8:-1.353703 9:0.395808 10:-0.664344 11:0.282127 12:0.512078 13:-1.251227 14:-1.087005 15:0.791305 16:1.553940 17:-0.467012 18:1.355405 19:1.249987 20:-0.337972 21:0.576690 22:0.134420 23:0.790961 24:1.071995 25:2.072910 26:-0.521560 27:1.245852 28:0.260474 29:0.367265 30:-0.666596 31:0.953168 32:-0.579848 33:-1.187971 34:0.584205 35:1.412871 36:1.091907 37:0.918888 38:0.691571 39:-0.593672 40:0.871518 41:-0.128495 42:-0.645088 43:1.185154 44:1.117461 45:0.724811 46:-0.800712 47:-2.450297 48:-0.172149 49:-0.742668 50:-0.549640 51:0.785730 52:-0.735237 53:-1.986300 54:-1.826333 55:-0.468099
-1 1:-0.671372 2:-0.451640 3:1.286355 4:0.769579 5:1.233218 6:-0.556805 7:-0.815773 8:0.167385 9:-1.934392 10:-1.714912 11:-0.718644 12:1.147928 13:1.412962 14:-0.192123 15:-0.581577 16:0.617778 17:-0.378530 18:-1.262218 19:-0.882656 20:0.355467 21:0.117110 22:-0.939257 23:-0.952319 24:0.975720 25:-0.412419 26:-0.174784 27:-1.115605 28:0.843060 29:0.343530 30:-1.538592 31:-0.604818 32:-0.635370 33:-0.830532 34:1.007335 35:0.071907 36:2.357977 37:-0.456194 38:-0.179048 39:0.626831 40:0.554131 41:0.889764 42:0.741102 43:-1.751491 44:-0.080908 45:-1.004530 46:-0.349975 47:0.855567 48:1.602099 49:-0.780131 50:-0.200790 51:-0.277908 52:0.278603 53:0.641939 54:0.282038 55:1.369343
-1 1:0.235226 2:-1.156808 3:0.423870 4:-0.864580 5:0.489486 6:1.678371 7:-0.176498 8:-0.093456 9:-0.005825 10:1.194508 11:1.465184 12:0.397461 13:1.013311 14:-0.468384 15:-0.907263 16:0.824793 17:0.709548 18:1.355092 19:-1.937350 20:0.602248 21:-0.629887 22:1.100315 23:1.178759 24:1.035238 25:-0.017755 26:0.723354 27:0.577128 28:0.662012 29:-0.637390 30:1.259637 31:0.268851 32:-0.104666 33:-1.626028 34:-0.247152 35:0.596291 36:0.780255 37:2.222787 38:0.183207 39:-0.087548 40:-2.441137 41:1.325696 42:-1.804050 43:-0.539087 44:-1.436965 45:-1.041291 46:-2.165138 47:-0.648690 48:-1.039843 49:-2.184049 50:-1.482777 51:-0.286036 52:1.019102 53:0.550682 54:-1.547462 55:-0.420841
-1 1:3.237031 2:2.339525 3:-0.544605 4:-0.254340 5:0.016764 6:0.814626 7:0.907998 8:0.742907 9:0.068183 10:0.206665 11:0.675057 12:-0.309771 13:0.305726 14:0.400809 15:-0.132828 16:0.789645 17:1.216377 18:1.068789 19:-0.129866 20:1.350812 21:-0.394012 22:1.466046 23:0.261902 24:-1.084046 25:0.238282 26:-1.287921 27:0.482437 28:-0.160275 29:-1.043977 30:-1.111991 31:-0.511500 32:-0.991545 33:0.153791 34:-0.991399 35:-0.934683 36:-1.005089 37:-2.461903 38:-0.311296 39:0.163065 40:-0.073449 41:-0.730804 42:1.609650 43:-0.194494 44:1.653670 45:0.010777 46:0.357158 47:0.701007 48:0.369076 49:0.209970 50:0.769321 51:2.118787 52:0.574305 53:-1.721048 54:1.021952 55:0.182813
-1 1:0.505334 2:0.083693 3:-0.032286 4:0.742290 5:0.577071 6:-0.584471 7:-0.848648 8:0.212655 9:0.067833 10:0.085495 11:-1.428821 12:-0.185256 13:0.176446 14:1.629479 15:-1.453308 16:0.879293 17:-0.322518 18:-0.431547 19:1.334900 20:-0.855889 21:-0.322419 22:-0.093813 23:1.094451 24:0.064714 25:1.140182 26:-1.185530 27:0.303121 28:-0.089958 29:-0.947495 30:0.787417 31:-0.475915 32:-1.657944 33:-1.105515 34:0.992954 35:-0.050008 36:0.063864 37:-0.269234 38:-0.256182 39:-1.762043 40:1.153939 41:-0.637990 42:-0.648265 43:-1.011854 44:-0.843162 45:0.939632 46:0.411123 47:0.991926 48:1.018923 49:-0.239330 50:0.266410 51:1.057706 52:-0.352417 53:0.361274 54:0.408106 55:-0.113348
-1 1:0.783793 2:1.797391 3:-1.393586 4:0.593528 5:0.525716 6:-0.657221 7:-1.556109 8:0.473384 9:0.349168 10:1.745528 11:-0.323555 12:0.860102 13:0.038368 14:-1.116405 15:0.166581 16:0.549417 17:0.963386 18:-1.396662 19:0.657641 20:0.342504 21:-0.755911 22:0.029673 23:-1.583759 24:-0.726427 25:-1.528669 26:-0.578211 27:-0.019016 28:0.286526 29:0.209739 30:-0.059755 31:1.167213 32:-1.466413 33:-0.980328 34:0.415460 35:0.674297 36:-0.580026 37:-0.256849 38:-1.297615 39:0.527450 40:-0.975622 41:0.171004 42:0.098763 43:-0.269999 44:0.028591 45:-0.857348 46:0.697273 47:0.571817 48:-0.594090 49:-0.052263 50:-0.727967 51:-0.172732 52:1.122963 53:0.335946 54:-0.459856 55:0.787747
-1 1:-0.842256 2:0.373146 3:0.966028 4:-2.291926 5:-0.277896 6:0.339110 7:0.637712 8:-0.599988 9:-1.344078 10:0.767026 11:-1.404553 12:-1.469465 13:0.718868 14:-0.652468 15:0.173579 16:0.613640 17:-0.816945 18:-1.220184 19:0.315301 20:1.011883 21:-0.402531 22:-2.013026 23:0.527879 24:-1.140876 25:0.272880 26:-1.563702 27:0.469811 28:-0.204666 29:1.088386 30:-0.417647 31:-0.596119 32:1.983825 33:-0.041820 34:0.041834 35:0.615958 36:1.867578 37:-0.617873 38:-0.300831 39:-0.382887 40:-0.872107 41:-0.676466 42:-0.080815 43:0.436062 44:-0.054205 45:-1.341227 46:2.571673 47:-0.626446 48:-0.190309 49:1.404279 50:-1.052433 51:-0.022582 52:0.338901 53:0.332946 54:-0.373694 55:-1.646670
-1 1:-1.450662 2:1.077267 3:-1.736582 4:1.002420 5:0.779391 6:0.567580 7:1.469221 8:-0.638875 9:-0.659238 10:-1.288096 11:-0.517141 12:-1.457484 13:-0.952294 14:0.070179 15:-0.063047 16:-0.877261 17:0.659479 18:-0.315227 19:-1.610114 20:-0.284149 21:-1.116024 22:0.874313 23:-0.805260 24:0.001570 25:-0.234176 26:0.114567 27:-0.716253 28:-2.890378 29:1.291868 30:-0.804055 31:-1.419278 32:0.850913 33:0.016403 34:-0.038875 35:-0.012056 36:0.060177 37:0.167420 38:1.238083 39:-0.557112 40:0.360906 41:2.409170 42:0.475619 43:-1.400836 44:-2.440807 45:-0.044744 46:0.460005 47:1.790378 48:-0.320453 49:0.562548 50:-0.565271 51:-0.153693 52:-0.961983 53:-0.306537 54:-0.542784 55:2.057612
-1 1:-0.184506 2:0.136098 3:0.576112 4:1.047609 5:0.906718 6:-1.112389 7:-0.718675 8:0.509184 9:0.650968 10:1.138134 11:0.931429 12:0.197913 13:-1.370666 14:1.714676 15:-1.244707 16:0.838226 17:-0.572800 18:-1.159867 19:-0.507993 20:0.808213 21:-0.392861 22:1.358609 23:0.950823 24:-2.140642 25:-0.066225 26:0.270412 27:0.982267 28:-1.165410 29:0.247603 30:-1.029128 31:-2.105920 32:1.373100 33:0.078149 34:1.125964 35:1.847090 36:0.373262 37:0.539076 38:-0.023420 39:1.714360 40:1.036088 41:-1.571115 42:0.560176 43:-0.171738 44:1.479547 45:-0.045780 46:-0.695505 47:-1.361305 48:-0.072587 49:0.586176 50:0.977847 51:0.449137 52:0.209316 53:0.039791 54:-1.299266 55:-0.724224
-1 1:1.887749 2:1.059169 3:-0.538905 4:-1.764011 5:-0.602566 6:-0.542369 7:-1.017787 8:0.747467 9:-1.321891 10:0.960947 11:1.304064 12:0.758828 13:-0.214035 14:-0.073590 15:-0.720964 16:-0.636952 17:-0.758128 18:-0.730032 19:-0.908467 20:-0.016024 21:0.083647 22:-0.591524 23:-0.813033 24:1.415103 25:-0.598243 26:1.278936 27:-1.033766 28:1.780675 29:-0.687948 30:0.013609 31:1.352625 32:-1.570760 33:-0.442489 34:-0.575689 35:-1.123733 36:1.285302 37:-1.801427 38:-0.560221 39:-0.816327 40:0.334983 41:-0.548038 42:-0.204041 43:0.245845 44:0.112469 45:-1.345979 46:-0.301434 47:-0.306706 48:-0.481169 49:1.144815 50:0.467901 51:-1.118776 52:-1.645195 53:0.609654 54:-0.450855 55:1.495966
-1 1:0.321695 2:-0.140427 3:1.883372 4:0.263582 5:-0.112578 6:-1.111876 7:-0.524255 8:-0.945745 9:-1.477076 10:1.706218 11:-0.236581 12:0.144315 13:1.956012 14:-1.888030 15:-1.207024 16:-2.257207 17:0.049084 18:-0.768674 19:1.484540 20:-1.305900 21:0.880875 22:-0.017882 23:-1.470238 24:0.191752 25:-0.101785 26:0.230277 27:-0.766074 28:-0.449077 29:0.815597 30:-1.941629 31:0.469891 32:0.359890 33:0.566801 34:0.313617 35:-0.037553 36:0.581603 37:1.499070 38:-0.450342 39:-0.425565 40:-0.045681 41:-0.946047 42:0.645170 43:1.372092 44:0.080316 45:1.017695 46:1.432278 47:-0.966421 48:-0.031397 49:0.107639 50:0.706295 51:0.295119 52:-2.644995 53:0.686161 54:0.593840 55:0.692919
-1 1:2.107089 2:0.466268 3:1.705691 4:-0.488252 5:-0.211561 6:-1.436822 7:0.498995 8:-1.538291 9:0.132246 10:-1.681918 11:-1.391599 12:0.995608 13:-0.346970 14:0.414534 15:0.004356 16:0.313243 17:1.079635 18:-2.651831 19:1.296223 20:0.218980 21:-0.751923 22:-0.251282 23:0.286703 24:0.177344 25:1.710816 26:2.070801 27:-0.467982 28:-2.547844 29:0.101027 30:2.644360 31:-0.519270 32:2.113062 33:0.602009 34:-0.535168 35:-0.151860 36:-1.399746 37:1.741697 38:-0.433128 39:0.030547 40:0.297023 41:0.027966 42:0.662872 43:-0.989724 44:0.174087 45:0.523380 46:0.698346 47:-0.234373 48:0.377789 49:0.092286 50:-2.069759 51:0.573021 52:-0.827068 53:-2.203181 54:-2.204140 55:0.514067
-1 1:0.408184 2:-0.707000 3:0.701419 4:0.884601 5:0.014434 6:0.061458 7:-1.157598 8:2.407945 9:-1.771169 10:0.674184 11:0.332191 12:-0.204193 13:0.907509 14:1.622151 15:0.444857 16:-1.297826 17:-1.701553 18:0.088685 19:0.718489 20:-0.813890 21:0.328164 22:-1.109865 23:-0.113015 24:0.263395 25:-0.750399 26:0.632091 27:-0.328580 28:-1.560666 29:-0.084866 30:-0.273499 31:0.791866 32:-2.601715 33:-0.260520 34:0.843064 35:-0.313257 36:1.590330 37:0.795183 38:-1.446324 39:0.350772 40:-0.211224 41:1.830537 42:-1.834864 43:-0.255928 44:-1.766656 45:-0.110419 46:-0.675151 47:0.567295 48:-0.934721 49:0.201759 50:0.374503 51:-0.918683 52:0.079479 53:0.740668 54:-0.108023 55:-1.417847
-1 1:1.117462 2:1.265023 3:-0.957535 4:0.034273 5:0.602771 6:-1.695720 7:0.453070 8:0.277445 9:-0.393370 10:1.131772 11:0.304121 12:0.195153 13:0.974092 14:-1.657394 15:-0.443419 16:-0.912833 17:-1.172801 18:-0.316475 19:0.186205 20:0.018456 21:0.267902 22:0.620334 23:-0.690842 24:-0.941564 25:0.666247 26:-0.239697 27:-1.361315 28:-1.365952 29:-0.116083 30:1.459245 31:-0.310618 32:-0.575238 33:1.541514 34:2.587013 35:-0.489901 36:-1.577332 37:-1.266534 38:1.336907 39:-0.854866 40:-0.446233 41:-1.057726 42:2.537657 43:-0.133589 44:-1.462307 45:-0.234333 46:-0.604466 47:0.692050 48:0.182706 49:-1.171004 50:0.645746 51:0.231391 52:0.942170 53:-0.005446 54:-0.679868 55:-2.427249
-1 1:0.460346 2:0.693421 3:-0.538725 4:-1.677193 5:0.771603 6:0.778730 7:0.039939 8:-1.594971 9:-0.131335 10:-1.705927 11:-0.150181 12:-0.513725 13:0.901789 14:-1.873658 15:-0.489686 16:-3.105989 17:1.452562 18:1.072958 19:-1.346779 20:-1.390163 21:0.731094 22:0.734250 23:-0.093916 24:-1.119425 25:-0.779300 26:2.084535 27:-1.589107 28:0.351677 29:3.185386 30:-1.621497 31:-0.259652 32:1.323605 33:-0.469122 34:0.744047 35:-1.751493 36:-0.157409 37:1.443850 38:0.239373 39:-0.220219 40:0.232187 41:-1.029155 42:-0.668431 43:-1.257505 44:0.437355 45:1.186031 46:-0.651535 47:1.159183 48:-0.505300 49:-0.404181 50:1.817980 51:0.061876 52:0.434421 53:-0.087715 54:1.197441 55:0.372548
-1 1:0.095099 2:-0.608259 3:0.409736 4:1.673765 5:0.742261 6:1.999086 7:-0.154558 8:0.393117 9:-1.035724 10:-0.248312 11:0.059627 12:-0.163392 13:-1.030710 14:1.172904 15:-0.190633 16:2.390332 17:1.330343 18:-0.063472 19:1.424766 20:0.224948 21:-0.384638 22:-0.316149 23:-0.373181 24:0.214146 25:-1.708294 26:-0.266426 27:-0.326100 28:-0.561315 29:-0.767505 30:-0.569560 31:-0.626494 32:-0.743927 33:1.748994 34:1.663419 35:-0.731721 36:0.235134 37:-0.922791 38:2.001143 39:-0.768766 40:-1.175140 41:-0.781854 42:-1.584137 43:-0.562390 44:0.185736 45:-0.344392 46:-0.978043 47:-1.329734 48:-0.352814 49:-0.429053 50:-0.215036 51:-0.460816 52:-1.381508 53:1.049590 54:-0.233076 55:-0.015752
-1 1:2.642313 2:-0.731651 3:2.186087 4:1.205104 5:-0.508070 6:-0.573393 7:0.720126 8:1.254970 9:-0.650328 10:1.187831 11:0.848581 12:-3.046167 13:1.391498 14:-0.680751 15:-0.682117 16:0.036184 17:-0.772233 18:0.596960 19:1.836609 20:-2.143864 21:2.354433 22:-1.113189 23:-0.666166 24:0.780103 25:-0.021703 26:0.144868 27:0.011685 28:-1.444287 29:0.206358 30:0.761693 31:0.328569 32:1.344881 33:-0.283490 34:-1.138785 35:-0.155284 36:0.077142 37:0.249049 38:-1.031440 39:0.715776 40:-0.594247 41:0.943174 42:-0.425429 43:-2.178530 44:-0.634395 45:2.425213 46:-1.023561 47:-1.451619 48:0.075780 49:1.227651 50:0.505046 51:1.952279 52:0.364387 53:0.700066 54:0.781423 55:0.838469
-1 1:-1.123152 2:-0.908917 3:0.759377 4:-0.621290 5:0.384535 6:-0.630619 7:1.521634 8:-0.531093 9:-1.224564 10:0.645295 11:-0.497245 12:-0.220863 13:0.080237 14:-1.844557 15:0.307973 16:-1.213611 17:-0.802160 18:-1.114910 19:0.766749 20:0.154986 21:0.660603 22:0.762724 23:1.257406 24:1.642754 25:0.806132 26:-0.367509 27:0.604573 28:0.169701 29:0.040255 30:-0.760190 31:-0.980418 32:-1.749104 33:-0.301151 34:0.749571 35:1.050318 36:0.220098 37:0.449620 38:0.312729 39:0.211229 40:-1.042010 41:-0.432694 42:-0.227241 43:-0.128221 44:-0.121817 45:0.128064 46:-1.435625 47:1.006873 48:0.165483 49:0.659998 50:2.207437 51:-1.829606 52:-0.239507 53:0.391558 54:-0.544830 55:-0.186498
-1 1:-0.478229 2:0.780458 3:-0.011489 4:1.247132 5:-1.047138 6:0.509115 7:-0.284806 8:-0.465805 9:-0.289067 10:0.093907 11:-1.687512 12:0.841906 13:-1.045127 14:0.098746 15:-0.075481 16:-0.614283 17:0.964683 18:-0.934476 19:0.382657 20:-1.096391 21:-0.188073 22:-0.000629 23:0.820214 24:-0.305469 25:1.376523 26:0.089872 27:-0.512025 28:0.805662 29:-2.730755 30:1.125669 31:0.890375 32:-0.259912 33:-1.719436 34:-0.291611 35:-0.140796 36:1.114798 37:1.382247 38:1.138126 39:1.624332 40:0.247224 41:-1.011473 42:-1.452619 43:0.816072 44:-0.747729 45:0.776397 46:1.813261 47:0.710117 48:-1.623390 49:-1.223759 50:0.117214 51:-0.766858 52:-0.421389 53:-1.542364 54:0.448356 55:1.641097
-1 1:0.579724 2:-0.253515 3:-1.612732 4:0.670338 5:1.008235 6:-0.672130 7:-0.488516 8:-0.924500 9:-0.709271 10:0.407291 11:-0.172417 12:1.225831 13:-0.535527 14:0.049676 15:0.666489 16:-1.099855 17:-0.388662 18:-0.126507 19:0.293874 20:-0.730105 21:0.728482 22:1.483139 23:-0.939933 24:0.394394 25:-0.164835 26:0.084140 27:2.094185 28:0.354772 29:0.002489 30:2.010481 31:2.307209 32:1.151661 33:0.974438 34:0.515646 35:-0.523155 36:1.123651 37:-0.071831 38:1.153358 39:-0.211592 40:-1.031325 41:-1.143862 42:0.068649 43:0.341427 44:0.601438 45:-0.893713 46:0.010861 47:0.100665 48:0.193178 49:-0.110104 50:-0.363303 51:-1.222232 52:-0.223156 53:-0.837476 54:0.483448 55:-1.427341
-1 1:0.171301 2:1.213665 3:-1.097664 4:0.118350 5:1.266220 6:0.049630 7:0.615257 8:-1.416807 9:-0.015000 10:-0.502346 11:-0.261077 12:-2.309618 13:-0.138696 14:1.417368 15:0.165018 16:-0.246088 17:-0.686033 18:1.154518 19:0.422542 20:0.460977 21:-1.938477 22:0.383747 23:-0.930056 24:-0.223938 25:-0.044724 26:-0.702217 27:-2.167273 28:0.020190 29:-0.153581 30:-1.948078 31:-0.351067 32:-0.710982 33:0.737741 34:-2.150476 35:-0.191183 36:1.999738 37:0.529478 38:0.864709 39:-0.682047 40:0.052785 41:1.416668 42:-0.267837 43:0.918089 44:-1.171956 45:-0.907850 46:-0.677893 47:-1.490480 48:1.326484 49:-0.115039 50:-0.023931 51:0.265284 52:-1.064043 53:-0.769433 54:-1.348862 55:-0.356168
-1 1:0.579838 2:0.106322 3:-0.847769 4:0.495436 5:-0.530610 6:1.343947 7:-2.415713 8:-0.916847 9:-0.494063 10:0.311353 11:1.323239 12:-1.466821 13:0.117565 14:-2.120933 15:0.636980 16:0.037726 17:0.075085 18:0.182084 19:1.055285 20:-1.067312 21:0.270913 22:-0.626374 23:1.420160 24:1.388308 25:-0.291913 26:-0.685432 27:-0.664907 28:0.117651 29:-0.701627 30:0.200437 31:0.217861 32:-0.092332 33:0.321762 34:-0.750880 35:1.673965 36:-1.410286 37:1.879715 38:0.708933 39:0.747766 40:1.233577 41:0.548847 42:-1.345453 43:0.581721 44:-0.118617 45:-0.550962 46:0.040821 47:1.049310 48:0.124192 49:0.099089 50:0.053646 51:0.727713 52:0.322722 53:0.184375 54:0.195176 55:1.103516
-1 1:-0.624997 2:-0.741748 3:-1.008903 4:-0.014809 5:0.660964 6:0.405061 7:-0.769932 8:-0.244663 9:-1.237881 10:-0.334635 11:0.647095 12:-0.732176 13:0.494799 14:0.610916 15:-0.530031 16:0.597024 17:-1.796920 18:1.148805 19:1.436845 20:-0.893858 21:0.830605 22:-1.163067 23:0.210174 24:-1.082157 25:-0.043620 26:-0.800346 27:-0.336956 28:-0.254167 29:-0.005907 30:1.026013 31:-1.004318 32:-1.029223 33:0.353323 34:0.012713 35:0.594666 36:-0.811255 37:0.366886 38:-0.902144 39:1.141821 40:-0.599905 41:-0.930956 42:0.426669 43:-0.073522 44:0.433274 45:0.875192 46:0.541647 47:1.094392 48:-0.931091 49:-0.473332 50:-1.106249 51:-0.021030 52:1.641791 53:-0.729482 54:-0.050945 55:0.748979
-1 1:-0.365444 2:-0.463523 3:2.155210 4:-1.058739 5:0.350006 6:-0.809914 7:-0.803145 8:0.608897 9:-0.430117 10:-0.549464 11:0.961507 12:-1.056438 13:0.290162 14:0.278447 15:-1.216330 16:-1.164449 17:-0.032071 18:-0.515201 19:0.699400 20:0.251528 21:1.021463 22:0.586513 23:1.580090 24:-0.105123 25:0.109746 26:-2.064311 27:1.531288 28:0.136063 29:-0.952862 30:-0.701374 31:0.998791 32:-0.999730 33:0.822245 34:-0.111589 35:0.197714 36:-0.564915 37:-1.683331 38:0.719058 39:-0.091609 40:-0.784577 41:-0.488360 42:-0.549610 43:-0.024635 44:-0.997256 45:0.027780 46:0.314525 47:-0.037591 48:0.868520 49:1.658981 50:-1.564881 51:0.638628 52:0.305805 53:-0.817941 54:-1.995982 55:0.413491
-1 1:0.726993 2:-1.219083 3:-0.788983 4:1.036033 5:0.553634 6:0.719193 7:0.318550 8:0.343908 9:0.024796 10:0.455319 11:0.704194 12:0.941185 13:0.326113 14:0.585222 15:-1.754488 16:-0.669555 17:-0.758492 18:-0.226761 19:-1.693219 20:0.446717 21:1.655708 22:-0.525990 23:-0.360382 24:0.586647 25:0.864556 26:0.465197 27:-0.279403 28:0.050866 29:-0.404650 30:-0.519892 31:-2.943487 32:0.308204 33:-1.013143 34:-0.346744 35:-0.091575 36:0.005370 37:0.196541 38:0.793755 39:1.122630 40:0.688175 41:-0.479580 42:0.403014 43:-0.779716 44:-0.159436 45:1.150775 46:-0.000387 47:1.692511 48:1.400170 49:-0.264534 50:-2.235157 51:-0.586793 52:-0.923068 53:-1.276838 54:-1.392164 55:0.860702
-1 1:-0.585891 2:-0.302516 3:-1.106167 4:1.281134 5:0.828220 6:0.034334 7:-1.748852 8:-1.126275 9:-0.730256 10:1.783935 11:-1.260520 12:1.489087 13:-0.630812 14:-0.946714 15:-0.666241 16:-1.700325 17:-0.654977 18:-0.155199 19:-0.142118 20:0.331684 21:0.708650 22:-0.837675 23:-1.386360 24:-0.289224 25:0.833800 26:-0.442811 27:-0.151666 28:0.228870 29:-0.402270 30:-0.994384 31:0.270624 32:0.317255 33:1.852041 34:-0.480088 35:0.236741 36:1.681159 37:-2.128132 38:1.692273 39:0.053655 40:-0.728436 41:0.007586 42:-0.119413 43:-0.082415 44:-2.277904 45:-1.330530 46:-0.132707 47:0.837543 48:-0.620523 49:-0.794817 50:-0.193474 51:0.687766 52:-2.748741 53:0.279147 54:-1.054357 55:0.792008
-1 1:2.196381 2:0.062026 3:-0.238779 4:1.894045 5:-1.220729 6:0.146818 7:-0.724172 8:-0.297965 9:-0.782153 10:-1.063256 11:-0.410546 12:1.271421 13:1.677090 14:0.491260 15:0.253412 16:-1.668445 17:-0.717369 18:-1.542741 19:0.430116 20:-0.298612 21:-0.362994 22:0.408379 23:1.559612 24:-0.368480 25:0.262603 26:1.205354 27:0.669767 28:1.745699 29:-1.842929 30:1.193375 31:-0.653063 32:0.007885 33:0.180591 34:0.666234 35:0.955660 36:1.218856 37:-0.036594 38:-0.756161 39:0.920273 40:-0.991884 41:-0.220996 42:-0.896646 43:0.686961 44:-1.559056 45:-1.870958 46:-1.288719 47:-0.186716 48:-1.539230 49:-1.277275 50:0.864066 51:-0.753886 52:-0.244152 53:-0.271499 54:-0.657884 55:-0.451748
-1 1:0.256592 2:-0.294431 3:0.441009 4:1.453800 5:-0.124734 6:-0.393947 7:-0.338180 8:-1.820717 9:0.304807 10:0.384190 11:0.007410 12:-0.250804 13:-0.588957 14:2.170004 15:-0.976951 16:0.955637 17:-0.261597 18:0.238084 19:0.869782 20:1.400902 21:-0.104229 22:1.252365 23:0.224412 24:-0.869127 25:-1.215650 26:-0.067525 27:2.955223 28:0.403229 29:-1.434528 30:0.815676 31:0.446510 32:1.056123 33:-0.445291 34:-0.416160 35:1.808019 36:-0.939965 37:-0.307569 38:0.443627 39:0.290638 40:0.430636 41:-0.236365 42:-1.206326 43:0.907168 44:0.671086 45:-0.839003 46:-1.454707 47:-0.892027 48:1.184578 49:-1.574944 50:-1.006648 51:0.159783 52:-0.713404 53:-0.607459 54:0.987472 55:-1.386580
-1 1:-0.280714 2:-0.760605 3:-1.464629 4:-0.099848 5:0.498733 6:0.501533 7:0.680016 8:0.237709 9:-0.783797 10:1.047692 11:-1.074254 12:0.738355 13:1.411243 14:1.283807 15:0.026698 16:1.006176 17:0.062638 18:0.342413 19:-0.219426 20:-1.026123 21:-1.388419 22:0.193488 23:-0.538572 24:0.524109 25:0.612127 26:0.303908 27:-0.164334 28:1.579958 29:0.193021 30:0.504375 31:-0.198059 32:-0.215572 33:-0.716853 34:-0.354224 35:-0.383143 36:0.798456 37:-1.403476 38:1.118236 39:-0.486999 40:-1.568589 41:1.403757 42:-0.281214 43:-0.127782 44:-1.785953 45:1.090228 46:0.657524 47:0.209967 48:-1.218789 49:1.592628 50:-0.886997 51:0.263348 52:-0.490370 53:0.032699 54:-0.935520 55:-0.153779
-1 1:-0.032081 2:0.020567 3:-0.311734 4:0.367229 5:-0.569271 6:0.250345 7:0.309405 8:0.464275 9:0.094980 10:0.427102 11:1.010962 12:-0.171213 13:2.175074 14:-1.701403 15:0.063255 16:0.628935 17:-0.710299 18:0.366191 19:0.853773 20:-1.707995 21:-1.840135 22:0.123432 23:0.380912 24:-0.118135 25:0.224207 26:0.991728 27:0.706561 28:1.173593 29:-0.839166 30:0.426229 31:-1.803061 32:1.173525 33:1.342916 34:0.102977 35:0.440164 36:-0.169528 37:0.386043 38:0.685339 39:0.016845 40:-0.213930 41:-1.129646 42:2.220303 43:1.685871 44:-2.185723 45:-0.426226 46:0.904634 47:-0.030065 48:-0.833311 49:0.316575 50:-0.354518 51:0.346547 52:-0.112514 53:-0.337453 54:-0.504646 55:0.230579
-1 1:-0.069757 2:-0.895737 3:-0.811918 4:0.738592 5:0.490079 6:0.317465 7:-0.096517 8:-0.881010 9:-1.130704 10:-0.273252 11:0.686115 12:0.268276 13:-1.749852 14:0.379822 15:1.195123 16:-0.735951 17:2.499908 18:-0.236459 19:0.166369 20:0.979091 21:-0.937939 22:-0.381619 23:-0.929020 24:-0.553654 25:-0.528613 26:-1.391073 27:0.497286 28:1.814729 29:-0.410027 30:-1.589296 31:-0.089970 32:0.109665 33:0.505715 34:-0.828187 35:1.132512 36:1.781341 37:-0.715285 38:-0.166377 39:-0.756044 40:0.054117 41:0.794175 42:-0.174199 43:-0.226080 44:0.330295 45:0.332096 46:0.224322 47:0.445560 48:0.544172 49:0.070513 50:0.297530 51:1.397555 52:1.746046 53:1.224631 54:0.830627 55:-1.138194
-1 1:0.866631 2:0.952789 3:2.248698 4:0.801207 5:-1.368776 6:1.968900 7:-0.510136 8:-0.206391 9:0.386166 10:1.446793 11:-0.912392 12:0.864862 13:0.925062 14:0.181357 15:1.463522 16:1.750254 17:0.458432 18:0.378548 19:0.472496 20:-2.502834 21:0.378614 22:-0.568810 23:0.686923 24:-0.344988 25:0.835330 26:-0.040075 27:-0.077782 28:0.345135 29:0.126407 30:-1.029355 31:-0.259345 32:1.099514 33:-0.645461 34:-0.207360 35:1.153062 36:0.061939 37:-0.810625 38:-0.798135 39:-0.193137 40:1.062895 41:1.558310 42:-0.085534 43:-0.124348 44:-0.002379 45:-0.576812 46:0.412687 47:2.529542 48:0.424122 49:0.397322 50:1.200946 51:-1.960447 52:-0.384071 53:-0.703393 54:1.338170 55:-0.843711
-1 1:0.733171 2:-1.495084 3:1.502628 4:-0.550547 5:0.068198 6:1.638585 7:-1.365764 8:1.194998 9:-0.444902 10:0.053077 11:0.957338 12:0.213889 13:0.649000 14:2.387524 15:1.527601 16:0.950246 17:0.134682 18:-0.635121 19:0.726024 20:0.437095 21:-1.750577 22:-1.343916 23:-0.319088 24:-0.555991 25:-0.773884 26:3.230284 27:-1.041969 28:0.278922 29:1.701132 30:0.191615 31:0.552877 32:0.235825 33:-0.278099 34:0.410074 35:-0.391413 36:0.724051 37:0.163266 38:0.955959 39:-0.556902 40:0.174337 41:2.071096 42:-1.506002 43:-0.416997 44:0.861774 45:0.425256 46:-0.296129 47:0.747788 48:-0.022105 49:1.572409 50:0.518535 51:1.856776 52:-1.585075 53:0.139417 54:0.225008 55:1.084577
-1 1:-1.181890 2:0.903725 3:0.604471 4:0.652040 5:-0.586419 6:-0.279167 7:0.748636 8:0.224361 9:0.917420 10:-0.207704 11:0.037418 12:-0.159922 13:0.633074 14:1.617272 15:-0.285271 16:-0.199261 17:-1.979517 18:1.270370 19:0.820279 20:0.107111 21:-1.047170 22:-1.684916 23:0.063243 24:1.309713 25:2.073637 26:1.288462 27:0.565927 28:0.286184 29:-0.222156 30:-1.076487 31:1.550304 32:-0.361250 33:-1.770196 34:-0.139086 35:0.668814 36:-2.432334 37:-1.320460 38:2.288434 39:0.134736 40:0.780099 41:0.228392 42:0.829877 43:-0.456459 44:0.300706 45:-1.472688 46:3.084765 47:0.990159 48:2.850413 49:-1.192113 50:0.381935 51:1.053911 52:0.234668 53:-0.298903 54:-1.509371 55:1.127376
-1 1:-0.791931 2:0.673489 3:-1.718477 4:-0.970720 5:0.192602 6:-0.945540 7:-0.333444 8:-0.847631 9:0.062495 10:-0.478143 11:0.123939 12:0.357090 13:-1.717365 14:1.074238 15:0.952090 16:1.069095 17:1.530209 18:3.104310 19:-1.098419 20:-0.321975 21:0.827091 22:-0.154150 23:-0.390515 24:0.789868 25:0.747798 26:-0.254848 27:0.512461 28:0.169223 29:0.910129 30:-1.189789 31:-1.742038 32:-0.277478 33:0.547276 34:-0.916717 35:-0.126029 36:0.800220 37:0.851166 38:0.032577 39:-0.017334 40:0.874605 41:0.290334 42:-0.655844 43:2.123411 44:1.197425 45:1.851587 46:-0.783305 47:0.094265 48:-1.041542 49:0.135713 50:0.557557 51:-2.540120 52:1.624882 53:0.984778 54:-0.170176 55:-0.565911
-1 1:-0.980311 2:0.512584 3:-0.344347 4:-0.084224 5:-0.041257 6:0.139912 7:-0.489820 8:-0.058218 9:-0.652317 10:1.040605 11:-0.468867 12:-0.753221 13:-1.476743 14:-0.288265 15:-0.134001 16:1.340534 17:-1.770150 18:0.773078 19:-0.228794 20:0.503996 21:1.140141 22:-1.495705 23:-1.442612 24:-0.023192 25:1.341252 26:-2.199848 27:-0.388796 28:0.494402 29:-1.434212 30:1.127345 31:-0.266741 32:0.056854 33:-0.590089 34:0.461026 35:-0.418442 36:-0.061460 37:-0.026442 38:0.842145 39:0.272305 40:1.018796 41:-0.612253 42:-1.358114 43:-0.780846 44:-0.710747 45:0.635913 46:0.147332 47:1.099316 48:1.464110 49:1.268649 50:2.091878 51:1.999713 52:1.525396 53:-0.715063 54:1.233172 55:-0.530599
-1 1:-0.543840 2:-0.519165 3:1.562264 4:1.937849 5:-0.674424 6:-0.273249 7:-1.099001 8:0.135434 9:0.454018 10:0.915586 11:0.975305 12:-0.083879 13:-0.204406 14:-0.610691 15:-1.189833 16:-0.782916 17:-0.173168 18:1.193481 19:-1.483744 20:1.161214 21:-0.321355 22:-0.956944 23:0.854529 24:-0.409867 25:-1.583351 26:1.177848 27:-0.480656 28:0.320348 29:-0.114133 30:-0.522496 31:-1.183710 32:-0.655712 33:0.495996 34:0.585562 35:-0.860949 36:0.402702 37:0.436127 38:-0.661631 39:0.092897 40:-0.052010 41:0.089323 42:1.207821 43:-1.771894 44:-1.564504 45:1.143366 46:0.606244 47:0.047574 48:-1.437366 49:-1.132737 50:-0.122489 51:0.616456 52:0.169910 53:-0.033274 54:1.940935 55:-1.924061
-1 1:1.286091 2:0.616287 3:0.940310 4:0.731173 5:1.131512 6:0.443803 7:-1.476124 8:1.553644 9:-0.862386 10:0.236351 11:-1.347525 12:1.438957 13:-0.259971 14:-0.405960 15:-0.410108 16:-0.916316 17:-0.303686 18:0.309139 19:-0.081358 20:0.460278 21:0.458928 22:1.066714 23:1.685454 24:0.652656 25:1.529947 26:0.429849 27:-0.148908 28:0.105225 29:-0.547495 30:-0.861897 31:-0.952583 32:-1.601275 33:1.025032 34:-0.428965 35:0.020494 36:-0.341304 37:-0.407015 38:0.158689 39:-0.030882 40:-1.589698 41:0.896331 42:0.871225 43:0.416436 44:0.948226 45:1.001083 46:-0.620522 47:-0.097503 48:0.260749 49:-0.420327 50:-1.889448 51:-0.457895 52:0.434201 53:0.697640 54:-1.376845 55:-1.984786
-1 1:0.104151 2:-0.357773 3:0.363593 4:-0.153714 5:0.134635 6:-0.491427 7:-0.370594 8:-1.705276 9:1.323842 10:-0.314973 11:0.207472 12:-0.973299 13:-1.962383 14:-0.381116 15:1.451846 16:-0.587975 17:-0.369957 18:-0.086614 19:0.924962 20:0.144332 21:0.361554 22:0.390676 23:-0.335878 24:-1.488444 25:-0.749738 26:-0.142307 27:-2.026431 28:-0.461572 29:1.510890 30:0.917852 31:2.620110 32:-1.092500 33:0.115367 34:-0.943579 35:0.054764 36:-0.929981 37:0.250309 38:0.795589 39:1.624643 40:-1.226645 41:-1.418807 42:-0.437718 43:1.412832 44:-0.152305 45:0.975856 46:2.354083 47:0.776311 48:-1.112551 49:-1.483516 50:-0.416511 51:-0.169116 52:-0.023672 53:1.346455 54:2.505805 55:-0.324009
-1 1:0.517992 2:-0.630941 3:1.490908 4:-0.774204 5:-1.107085 6:0.491364 7:1.886877 8:0.171917 9:0.478165 10:0.602616 11:-0.627852 12:-1.296229 13:0.710374 14:-1.240452 15:-0.822838 16:-0.518498 17:0.081681 18:-1.758784 19:-1.652031 20:0.378265 21:0.679704 22:0.023081 23:0.689085 24:-0.516127 25:0.935186 26:1.137923 27:0.775937 28:-2.049617 29:-0.934959 30:-1.015914 31:-1.058175 32:-1.173716 33:-0.963615 34:-0.855442 35:0.474603 36:-1.939074 37:-0.015944 38:-2.275825 39:0.559091 40:1.452036 41:-0.098673 42:-0.842165 43:-0.849680 44:-0.007640 45:0.814042 46:0.642269 47:-0.135131 48:0.780597 49:0.166552 50:0.256501 51:-0.158069 52:0.082641 53:0.467943 54:0.628133 55:0.352040
-1 1:-0.518183 2:-0.695980 3:-1.655443 4:0.764905 5:-0.061501 6:0.482918 7:-1.453970 8:-1.358086 9:0.086604 10:-1.326362 11:0.537701 12:2.759848 13:-0.103055 14:0.453463 15:1.095812 16:0.790362 17:0.457187 18:0.807646 19:-2.072805 20:0.136185 21:-0.941906 22:0.315602 23:0.621010 24:-0.137909 25:1.350918 26:-0.073672 27:-0.907909 28:-2.026086 29:0.026952 30:0.312258 31:-0.392324 32:-0.374701 33:0.637773 34:-0.578921 35:-0.831121 36:0.380823 37:-0.519160 38:1.238856 39:-0.384893 40:-0.337313 41:2.237342 42:0.691247 43:1.518527 44:0.611424 45:-0.952768 46:-0.199641 47:0.491187 48:-1.168864 49:-1.177616 50:0.883072 51:0.318117 52:-0.828642 53:-0.207007 54:0.465352 55:0.098003
-1 1:0.897851 2:-0.974768 3:-0.534390 4:-1.959781 5:0.361222 6:-2.814682 7:0.807643 8:0.061770 9:-1.039858 10:0.826499 11:-0.469751 12:-0.003746 13:0.890053 14:0.476261 15:0.084514 16:-1.609741 17:2.167512 18:0.499542 19:0.799452 20:0.039137 21:0.611397 22:-0.201744 23:-0.094269 24:-0.885147 25:0.171014 26:-0.099022 27:-0.442881 28:0.469768 29:-0.986689 30:1.116599 31:-0.496444 32:0.576885 33:0.061286 34:-0.861336 35:-0.123336 36:0.800955 37:-1.202788 38:0.505868 39:-0.020848 40:0.773385 41:-0.226087 42:-0.064819 43:1.592375 44:-0.512935 45:-0.328923 46:1.069352 47:0.185663 48:0.373295 49:-0.313279 50:1.292804 51:1.331362 52:0.452095 53:0.887781 54:0.788165 55:0.117072
-1 1:0.348555 2:-0.311196 3:-0.445917 4:0.923856 5:1.105627 6:-0.604440 7:0.486419 8:-0.564707 9:0.078581 10:1.340885 11:-1.397458 12:0.694155 13:-0.576502 14:0.360948 15:1.133212 16:1.126234 17:0.265387 18:-0.408404 19:-1.091272 20:0.507993 21:1.481337 22:1.593898 23:-1.277994 24:1.435425 25:0.055240 26:1.336679 27:-0.204485 28:0.157049 29:-0.557971 30:0.112987 31:0.873814 32:0.081960 33:-1.699226 34:-0.322693 35:-0.147952 36:1.164273 37:-0.106805 38:-0.172928 39:-2.216230 40:-0.039761 41:1.511398 42:1.632282 43:0.985590 44:0.570830 45:-0.895219 46:-0.244213 47:-1.228265 48:0.797093 49:0.302854 50:-0.970542 51:1.406918 52:0.819812 53:-2.640904 54:-1.065195 55:-2.327986
-1 1:0.283871 2:-1.113350 3:1.556457 4:-1.185923 5:-0.050281 6:-1.108680 7:-0.342135 8:1.774111 9:0.486312 10:0.575048 11:-0.083680 12:0.442261 13:1.554952 14:0.750094 15:-0.574098 16:-0.256870 17:0.401780 18:-0.226575 19:-0.488953 20:-1.171307 21:-0.127664 22:-0.937992 23:-0.708093 24:-0.041514 25:-1.033079 26:2.126153 27:1.178098 28:0.173296 29:1.233257 30:1.718691 31:-1.090209 32:1.179268 33:0.069442 34:1.506755 35:-0.147166 36:1.658422 37:1.540630 38:0.145223 39:-0.044140 40:-0.661298 41:-0.987915 42:2.191831 43:-0.437067 44:0.823897 45:1.232883 46:-1.347220 47:0.381803 48:-0.392329 49:0.280602 50:-2.563841 51:0.287120 52:0.363837 53:-0.071624 54:0.419021 55:-0.908912
-1 1:-1.383068 2:1.033373 3:0.767938 4:-0.272261 5:0.824734 6:0.962886 7:0.056424 8:0.945661 9:-0.365876 10:0.056283 11:-0.541246 12:-1.311971 13:-0.172011 14:0.167190 15:-0.114124 16:-0.470633 17:0.430303 18:-0.139449 19:-2.001928 20:0.261619 21:0.470649 22:1.506450 23:-0.137629 24:-1.390045 25:-1.747949 26:0.036351 27:0.495412 28:-0.307503 29:0.048390 30:-1.091346 31:-0.107475 32:-1.330216 33:-0.219166 34:0.242908 35:-0.613809 36:0.640135 37:-1.640749 38:0.104696 39:-1.089668 40:0.836441 41:-0.574513 42:0.580750 43:0.636970 44:0.950059 45:0.997876 46:0.688541 47:-0.079926 48:1.377409 49:1.379095 50:-0.575234 51:-1.499257 52:-0.441832 53:-1.057938 54:0.347722 55:0.071275
-1 1:-0.120449 2:1.232760 3:-0.181263 4:-0.870469 5:-0.428657 6:0.773225 7:-0.543327 8:-1.554236 9:0.079794 10:0.552049 11:0.449434 12:-0.065146 13:-1.136862 14:-0.938964 15:-1.068847 16:0.451568 17:0.049234 18:0.620789 19:1.082022 20:-0.421371 21:1.408047 22:-0.234986 23:-1.051334 24:0.430750 25:1.071678 26:0.655297 27:0.783494 28:1.409530 29:-2.342398 30:-1.405558 31:-0.043274 32:0.483738 33:1.296945 34:-0.299386 35:-0.225101 36:-0.171180 37:-0.043932 38:-0.126562 39:0.528903 40:0.168513 41:-1.871798 42:-0.163951 43:0.580625 44:-0.067496 45:2.656915 46:0.523624 47:0.247385 48:0.847901 49:-0.490184 50:-0.961442 51:-0.760048 52:-0.343517 53:0.271326 54:1.808167 55:0.144040
-1 1:-0.450935 2:0.524777 3:-1.463654 4:0.111958 5:0.793315 6:0.292539 7:-0.212510 8:1.685067 9:-0.485854 10:-0.926119 11:-0.120931 12:-0.326373 13:0.605494 14:1.390477 15:-0.570618 16:-1.749561 17:0.350039 18:-1.489787 19:0.320782 20:-0.898717 21:1.118084 22:0.882525 23:0.017539 24:-1.556823 25:0.553571 26:-0.293883 27:0.217860 28:0.934721 29:0.759727 30:-0.000304 31:-1.774922 32:0.923459 33:-1.461945 34:-1.196595 35:-0.094762 36:-1.082348 37:0.287620 38:-0.500086 39:0.037054 40:1.011419 41:1.658461 42:1.922360 43:1.208873 44:-0.584632 45:0.929725 46:0.456298 47:1.154077 48:-1.288252 49:-1.111868 50:1.001695 51:-1.687888 52:-0.324118 53:-0.036671 54:1.477481 55:0.378490
-1 1:-0.706172 2:0.377315 3:-1.060604 4:1.147375 5:0.056405 6:-1.153637 7:-1.134471 8:2.043401 9:-0.502834 10:-0.159662 11:0.074720 12:0.505043 13:0.886452 14:-0.445020 15:1.047960 16:-0.528276 17:-2.187011 18:0.864842 19:-0.385395 20:0.328495 21:0.340548 22:0.113628 23:-1.678182 24:-1.742103 25:-0.161350 26:0.231228 27:1.617481 28:-0.166053 29:-1.517535 30:-0.231316 31:0.409711 32:0.721443 33:-0.047185 34:0.467412 35:0.356260 36:-0.836199 37:0.362537 38:1.047662 39:-0.681996 40:-0.205359 41:-0.368730 42:0.468960 43:0.841564 44:-1.213673 45:-2.760782 46:-0.668400 47:1.283455 48:-1.407632 49:-0.124291 50:1.396552 51:1.659218 52:2.397792 53:-1.285998 54:-0.154312 55:0.197498
-1 1:0.207106 2:0.780814 3:-0.471935 4:-0.681698 5:-0.491648 6:-0.949072 7:0.807434 8:0.293395 9:0.762922 10:1.312527 11:1.171655 12:1.609939 13:1.538655 14:-0.582958 15:-0.223271 16:0.878511 17:0.902143 18:1.949956 19:-0.273925 20:0.377232 21:-0.608289 22:-1.215648 23:0.068168 24:0.401714 25:-1.967746 26:-1.863968 27:-1.103659 28:-0.281228 29:0.282975 30:-0.782101 31:0.012026 32:0.701950 33:0.773914 34:-2.282068 35:0.930385 36:-0.655859 37:-0.057679 38:-1.733251 39:-0.693093 40:-0.207221 41:-1.743496 42:-0.484106 43:-0.108949 44:1.321150 45:0.325794 46:0.044717 47:0.130092 48:0.579182 49:1.746321 50:0.924855 51:-0.266425 52:0.639004 53:0.258818 54:-1.598579 55:-0.349224
-1 1:0.151585 2:-0.824859 3:-1.289924 4:-1.217282 5:0.377972 6:-0.223597 7:0.810632 8:-0.454860 9:-0.324761 10:-1.509620 11:-1.368325 12:-0.938626 13:0.178552 14:-0.338377 15:0.178237 16:-1.331730 17:1.090940 18:-0.252475 19:-1.624741 20:-1.826691 21:-1.734735 22:-0.070815 23:0.439245 24:0.156231 25:-0.793931 26:-0.500572 27:-1.702287 28:2.211707 29:-2.406668 30:-0.021116 31:-0.005100 32:-0.804365 33:1.302113 34:-0.058405 35:2.331303 36:-0.608774 37:0.248651 38:0.962196 39:-0.086801 40:1.328277 41:0.918574 42:-1.678602 43:-1.486941 44:-0.345208 45:0.315933 46:0.602746 47:1.292778 48:-0.061252 49:0.354150 50:-0.797012 51:0.468308 52:-0.349720 53:1.345832 54:1.615692 55:-0.525100
-1 1:-0.652018 2:0.848163 3:0.297975 4:0.510621 5:-2.209093 6:0.146428 7:0.891923 8:3.029068 9:2.262419 10:-1.393981 11:2.367123 12:-0.004557 13:1.481926 14:-0.242881 15:0.092689 16:-0.614775 17:0.564825 18:0.533874 19:0.975663 20:-0.693900 21:0.568746 22:-0.167799 23:1.679301 24:-1.430013 25:-0.243050 26:-0.124850 27:-0.921847 28:-0.176310 29:0.418764 30:-0.548530 31:1.364176 32:-1.043582 33:0.880639 34:2.913641 35:0.567029 36:-0.648847 37:-2.896380 38:-0.267796 39:0.813764 40:0.750110 41:-0.318270 42:-0.053957 43:0.157301 44:0.806973 45:0.497243 46:0.566760 47:-0.579911 48:0.048832 49:0.089783 50:1.712376 51:-0.549406 52:-0.346439 53:0.421583 54:0.239822 55:0.180899
-1 1:-0.898061 2:-1.400479 3:-0.551386 4:-0.834862 5:0.045201 6:1.375498 7:0.882657 8:0.145970 9:-0.522407 10:-1.286799 11:-0.392688 12:-1.336164 13:0.921780 14:-1.017975 15:0.445457 16:-1.499042 17:0.349866 18:-1.008750 19:0.518852 20:-2.127267 21:1.973572 22:-0.846155 23:-0.453333 24:-1.014973 25:-0.212792 26:-1.562228 27:-0.286161 28:-0.224312 29:-1.309462 30:1.770318 31:-0.488598 32:-0.611054 33:-0.674721 34:0.845157 35:-0.266727 36:-0.847168 37:-0.037501 38:0.732713 39:0.849149 40:-1.357525 41:0.670841 42:-0.948316 43:1.613277 44:-0.703449 45:0.238675 46:-0.016764 47:1.798151 48:0.625078 49:0.505339 50:0.442040 51:1.313603 52:-1.903020 53:-1.092351 54:0.427416 55:-1.880224
-1 1:0.496093 2:0.699868 3:-0.140183 4:0.338551 5:0.480176 6:1.616101 7:0.893675 8:-0.598154 9:-0.009122 10:0.842542 11:0.902952 12:0.357576 13:1.448309 14:0.400037 15:1.329467 16:0.564881 17:-0.117999 18:0.919211 19:0.433283 20:-0.964216 21:1.002989 22:0.500270 23:1.150543 24:-0.899570 25:-0.037499 26:0.436653 27:2.472155 28:0.216741 29:-0.078440 30:-2.082780 31:-0.359889 32:-0.693067 33:1.281035 34:-0.318760 35:-0.743598 36:0.231193 37:0.230122 38:0.657908 39:0.712796 40:1.199810 41:-0.093692 42:0.238793 43:0.834802 44:0.119757 45:-0.257817 46:0.924285 47:0.738241 48:-1.068203 49:-1.345912 50:0.363402 51:-1.260471 52:-0.815467 53:-0.305196 54:-0.292171 55:1.315842
-1 1:-1.712442 2:2.188232 3:-0.631720 4:-0.631169 5:0.974572 6:0.597388 7:-0.378132 8:-0.875470 9:0.284940 10:0.079538 11:-1.199773 12:0.867577 13:-0.502812 14:0.399239 15:0.599588 16:-0.319533 17:0.089850 18:-1.195435 19:0.832288 20:-0.306664 21:-1.204296 22:0.381059 23:0.110601 24:-1.347820 25:0.148649 26:-0.805113 27:-1.171563 28:0.152143 29:-1.073148 30:0.688770 31:0.216978 32:1.079673 33:-0.572172 34:-0.421176 35:-1.030838 36:-1.749985 37:1.953876 38:-1.181023 39:-0.243032 40:0.183960 41:-0.615209 42:-0.260123 43:0.501661 44:0.715753 45:2.506011 46:-0.177862 47:1.244786 48:-0.635379 49:-1.208038 50:0.374866 51:-0.093394 52:0.015435 53:-1.948277 54:1.383901 55:0.708637
-1 1:-1.022341 2:1.043703 3:-1.215339 4:-1.620632 5:1.986182 6:-0.484298 7:0.672383 8:0.405101 9:-0.555429 10:-0.140972 11:0.208805 12:-0.455841 13:-0.271330 14:1.776708 15:0.979721 16:0.183774 17:0.327378 18:-1.135315 19:-0.557679 20:0.981674 21:0.405402 22:0.525284 23:0.043763 24:1.046967 25:0.451677 26:-0.945772 27:0.719822 28:-0.999739 29:-0.119257 30:-0.386230 31:0.242709 32:-0.194178 33:0.163901 34:-1.196975 35:-2.150788 36:0.538186 37:0.568311 38:-0.648316 39:-0.330166 40:0.613581 41:-1.684160 42:-0.281084 43:1.332374 44:-1.012400 45:0.002615 46:-1.569393 47:1.178313 48:0.303907 49:2.454070 50:-0.825363 51:-0.748750 52:0.023648 53:0.625076 54:1.826879 55:-0.379181
-1 1:-0.397069 2:0.934983 3:1.391602 4:1.123994 5:0.737640 6:1.048306 7:-0.269332 8:-1.708261 9:-0.693665 10:0.410997 11:0.575327 12:1.742972 13:1.041620 14:-2.586025 15:0.197312 16:-1.473086 17:0.973055 18:0.098475 19:1.546521 20:-0.251648 21:-0.115507 22:0.769286 23:0.316151 24:0.778396 25:1.278958 26:-1.920092 27:-0.271779 28:0.036327 29:-0.480145 30:0.140894 31:0.294552 32:-1.027707 33:-1.077157 34:0.945742 35:1.079925 36:0.623232 37:-1.843884 38:2.454286 39:-1.899436 40:0.499234 41:-1.509720 42:-0.272271 43:-0.218170 44:-1.166281 45:-1.537740 46:1.671298 47:0.489788 48:-0.150916 49:0.932561 50:1.892153 51:0.217907 52:-1.532558 53:-0.765054 54:0.437298 55:1.008183
-1 1:0.900031 2:-0.994147 3:-1.773622 4:0.206302 5:-1.776261 6:-0.072356 7:-0.356410 8:0.834618 9:2.039105 10:0.756542 11:-0.292413 12:-0.279580 13:0.119382 14:-1.329025 15:-0.876557 16:-1.554887 17:-0.871728 18:-1.086764 19:-1.039329 20:-1.699387 21:-0.838857 22:0.341135 23:-0.951799 24:1.010669 25:-0.047443 26:-0.053214 27:-0.696037 28:-0.253859 29:-1.020258 30:0.165742 31:0.141943 32:-0.257291 33:0.262861 34:-0.697600 35:-0.433009 36:-0.087921 37:-2.059383 38:0.444678 39:-0.222596 40:0.352187 41:-0.811242 42:-0.127657 43:-1.419467 44:0.390966 45:0.749117 46:-0.543905 47:-0.469877 48:1.056525 49:-0.365816 50:1.590373 51:-0.698452 52:0.315624 53:0.947610 54:1.159434 55:0.039431
-1 1:0.821110 2:-0.923941 3:-0.669197 4:1.369148 5:0.432437 6:0.087422 7:-1.497021 8:-0.008869 9:-0.320454 10:0.123751 11:-2.004264 12:-0.585761 13:-0.916766 14:0.593064 15:0.418275 16:-0.168111 17:0.867329 18:-0.375782 19:-1.869096 20:1.166156 21:-0.347006 22:-1.113993 23:1.550831 24:0.482496 25:-1.296082 26:-1.238613 27:-1.765403 28:-1.228771 29:0.530716 30:-1.160958 31:0.405366 32:0.009936 33:-1.216783 34:-0.487555 35:-0.645955 36:-0.095461 37:-0.126063 38:1.296482 39:-1.328620 40:0.048569 41:1.199262 42:-0.445272 43:0.876354 44:1.138689 45:-1.576306 46:-0.590436 47:-0.097571 48:0.334569 49:0.089105 50:1.530314 51:0.317155 52:-1.102432 53:-2.116713 54:0.649663 55:-0.449957
-1 1:-0.179146 2:-0.677675 3:-2.301984 4:0.102544 5:0.731933 6:0.399345 7:-0.002587 8:0.616592 9:-0.494828 10:1.606497 11:-0.084783 12:1.210767 13:0.888987 14:1.946001 15:0.451170 16:0.113200 17:-1.243075 18:0.275474 19:-0.421613 20:0.767615 21:-1.626429 22:0.281419 23:-0.401058 24:-0.272184 25:-0.022626 26:-0.027207 27:1.396393 28:0.744001 29:0.972751 30:0.950823 31:0.011509 32:-0.078138 33:-0.681275 34:-0.369035 35:0.122685 36:-0.951529 37:-0.594434 38:-0.870119 39:0.351571 40:-1.154197 41:1.110057 42:0.464843 43:0.214139 44:-0.278454 45:-0.612833 46:0.309876 47:-0.304223 48:-1.163909 49:0.064845 50:-1.760387 51:0.509198 52:1.179155 53:0.395100 54:-0.848564 55:1.079548
-1 1:0.571363 2:0.308100 3:0.469247 4:0.152297 5:0.297579 6:0.429826 7:0.684953 8:-0.851301 9:-1.189294 10:0.133199 11:-0.852158 12:2.548778 13:0.741709 14:-0.560854 15:-0.243866 16:0.158300 17:-1.229786 18:0.774028 19:-1.799505 20:-0.162285 21:1.562061 22:-0.680701 23:0.296870 24:0.076826 25:0.058756 26:-0.674427 27:0.283717 28:-0.867325 29:0.579069 30:0.531145 31:1.615697 32:1.191392 33:-1.695807 34:-0.362580 35:0.102950 36:0.410649 37:0.358225 38:-2.081453 39:-0.751678 40:0.246226 41:0.347106 42:0.184579 43:-0.080923 44:0.472935 45:-0.468536 46:1.524453 47:-0.148094 48:-0.723931 49:-0.940607 50:-0.220481 51:0.352611 52:1.691838 53:-2.449897 54:-0.196237 55:1.541565
-1 1:-0.563534 2:-0.080869 3:-0.355785 4:2.011582 5:-0.342682 6:0.699957 7:-0.062932 8:1.658563 9:-0.433230 10:-0.413813 11:0.516050 12:0.214986 13:0.296915 14:1.749174 15:-0.510223 16:-1.593944 17:0.435287 18:0.363060 19:1.473701 20:-0.242926 21:0.110099 22:0.930053 23:-0.899276 24:0.798252 25:0.829810 26:-0.597612 27:0.437720 28:0.037151 29:0.539732 30:-1.389384 31:-2.209821 32:0.811264 33:0.583962 34:0.733243 35:0.597201 36:-1.553735 37:-0.946085 38:1.158628 39:0.194535 40:-1.794991 41:0.151734 42:2.211808 43:-1.363891 44:0.841166 45:-1.477813 46:1.343259 47:1.080696 48:-0.580936 49:0.836449 50:-0.630656 51:-0.512575 52:0.269399 53:-0.908814 54:1.350481 55:-1.514116
-1 1:1.207742 2:-0.399624 3:1.281211 4:-1.740801 5:-0.043118 6:0.311062 7:0.415391 8:1.467200 9:-0.077790 10:3.061918 11:-0.664873 12:-1.526831 13:0.561406 14:0.533190 15:0.562034 16:-2.526249 17:-0.915368 18:-0.190490 19:0.186019 20:1.092069 21:0.388279 22:-1.017702 23:0.477306 24:1.088785 25:0.605483 26:0.596508 27:-0.602003 28:0.844350 29:0.176452 30:-2.166646 31:0.211518 32:-1.761795 33:2.441166 34:-1.255472 35:0.690038 36:0.356033 37:0.532937 38:-0.080542 39:-1.144339 40:0.859756 41:0.467739 42:0.450081 43:-1.975755 44:0.770788 45:0.090648 46:-1.724316 47:0.352476 48:-0.710568 49:0.906344 50:0.565332 51:-2.580288 52:1.613365 53:2.331824 54:-0.860108 55:-0.520028
-1 1:1.174464 2:-0.731667 3:0.877522 4:-0.725568 5:-1.313038 6:-1.082662 7:0.356129 8:1.533938 9:1.219807 10:0.093711 11:1.173857 12:0.036444 13:-0.488683 14:-0.170487 15:-0.101344 16:-0.564177 17:0.790337 18:-0.116740 19:-1.246735 20:2.465979 21:0.707262 22:0.294015 23:-0.517779 24:0.466189 25:-0.479920 26:0.116657 27:-0.989238 28:-0.124648 29:-0.978292 30:-0.550721 31:0.200618 32:-2.031980 33:0.455432 34:-0.559302 35:0.052613 36:0.161833 37:0.244027 38:0.228859 39:1.186100 40:-0.296489 41:0.006704 42:0.442156 43:-0.645062 44:-2.024016 45:-1.617332 46:0.588092 47:0.812537 48:0.013326 49:1.007802 50:-0.786698 51:0.390061 52:1.136428 53:2.428874 54:0.352574 55:-0.406454
-1 1:-0.036488 2:-0.723413 3:-1.076046 4:-0.703894 5:-2.018719 6:0.368387 7:1.967182 8:0.634070 9:-2.230978 10:1.457076 11:0.620959 12:1.191297 13:-1.309926 14:-0.444585 15:-0.611591 16:-1.252754 17:-0.651741 18:0.365102 19:0.726419 20:-1.067254 21:-1.344587 22:0.867275 23:-1.056516 24:-1.348847 25:0.721744 26:0.172791 27:-0.137182 28:0.296383 29:-0.074488 30:-0.526899 31:0.492018 32:0.450471 33:-1.173450 34:0.610182 35:-0.586052 36:0.299613 37:2.931421 38:1.667140 39:0.424348 40:-0.449654 41:0.305254 42:-0.439894 43:-0.356730 44:-0.071977 45:-0.684915 46:0.236375 47:1.440686 48:-1.370378 49:0.487624 50:-0.767626 51:-0.438891 52:0.396467 53:0.621043 54:-2.478615 55:1.517894
-1 1:1.431814 2:-1.609088 3:0.120363 4:-0.354842 5:0.432972 6:0.079521 7:-0.229450 8:1.301146 9:0.729089 10:-0.514485 11:1.714229 12:0.115305 13:-1.070444 14:0.748248 15:0.192764 16:-0.027692 17:0.247096 18:-1.499177 19:0.591942 20:0.227194 21:1.070410 22:0.774485 23:-0.827110 24:1.399580 25:-1.138834 26:-1.235839 27:-1.047654 28:0.615276 29:0.705080 30:0.622229 31:-0.748182 32:0.563752 33:0.836027 34:0.016602 35:0.589658 36:0.688728 37:1.210892 38:0.219704 39:-2.837456 40:1.205469 41:0.695447 42:0.386300 43:-0.375931 44:-1.694880 45:0.758046 46:0.017711 47:-0.778888 48:0.303040 49:-0.928887 50:0.809143 51:0.329699 52:-1.306185 53:-0.538291 54:-1.297426 55:0.366469
-1 1:-1.780556 2:-0.562571 3:0.407889 4:0.284452 5:0.058174 6:-0.063104 7:-0.929463 8:0.195587 9:1.010604 10:-0.685117 11:0.303412 12:-0.583599 13:-0.126740 14:-1.177956 15:-0.422988 16:-0.047146 17:-1.235679 18:1.830742 19:1.644505 20:-0.061819 21:0.779457 22:0.259392 23:0.074842 24:0.268082 25:1.394178 26:0.493124 27:1.757686 28:2.061340 29:1.156336 30:1.079057 31:-1.457141 32:-0.395363 33:1.393103 34:-0.013115 35:0.577951 36:0.930188 37:-1.691276 38:0.443789 39:-0.438306 40:0.080794 41:-0.302502 42:-1.146311 43:1.220819 44:1.157658 45:2.411889 46:0.805708 47:0.310200 48:-0.639961 49:1.019801 50:-1.286708 51:1.245873 52:0.310080 53:0.611871 54:-0.661722 55:-1.453544
-1 1:-0.230224 2:0.188706 3:0.745771 4:1.233682 5:1.087452 6:-0.118017 7:0.134978 8:-0.127056 9:0.997355 10:-1.526660 11:-0.091676 12:0.579762 13:0.626574 14:-0.083778 15:0.142802 16:1.698044 17:-0.677914 18:-1.005007 19:-0.733411 20:0.527768 21:1.539905 22:1.703137 23:0.275934 24:1.279384 25:0.134475 26:-0.699872 27:0.844776 28:-0.610830 29:-0.791209 30:-1.064373 31:1.620713 32:-0.355372 33:-1.495722 34:-0.125997 35:-0.030236 36:-2.243204 37:1.228259 38:0.417374 39:0.803108 40:1.631611 41:-0.894380 42:0.445490 43:-0.349737 44:-0.112881 45:0.594810 46:-1.000435 47:0.771366 48:-0.356212 49:-0.776670 50:-0.115429 51:1.231451 52:-2.553546 53:-1.319992 54:-1.834068 55:1.341566
-1 1:0.990319 2:1.476929 3:0.672532 4:0.373737 5:0.975758 6:-0.117129 7:-0.423615 8:-0.476572 9:-2.416625 10:-1.056811 11:-1.112823 12:0.771594 13:0.269018 14:0.658639 15:-0.217156 16:-1.611160 17:0.619761 18:-0.205219 19:-1.297215 20:0.046579 21:-0.767923 22:0.593754 23:-0.431560 24:1.591088 25:0.073304 26:0.275353 27:-1.447616 28:0.427909 29:-0.591028 30:-1.877244 31:1.894137 32:0.115374 33:0.916628 34:-0.213922 35:0.935124 36:0.269800 37:-1.205186 38:-0.299262 39:-0.367169 40:-1.288228 41:1.767491 42:-2.211134 43:-0.222726 44:-1.086735 45:-0.667581 46:0.637216 47:0.120264 48:0.675455 49:-0.815173 50:1.332535 51:1.529966 52:-0.906670 53:0.169439 54:-1.132556 55:1.411728
-1 1:0.545447 2:-1.341970 3:0.263737 4:0.237799 5:-0.157112 6:0.438777 7:0.583293 8:2.235862 9:-1.269473 10:1.823336 11:-1.086733 12:-0.543703 13:0.339650 14:-1.820447 15:-0.229730 16:-1.292627 17:0.836241 18:0.507116 19:-0.828708 20:-1.355866 21:1.438145 22:-0.620115 23:-0.707074 24:-0.437165 25:1.629223 26:0.527654 27:-0.983091 28:-0.594386 29:-1.040315 30:1.127221 31:-0.075805 32:-0.503454 33:-0.409044 34:1.697004 35:0.107132 36:-0.458974 37:-1.468623 38:-0.603975 39:0.577527 40:1.026704 41:0.637581 42:0.662918 43:-0.772276 44:0.383099 45:1.597488 46:0.595210 47:1.225243 48:1.313170 49:-0.486206 50:-1.333208 51:-0.275892 52:0.798977 53:0.115656 54:0.712164 55:0.411895
-1 1:1.428781 2:-0.612187 3:0.741822 4:-0.724873 5:1.618600 6:-0.311082 7:-0.273474 8:-0.542240 9:-1.207343 10:0.044282 11:0.588945 12:0.782985 13:0.982482 14:-1.903257 15:0.570358 16:-1.367147 17:0.081970 18:0.995313 19:0.926119 20:0.573915 21:-0.294900 22:0.119180 23:0.482582 24:0.695885 25:-1.359660 26:0.882303 27:1.652533 28:0.410817 29:1.210280 30:-0.119916 31:0.173429 32:1.261652 33:1.465789 34:-0.570649 35:-1.253604 36:-0.577493 37:0.055579 38:-0.654186 39:1.214853 40:-0.051422 41:-1.617582 42:-1.192080 43:-0.104497 44:-0.456565 45:0.621674 46:0.909868 47:0.707054 48:-0.502947 49:-0.174196 50:-0.536481 51:0.746063 52:-0.408986 53:-0.779757 54:-1.414506 55:-0.173168
-1 1:0.478996 2:-2.015246 3:1.869588 4:1.460255 5:0.817011 6:-0.980730 7:-0.784708 8:-0.799991 9:-1.542729 10:-0.184698 11:-1.784446 12:-0.051328 13:1.149265 14:-0.316235 15:-2.657349 16:-1.563098 17:0.889403 18:-0.908485 19:1.001827 20:0.343858 21:-0.163718 22:-0.130239 23:0.433179 24:1.628139 25:0.284590 26:-0.744513 27:0.456957 28:-0.220600 29:-0.455599 30:0.724446 31:1.597079 32:-1.512341 33:-1.496040 34:1.603571 35:1.263874 36:1.009984 37:-0.015137 38:-2.018952 39:-0.086872 40:-1.718721 41:-1.358465 42:1.555355 43:0.249054 44:0.627239 45:-1.095831 46:-1.026766 47:1.532358 48:-0.509375 49:0.478448 50:0.232674 51:0.431559 52:2.809240 53:-0.981817 54:-1.620847 55:2.852958
-1 1:-0.881988 2:-0.689612 3:0.756644 4:0.408830 5:-0.085173 6:0.941445 7:1.052792 8:-1.185926 9:-0.179587 10:-0.458745 11:-0.469646 12:-0.278320 13:0.720401 14:0.801363 15:-0.159995 16:-1.539998 17:-1.218731 18:-0.367410 19:-0.915090 20:-1.082924 21:0.456407 22:-0.002645 23:-0.541764 24:-0.652485 25:-1.442692 26:-2.625036 27:-1.206085 28:-0.033629 29:-0.650402 30:-1.093320 31:-1.632091 32:2.155138 33:-0.393169 34:0.667750 35:0.172580 36:0.943901 37:0.100162 38:0.275944 39:0.140948 40:1.302667 41:1.174632 42:0.738803 43:-1.245628 44:-0.159449 45:0.583546 46:-0.526825 47:-0.440626 48:0.060376 49:-0.540497 50:-0.973140 51:-0.512553 52:0.262746 53:0.177273 54:-1.591738 55:0.006274
-1 1:0.670710 2:1.525221 3:1.636424 4:-0.371449 5:0.160726 6:-1.389202 7:0.545339 8:0.566013 9:-0.856069 10:-0.712244 11:-1.094389 12:2.149836 13:-1.068815 14:-1.015358 15:1.153327 16:1.079069 17:0.259739 18:1.754243 19:-0.204286 20:-0.581104 21:-1.419576 22:-0.967082 23:2.601651 24:0.000810 25:-0.412725 26:1.340178 27:-0.401911 28:-1.519689 29:-1.687295 30:0.903414 31:0.068138 32:-1.965104 33:-0.408687 34:0.447226 35:-0.219833 36:-0.585132 37:0.261821 38:1.705065 39:0.192242 40:-1.216298 41:1.069228 42:0.464931 43:1.053750 44:0.124407 45:0.381740 46:0.837186 47:0.124387 48:2.272096 49:-1.440483 50:1.262412 51:-0.430239 52:0.902256 53:-0.923359 54:-0.124650 55:-1.620984
-1 1:0.135283 2:0.470215 3:-0.801229 4:-0.619300 5:0.090135 6:-0.762919 7:-0.487749 8:0.287945 9:0.507901 10:-1.106716 11:0.200829 12:0.592674 13:-0.559931 14:0.911534 15:1.273788 16:0.009204 17:-0.996844 18:-1.237707 19:0.169379 20:1.963793 21:-0.269665 22:-1.332474 23:-1.671512 24:1.358074 25:-0.240877 26:0.984016 27:-1.645032 28:0.317513 29:0.030930 30:1.848641 31:0.737226 32:0.389899 33:0.129033 34:0.363792 35:-1.335261 36:0.258182 37:0.647867 38:1.612381 39:0.219071 40:0.692504 41:-0.467118 42:-0.532892 43:0.212138 44:0.852512 45:0.650499 46:-0.019107 47:-0.886699 48:-0.413433 49:0.950737 50:0.965894 51:-0.517330 52:0.723029 53:-0.232722 54:0.648900 55:-2.449677
-1 1:-0.258482 2:-1.239262 3:0.545585 4:-1.135893 5:0.216276 6:-0.383849 7:-1.273987 8:0.310894 9:-0.066618 10:-1.157939 11:-0.845142 12:0.307426 13:-0.559706 14:-2.678227 15:0.645656 16:-1.106337 17:0.185734 18:-0.594544 19:1.417824 20:-0.641957 21:-1.092224 22:-0.577899 23:-1.793739 24:0.087403 25:0.169977 26:-2.351233 27:-0.539959 28:1.314280 29:0.439604 30:-0.321884 31:-0.398964 32:-0.573190 33:1.760526 34:2.980462 35:0.239011 36:0.341068 37:-0.244251 38:-0.516683 39:-0.722985 40:-0.049220 41:-0.247717 42:-1.908036 43:0.884757 44:-0.743864 45:-1.655931 46:-0.654661 47:1.859228 48:-1.313363 49:-1.441552 50:1.499694 51:0.701766 52:0.369654 53:-0.182739 54:-1.192762 55:1.295721
-1 1:1.774373 2:-0.214008 3:-0.142805 4:1.405183 5:-1.225962 6:0.436126 7:0.339955 8:-0.477761 9:-0.101449 10:0.485502 11:0.446695 12:2.139385 13:0.224882 14:0.006275 15:-0.476884 16:-0.556086 17:-0.997082 18:-0.923196 19:0.364678 20:0.530207 21:0.715401 22:-0.088202 23:-1.011574 24:-2.604232 25:0.779762 26:-0.162687 27:0.622948 28:-1.322441 29:2.587868 30:-0.199470 31:-1.506551 32:0.610264 33:0.840142 34:0.542824 35:-0.566655 36:0.795319 37:1.182577 38:0.932624 39:-1.452449 40:0.822865 41:0.737495 42:-1.129719 43:1.107071 44:-0.004220 45:-0.481028 46:-1.252883 47:0.966586 48:0.726256 49:0.273942 50:1.085100 51:1.694052 52:1.050120 53:-1.748244 54:-1.356121 55:-1.791406
-1 1:0.111280 2:-1.402355 3:-0.904182 4:-1.264138 5:-1.000426 6:-0.769581 7:-0.210713 8:0.156246 9:2.527296 10:-0.274348 11:1.908891 12:1.217373 13:-0.363820 14:-0.966661 15:0.299912 16:-0.550232 17:1.771196 18:-0.301550 19:0.553029 20:2.344018 21:-0.473272 22:1.148589 23:1.444654 24:0.529649 25:-0.337203 26:-0.497872 27:0.409136 28:-0.336439 29:-1.900934 30:0.291274 31:0.525123 32:-2.549525 33:-0.778102 34:-0.355747 35:0.201202 36:-2.059161 37:-0.705523 38:-1.050940 39:-0.969147 40:1.021746 41:-0.072118 42:-0.175620 43:-0.148900 44:-0.678938 45:0.848009 46:-1.745463 47:-0.331964 48:0.326207 49:0.570198 50:-1.197078 51:-0.334169 52:-0.048199 53:0.247952 54:1.108678 55:-0.300044
-1 1:0.640137 2:-1.342528 3:1.181612 4:0.764390 5:-0.458179 6:-0.505246 7:1.539106 8:1.179262 9:-0.602033 10:0.204985 11:-0.043820 12:0.379593 13:0.876393 14:-0.189835 15:-1.452785 16:-0.044275 17:0.323433 18:0.634926 19:-0.279011 20:0.747360 21:-0.548972 22:-0.261864 23:1.269634 24:-0.373552 25:-0.350765 26:0.505003 27:-1.435746 28:-1.354131 29:-0.805542 30:-0.090860 31:0.604248 32:0.522971 33:-0.156528 34:0.834925 35:-0.819137 36:-0.619093 37:0.245771 38:0.526838 39:0.257668 40:0.550446 41:2.232366 42:0.189943 43:-0.827027 44:-1.699348 45:0.458354 46:0.736648 47:-0.324031 48:0.869269 49:-1.108569 50:-0.106941 51:-0.590512 52:-1.120745 53:-0.888992 54:-0.093958 55:0.112856
-1 1:-0.219210 2:0.311836 3:0.317091 4:-1.225856 5:-1.516653 6:0.049156 7:1.371325 8:1.105973 9:-0.247763 10:0.407662 11:0.086607 12:0.704442 13:0.203115 14:0.450356 15:-1.539355 16:1.061470 17:-0.112300 18:-1.104794 19:1.516843 20:1.998954 21:-0.457588 22:-0.951767 23:0.048417 24:0.639270 25:0.379516 26:0.293802 27:-0.712239 28:0.101499 29:0.846271 30:-1.076083 31:1.332977 32:0.074405 33:-0.111833 34:-0.409952 35:0.866770 36:-0.521852 37:-1.547027 38:0.913508 39:0.978681 40:-1.093981 41:-0.405488 42:0.326740 43:-0.617416 44:-0.373818 45:-0.364333 46:0.748973 47:0.910136 48:0.415868 49:-1.647288 50:-1.365971 51:-0.753329 52:-1.770671 53:0.489408 54:0.495937 55:0.208274
-1 1:-1.641529 2:1.476068 3:-0.044050 4:-2.872810 5:0.039105 6:0.918319 7:0.077414 8:0.963433 9:0.852401 10:0.663535 11:-0.042846 12:-1.307660 13:0.110941 14:-0.619616 15:0.057340 16:-0.575407 17:0.046218 18:0.048682 19:0.277273 20:0.357183 21:-1.037263 22:1.539932 23:-0.378395 24:1.607964 25:-0.125382 26:0.747531 27:1.040353 28:-0.461160 29:-1.566035 30:1.760027 31:-0.200082 32:1.530135 33:-0.464696 34:-0.432455 35:-0.143184 36:1.745347 37:0.248098 38:0.463720 39:0.234310 40:-0.473095 41:0.826387 42:0.292182 43:-1.211755 44:0.820768 45:-1.547333 46:-0.308064 47:-1.217082 48:1.734458 49:-0.031136 50:-0.916545 51:-0.221341 52:-0.425018 53:1.219658 54:1.747954 55:0.140530
-1 1:0.491607 2:0.726070 3:2.661463 4:0.235712 5:-0.491842 6:-0.182233 7:0.629525 8:0.556719 9:0.720216 10:-1.220759 11:0.451739 12:-0.900533 13:0.530491 14:-0.900722 15:1.690441 16:-1.580478 17:-2.235221 18:0.506386 19:1.922753 20:0.516310 21:1.977362 22:0.406580 23:-0.027234 24:-0.746234 25:-1.673313 26:-0.630117 27:-0.343518 28:-1.061525 29:0.670638 30:1.067408 31:0.350992 32:-0.222303 33:-1.328860 34:1.996879 35:-0.397332 36:0.397276 37:-0.665294 38:-0.342477 39:0.936888 40:-1.691873 41:1.439576 42:-1.362457 43:-0.474097 44:0.985044 45:0.225153 46:0.801725 47:-0.281921 48:2.985079 49:1.352537 50:0.726693 51:-0.416667 52:0.399131 53:1.508181 54:0.599572 55:1.523631
-1 1:-0.540959 2:-1.097284 3:-0.404514 4:-0.234116 5:0.408113 6:-1.079876 7:0.306994 8:-0.904713 9:1.635249 10:-0.054818 11:-0.224153 12:-0.348126 13:1.174716 14:0.216279 15:0.497601 16:-0.472165 17:-0.560451 18:0.663150 19:-1.005029 20:-0.273234 21:0.378075 22:-1.011692 23:0.980267 24:1.586548 25:-0.341811 26:0.156903 27:1.424839 28:0.205770 29:-0.035428 30:1.839776 31:-0.046600 32:0.779238 33:0.798930 34:1.381154 35:-0.860475 36:0.505070 37:-0.803519 38:1.444592 39:0.121190 40:1.832039 41:-0.708276 42:-1.158159 43:0.549388 44:-0.802426 45:0.597251 46:-1.204118 47:1.257668 48:-0.985921 49:-1.533536 50:-0.062097 51:0.853915 52:0.568306 53:-0.059810 54:-0.613722 55:1.409595
-1 1:-0.092703 2:-1.644465 3:0.361685 4:-0.583034 5:0.135327 6:0.100173 7:-0.109800 8:-1.224088 9:0.950265 10:-1.802263 11:-0.768039 12:0.843668 13:-0.288765 14:0.240636 15:-0.222791 16:0.559566 17:2.234435 18:-0.142659 19:1.194273 20:2.049885 21:0.226015 22:0.454477 23:-0.783693 24:-0.073183 25:2.199959 26:-0.697475 27:1.162911 28:-0.578088 29:-0.204782 30:-1.663061 31:0.208752 32:0.459352 33:1.561866 34:0.962500 35:0.626620 36:-0.229458 37:0.154049 38:-1.297354 39:1.275944 40:-1.133606 41:-1.225140 42:1.351771 43:-1.003730 44:-0.986652 45:-0.189917 46:0.137376 47:-0.288676 48:0.321163 49:-0.524630 50:-0.701584 51:1.555689 52:-1.023677 53:0.458433 54:-1.176843 55:0.553416
-1 1:-0.324644 2:1.522207 3:-0.027486 4:0.402332 5:1.852331 6:0.267038 7:0.675342 8:-0.927395 9:-0.272874 10:2.295167 11:0.021484 12:-0.903523 13:-0.428227 14:-0.792283 15:-0.255151 16:-0.728976 17:0.154845 18:0.925541 19:-0.394866 20:-1.167153 21:0.155908 22:0.673946 23:0.306265 24:0.917791 25:-0.132225 26:1.050585 27:1.438945 28:0.954030 29:-0.763987 30:0.803633 31:-0.977171 32:1.308529 33:-0.317714 34:-0.806769 35:-0.902059 36:1.445188 37:-0.035638 38:-0.222635 39:-0.937672 40:-1.217259 41:2.215224 42:0.426481 43:-0.490809 44:-1.056523 45:0.318361 46:-1.215452 47:2.017305 48:-1.434164 49:-0.747761 50:1.781012 51:0.982688 52:1.596576 53:0.012479 54:-0.137647 55:0.596672
-1 1:-0.508793 2:-0.730059 3:0.782789 4:0.442620 5:1.771666 6:0.126538 7:0.678430 8:0.420029 9:-0.397858 10:-0.080162 11:0.668492 12:-0.634817 13:1.222183 14:0.323956 15:1.097806 16:-0.686429 17:0.765550 18:-0.017714 19:-0.283689 20:-0.310869 21:0.046290 22:-1.099032 23:1.786527 24:0.951219 25:-1.287107 26:-0.462898 27:1.280238 28:1.483404 29:-0.536926 30:-0.704459 31:-1.278745 32:0.524404 33:0.662631 34:-0.870984 35:0.330376 36:0.224727 37:0.088509 38:0.557264 39:0.269410 40:0.976124 41:-0.445273 42:0.439560 43:0.372815 44:1.430701 45:-0.283225 46:2.821711 47:0.990007 48:-1.583780 49:1.096059 50:-0.885248 51:-0.004803 52:-1.364607 53:2.052347 54:-0.320323 55:-0.145072
-1 1:-0.832468 2:-1.123572 3:-0.691446 4:1.654871 5:-0.206891 6:0.245306 7:0.898973 8:0.473419 9:0.050885 10:0.426368 11:1.889905 12:-0.539090 13:-0.975001 14:-0.021314 15:0.494273 16:1.490630 17:-0.354129 18:-0.877856 19:-1.891404 20:-0.158252 21:0.525700 22:-0.453791 23:-0.051942 24:1.065127 25:-0.699637 26:0.074025 27:0.732785 28:0.235210 29:1.362765 30:-0.442391 31:-0.742717 32:-1.566903 33:2.053528 34:-1.727660 35:-0.040752 36:-0.485813 37:-1.536349 38:-1.296690 39:0.762077 40:0.072119 41:-0.596126 42:0.465805 43:0.124498 44:-0.044394 45:-0.682731 46:-0.388211 47:0.680871 48:-0.126538 49:-0.289549 50:-0.741882 51:-0.867617 52:1.366761 53:2.095413 54:-2.927780 55:-0.293248
-1 1:-0.193362 2:0.147719 3:-0.721087 4:0.895993 5:-0.616838 6:-1.126657 7:-0.518721 8:0.783501 9:0.108094 10:0.439593 11:-0.767973 12:-0.036618 13:-0.102393 14:-0.092986 15:-1.097918 16:0.982161 17:-0.257659 18:-1.066246 19:-0.804867 20:-0.717586 21:-0.444639 22:0.511883 23:0.023683 24:0.173085 25:-0.133456 26:1.037426 27:-0.338957 28:-0.561551 29:1.294901 30:-0.708919 31:-0.679015 32:1.301482 33:-0.109733 34:-0.926784 35:-0.713149 36:-0.437784 37:0.887105 38:-0.331794 39:-0.722151 40:0.085199 41:1.148666 42:1.329498 43:-0.524710 44:-0.928678 45:0.535392 46:-0.120284 47:-0.468569 48:0.524479 49:0.581547 50:0.475296 51:-0.733143 52:-2.178565 53:-1.374393 54:1.630861 55:1.272090
-1 1:-2.932569 2:-0.696238 3:-0.512265 4:-0.099984 5:-0.222795 6:0.748618 7:0.901106 8:-1.023826 9:-0.119904 10:2.330766 11:-0.701994 12:-0.466671 13:-0.728824 14:0.413962 15:-1.022838 16:-1.916714 17:-0.210010 18:0.893574 19:0.552746 20:0.625757 21:0.579402 22:-0.233808 23:0.634360 24:0.088484 25:-1.138136 26:0.923338 27:-0.766285 28:0.549947 29:0.286734 30:1.971182 31:0.583976 32:0.909658 33:-0.546376 34:0.742164 35:0.168792 36:1.261504 37:-0.419433 38:1.512453 39:-0.165707 40:0.300887 41:0.671326 42:-0.868425 43:-0.455022 44:0.799195 45:-0.617574 46:1.772602 47:-0.153371 48:0.591856 49:2.035463 50:1.849321 51:-0.062833 52:1.915709 53:-0.833400 54:1.979941 55:-0.281970
-1 1:0.813155 2:-0.264625 3:-1.521982 4:1.651218 5:-0.161390 6:1.248938 7:-0.343763 8:-0.499672 9:0.303250 10:1.820857 11:-0.644455 12:2.211079 13:-0.948609 14:-0.531041 15:-0.734893 16:-0.248036 17:0.158745 18:1.958597 19:-0.051311 20:0.723992 21:-1.425132 22:-0.254225 23:0.158781 24:-0.614921 25:0.332810 26:-1.822765 27:-1.316548 28:-0.189756 29:-0.262388 30:-0.160784 31:1.411619 32:0.295373 33:-0.492579 34:-0.890410 35:0.754387 36:-0.063343 37:-0.430123 38:0.797173 39:-1.145413 40:0.493022 41:-0.660219 42:-0.064071 43:0.271092 44:1.337691 45:0.149708 46:-2.027859 47:-1.161555 48:-0.728471 49:-0.385735 50:0.227765 51:0.457690 52:0.460322 53:-0.750122 54:-0.424319 55:1.108742
-1 1:0.666261 2:-1.336958 3:0.910240 4:-0.067172 5:-0.863453 6:-0.426786 7:-0.102864 8:1.530162 9:0.420110 10:-1.819707 11:-1.331677 12:0.051169 13:-0.892963 14:-0.417172 15:-0.511040 16:-0.564083 17:-0.553149 18:-0.041567 19:0.758255 20:-0.968541 21:-1.384424 22:-1.055721 23:0.518632 24:-0.354249 25:0.027234 26:-0.026242 27:-2.833622 28:-0.011832 29:0.446060 30:0.422531 31:-2.146965 32:1.196834 33:-0.237015 34:-1.579255 35:0.462673 36:0.689731 37:0.396802 38:0.260084 39:0.328885 40:0.226543 41:-1.459847 42:-0.921168 43:-1.398899 44:0.008679 45:0.575691 46:-0.030647 47:-1.017080 48:0.139023 49:1.148006 50:0.385985 51:-1.040645 52:-1.411680 53:0.225282 54:0.084920 55:-1.147057
-1 1:0.076785 2:1.215641 3:-0.625981 4:0.671040 5:-0.694695 6:0.641813 7:0.391724 8:-0.642321 9:-0.148707 10:-0.620172 11:-0.918062 12:0.289914 13:0.623907 14:0.098696 15:-0.003612 16:-0.202573 17:-1.711611 18:1.282824 19:0.001449 20:1.305138 21:-0.066527 22:0.949039 23:0.644844 24:0.428130 25:-0.741114 26:0.356557 27:0.205489 28:-0.475620 29:-1.517152 30:-1.305724 31:1.358247 32:0.046578 33:0.065157 34:-1.043957 35:-0.363352 36:1.577910 37:1.549172 38:-0.348376 39:-0.639834 40:0.223962 41:-0.965692 42:2.049928 43:-0.951029 44:-0.578892 45:0.830959 46:-0.933045 47:0.827689 48:1.139908 49:1.058945 50:-0.056578 51:-0.489315 52:-0.953286 53:1.162002 54:-0.859809 55:1.365894
-1 1:0.585488 2:-0.896503 3:-0.253064 4:-2.009327 5:0.860882 6:-0.048885 7:-0.975293 8:0.964639 9:-0.885418 10:0.013576 11:-0.422445 12:-1.413610 13:0.627260 14:0.848444 15:0.099379 16:1.050867 17:-1.304344 18:0.174181 19:0.649619 20:-1.185172 21:0.017791 22:-0.194152 23:-0.227591 24:-0.148826 25:0.216584 26:-1.399291 27:-1.245661 28:0.293968 29:-0.199284 30:-1.284332 31:0.772138 32:0.479186 33:-0.535881 34:0.752001 35:-2.219285 36:0.005001 37:-1.043017 38:0.946795 39:0.323784 40:-0.034940 41:1.202454 42:0.769478 43:-0.551212 44:-1.159373 45:0.119276 46:-1.710291 47:-0.034381 48:0.765360 49:0.560469 50:-1.052345 51:-1.527752 52:2.229319 53:-0.146542 54:-0.034161 55:1.668718
-1 1:-0.549433 2:-0.327010 3:0.358566 4:-0.541632 5:1.245653 6:0.325663 7:-0.012624 8:-1.645629 9:0.619198 10:-1.950638 11:-0.709150 12:-1.728782 13:-1.061132 14:-0.162434 15:-0.095280 16:0.574422 17:0.891155 18:0.320041 19:-1.560652 20:0.541186 21:-0.445701 22:0.744596 23:-0.717372 24:1.671521 25:0.052704 26:-0.055606 27:1.148014 28:0.078541 29:0.532915 30:0.464483 31:0.762077 32:0.159678 33:-0.260763 34:0.777494 35:-0.144016 36:-0.051327 37:-0.390671 38:-1.839200 39:1.351907 40:0.355947 41:-1.273701 42:0.009874 43:-1.343031 44:0.239983 45:-0.496923 46:-0.039788 47:1.762595 48:0.061453 49:-2.263833 50:1.303291 51:0.261509 52:-0.022389 53:-2.213706 54:0.386240 55:-0.616207
-1 1:0.618094 2:-0.141494 3:-0.875173 4:0.061458 5:0.673727 6:0.453845 7:0.947553 8:-0.500506 9:-2.738359 10:3.004276 11:0.495767 12:0.019511 13:0.113340 14:-0.390847 15:-0.835776 16:1.518288 17:0.426870 18:-1.332866 19:0.342333 20:-0.386603 21:-0.826310 22:0.381481 23:1.627607 24:-0.878672 25:0.978700 26:0.344110 27:-0.998468 28:1.745144 29:-0.930136 30:1.070391 31:0.192137 32:0.165743 33:-0.308035 34:-0.631671 35:2.158377 36:-0.826060 37:-0.659354 38:1.104645 39:-0.776369 40:-0.240189 41:0.154507 42:-0.967996 43:-0.678507 44:-0.343353 45:0.798710 46:0.897633 47:-0.847118 48:-0.315977 49:2.712321 50:0.134844 51:-0.441339 52:0.272750 53:1.019770 54:-1.044265 55:0.875795
-1 1:-1.227631 2:-0.050483 3:-0.324905 4:-1.806467 5:0.180318 6:0.845052 7:2.267132 8:-0.185572 9:-0.539279 10:0.974754 11:0.657243 12:-2.060925 13:-0.962535 14:-1.483786 15:-0.187629 16:0.608905 17:-1.280998 18:0.977910 19:1.468566 20:1.032014 21:-2.970337 22:0.912844 23:0.191873 24:1.016299 25:0.962012 26:0.391782 27:0.346147 28:0.459710 29:0.032570 30:1.037000 31:-0.675727 32:1.029546 33:0.041819 34:-0.853878 35:1.972806 36:0.003217 37:-2.062136 38:1.636170 39:0.379621 40:-0.822944 41:-1.751044 42:-0.740297 43:0.582975 44:-1.885674 45:-0.054833 46:-0.058267 47:0.324532 48:-0.079074 49:0.922380 50:-2.387809 51:2.016308 52:0.119022 53:0.101913 54:1.170788 55:0.520061
-1 1:-0.631372 2:-0.566765 3:0.979197 4:-0.251320 5:-1.174841 6:1.760569 7:0.578069 8:0.988390 9:0.552150 10:-1.354576 11:0.274046 12:0.536177 13:0.184168 14:-1.512784 15:-2.076927 16:-0.349817 17:0.292488 18:-0.353286 19:-0.365782 20:-1.364034 21:-0.550467 22:-0.126942 23:-0.318347 24:0.639657 25:-0.943147 26:0.848230 27:-0.065204 28:-1.056827 29:-0.842299 30:1.291217 31:-0.687878 32:0.908274 33:1.651603 34:0.067241 35:-0.678205 36:-1.226601 37:-0.274940 38:0.491831 39:-1.162010 40:-0.587242 41:-0.718586 42:-0.945221 43:-0.872079 44:-0.104163 45:-0.696414 46:1.456350 47:-0.227010 48:0.744293 49:0.391265 50:-0.796848 51:0.567321 52:-0.721031 53:0.000785 54:0.771145 55:0.595328
-1 1:-1.012669 2:0.069921 3:0.970795 4:-0.533575 5:-1.701638 6:0.183504 7:-0.393084 8:-0.983409 9:-0.351689 10:0.771590 11:0.435292 12:-1.248069 13:0.486867 14:1.012906 15:-2.066835 16:0.575736 17:-1.108834 18:2.162837 19:1.030376 20:-0.821841 21:0.159206 22:-0.475198 23:-0.179443 24:-0.109899 25:-0.455846 26:0.587950 27:-1.764433 28:-0.416537 29:1.394723 30:0.098428 31:-1.339220 32:1.080389 33:0.458771 34:-0.041698 35:-1.099360 36:-0.264153 37:0.047133 38:0.607744 39:-0.240235 40:1.757552 41:-1.769790 42:-0.115683 43:-0.748173 44:0.419148 45:0.128936 46:0.638803 47:0.858121 48:0.497374 49:1.827566 50:-0.752211 51:-0.891362 52:-0.412652 53:-0.094295 54:1.095023 55:1.349407
-1 1:0.312512 2:-0.320208 3:-0.620142 4:0.456270 5:-0.848327 6:-0.550911 7:-0.208361 8:1.389496 9:0.650245 10:0.264427 11:-0.009742 12:-0.703164 13:-0.467831 14:-0.761524 15:-0.412467 16:1.800244 17:-0.448602 18:-0.205494 19:-1.137396 20:-0.095180 21:0.745463 22:-0.191598 23:2.042467 24:-2.476549 25:0.933504 26:-0.104770 27:2.290144 28:-0.550294 29:-1.103861 30:-0.880716 31:0.808530 32:0.882784 33:-0.425570 34:-0.633086 35:0.579956 36:-0.949912 37:-0.850474 38:0.327325 39:0.332623 40:-0.744592 41:-0.585737 42:-0.957247 43:1.001454 44:-0.150488 45:0.651362 46:1.232883 47:0.408779 48:-0.426579 49:-0.748993 50:1.664552 51:-1.318826 52:-0.301976 53:1.311865 54:0.298362 55:0.600812
-1 1:2.128203 2:-1.062855 3:-0.977527 4:0.001236 5:-0.290866 6:-1.292513 7:0.757419 8:1.649419 9:0.326539 10:1.118397 11:-0.278251 12:1.021685 13:-0.132478 14:-1.383702 15:-1.686085 16:1.353479 17:0.136385 18:0.156990 19:-1.089942 20:1.342766 21:0.989561 22:1.760737 23:-0.736709 24:0.648070 25:0.665004 26:0.319803 27:0.852110 28:-0.117195 29:-0.235070 30:0.714518 31:-1.309701 32:0.327569 33:-0.526549 34:-1.564689 35:0.810348 36:0.043756 37:-0.750031 38:-1.592096 39:0.607583 40:0.393453 41:0.380585 42:-1.487681 43:-1.542316 44:-0.189681 45:0.443857 46:-0.654804 47:0.041905 48:-0.871817 49:2.219494 50:1.645475 51:-1.425145 52:0.209129 53:0.811748 54:0.909027 55:1.224926
-1 1:-0.428934 2:-0.179733 3:-0.088628 4:-1.627524 5:0.987543 6:0.796807 7:-1.126406 8:-0.334224 9:-1.546567 10:0.019163 11:-1.546924 12:-1.438844 13:-0.741586 14:0.101616 15:-1.176750 16:-0.419906 17:0.093215 18:-0.551494 19:0.337512 20:0.554600 21:-0.811228 22:0.414890 23:0.055753 24:0.833032 25:0.437826 26:0.269986 27:1.211334 28:2.308018 29:0.976891 30:-0.051459 31:1.739773 32:0.844045 33:-0.084653 34:0.174505 35:0.995323 36:2.550067 37:0.107130 38:0.049694 39:0.564193 40:0.265166 41:1.921540 42:0.299616 43:-0.214964 44:1.470463 45:0.354690 46:2.037632 47:0.387765 48:0.644941 49:0.140186 50:0.781815 51:1.150090 52:-0.361416 53:1.003710 54:1.376050 55:-1.095508
-1 1:-0.526124 2:0.513131 3:-2.064277 4:-1.999472 5:-0.377030 6:-1.103348 7:0.976852 8:1.214193 9:1.485876 10:0.870569 11:-0.883773 12:0.159623 13:0.124332 14:2.416438 15:-0.153003 16:-1.124102 17:1.247554 18:-0.173946 19:0.110050 20:0.631835 21:-0.804467 22:-0.898167 23:1.094943 24:-1.264578 25:0.846894 26:1.081320 27:-0.456867 28:0.108103 29:0.745164 30:0.943058 31:-1.446682 32:-1.614133 33:-0.839186 34:0.230968 35:0.663594 36:0.342545 37:-0.588121 38:0.328422 39:-0.262576 40:-1.376060 41:1.223136 42:-0.078537 43:-0.524152 44:-0.508187 45:-0.410198 46:0.920208 47:-0.554706 48:0.289030 49:0.053119 50:-1.263114 51:2.541336 52:-0.745310 53:1.244757 54:0.109225 55:0.364404
-1 1:-0.003091 2:0.187480 3:1.969257 4:-1.633048 5:0.676556 6:-0.163938 7:-1.487755 8:1.073727 9:0.034536 10:-0.773503 11:0.958736 12:0.210231 13:0.090455 14:1.169451 15:0.243855 16:-0.443029 17:-0.487556 18:-0.773451 19:1.394714 20:0.211561 21:-0.624330 22:1.079117 23:-0.367491 24:1.544936 25:0.316104 26:1.664557 27:0.393723 28:-2.170831 29:1.557744 30:-0.449845 31:-0.319075 32:-0.321138 33:-0.061816 34:-1.637580 35:-0.127916 36:-0.199877 37:-1.175192 38:2.462200 39:-0.007476 40:-0.399598 41:-1.419351 42:1.937591 43:-0.249960 44:-0.211787 45:0.644106 46:-1.187765 47:0.354825 48:0.470507 49:-0.720199 50:1.875367 51:1.444581 52:0.299182 53:-0.078247 54:-0.464581 55:1.066757
-1 1:-1.901822 2:-0.400656 3:-1.836283 4:-1.686617 5:-0.239841 6:-0.863051 7:0.462264 8:-2.167055 9:0.322334 10:0.467079 11:1.497759 12:0.317955 13:1.259076 14:-0.485486 15:0.002875 16:0.407799 17:0.251319 18:0.791840 19:0.479560 20:1.331175 21:-0.036191 22:-0.146492 23:-0.121642 24:0.018564 25:0.047422 26:-1.264072 27:-1.970794 28:0.101328 29:-0.327542 30:0.478472 31:-0.339695 32:-0.265712 33:0.941962 34:1.194959 35:-1.050924 36:0.278146 37:-0.724819 38:1.016902 39:0.793343 40:0.395953 41:1.160836 42:0.338248 43:-0.193025 44:0.251029 45:0.585940 46:1.280995 47:1.543356 48:0.406753 49:-2.001891 50:-0.564450 51:-1.964344 52:0.471682 53:1.549497 54:0.962657 55:-0.023603
-1 1:-0.387513 2:-0.702352 3:-0.308062 4:0.482380 5:-0.912483 6:-0.265398 7:2.019615 8:1.052473 9:0.368568 10:0.227912 11:-1.386580 12:0.673555 13:-1.408044 14:-0.490077 15:1.650686 16:1.338655 17:-1.326066 18:1.384025 19:0.536003 20:-1.266876 21:-0.018646 22:-1.101030 23:-0.161793 24:-0.825179 25:2.351637 26:0.310631 27:-0.329051 28:0.826012 29:0.052512 30:0.312502 31:-1.604311 32:-0.786472 33:-0.260072 34:-1.027825 35:0.094725 36:0.106433 37:0.658378 38:-1.465534 39:0.796401 40:1.133184 41:-1.241879 42:-0.884287 43:0.135556 44:0.185833 45:0.909594 46:0.502897 47:-0.515597 48:-1.699804 49:-0.768393 50:-1.413097 51:-0.004836 52:0.202268 53:-0.743064 54:-0.990010 55:-0.337296
-1 1:0.521701 2:-0.030977 3:0.103142 4:0.757173 5:-0.376452 6:-1.529499 7:1.224134 8:-0.131098 9:0.560478 10:0.584755 11:0.382759 12:-0.584447 13:-1.571462 14:0.061893 15:0.336863 16:-0.432199 17:-0.458025 18:-0.407865 19:-0.604946 20:1.643079 21:-1.935442 22:0.682458 23:-0.168904 24:0.928459 25:-0.695911 26:-0.356977 27:1.472223 28:0.406103 29:0.591951 30:0.229252 31:-0.558271 32:-0.856718 33:0.327608 34:-2.665685 35:-2.353595 36:2.147123 37:-0.241746 38:2.128261 39:0.981316 40:-0.667549 41:-0.027487 42:0.030350 43:1.200796 44:-0.263657 45:1.186604 46:-0.155915 47:-0.159710 48:0.238315 49:-1.222441 50:-1.090405 51:0.198737 52:0.349748 53:1.308676 54:-1.911814 55:0.973383
-1 1:1.352896 2:-1.741663 3:0.197238 4:0.659921 5:0.564611 6:-1.777351 7:-0.617901 8:-0.934649 9:-1.689961 10:-1.489014 11:0.176082 12:-1.092363 13:-2.275420 14:1.243868 15:-0.838975 16:0.714476 17:0.423180 18:1.238206 19:-0.051566 20:-0.773257 21:-0.353939 22:1.624980 23:0.246865 24:0.414800 25:0.651894 26:-1.566309 27:-1.614127 28:-0.527312 29:0.442467 30:0.662361 31:1.984032 32:-0.532167 33:-2.071957 34:-0.054624 35:0.029622 36:0.439787 37:1.225077 38:0.885630 39:0.303618 40:1.917029 41:-0.232943 42:-1.247877 43:-1.021027 44:-1.735304 45:-0.706710 46:1.594388 47:-0.680096 48:-0.062288 49:-0.456392 50:1.146327 51:0.349258 52:0.282314 53:2.096282 54:1.377969 55:-0.904357
-1 1:-0.540430 2:1.048537 3:-1.314985 4:0.951704 5:0.222975 6:1.436387 7:0.939187 8:0.342361 9:2.253282 10:0.030751 11:2.050509 12:-0.066513 13:0.159001 14:-1.893431 15:-0.136325 16:0.884398 17:-0.022690 18:0.717727 19:0.547270 20:1.379419 21:-0.225906 22:-1.569835 23:1.032557 24:-0.613072 25:0.903520 26:-1.043139 27:0.113044 28:0.541979 29:-0.180297 30:-0.030828 31:-0.067637 32:-0.480977 33:0.444586 34:0.344627 35:1.899924 36:-1.337754 37:-0.333731 38:-0.869097 39:-0.390729 40:-0.032530 41:-1.781231 42:-0.289767 43:-0.252832 44:-1.541697 45:1.645627 46:1.233367 47:-0.533830 48:-1.097026 49:-0.588941 50:-0.053557 51:0.467824 52:-1.558176 53:-1.144940 54:0.928206 55:-1.727681
-1 1:0.455728 2:-0.344280 3:1.052347 4:-0.060456 5:-0.079878 6:0.221605 7:0.154819 8:1.933338 9:-2.016357 10:0.617313 11:0.801166 12:0.007638 13:-0.352172 14:-0.275697 15:0.437574 16:-1.865999 17:-0.651432 18:-2.287197 19:0.868410 20:1.395032 21:-0.844405 22:-0.259270 23:-1.257213 24:0.232440 25:-0.629673 26:0.511007 27:0.856849 28:1.567361 29:-1.002135 30:-0.817173 31:-0.516040 32:1.612816 33:-0.769853 34:0.690699 35:1.255713 36:-0.975548 37:0.769805 38:-0.509189 39:-0.256888 40:0.247400 41:-1.029886 42:0.186629 43:0.944137 44:-1.599642 45:-0.060723 46:-0.259065 47:2.282800 48:2.319727 49:1.229897 50:0.062557 51:0.078190 52:-1.180672 53:-0.374363 54:0.258533 55:-0.155566
-1 1:1.034804 2:0.158398 3:1.646021 4:-2.288676 5:0.479497 6:-0.522958 7:0.213527 8:-0.758188 9:-0.434050 10:-0.674932 11:1.622301 12:0.223899 13:0.295755 14:0.244146 15:0.322600 16:-0.970802 17:1.427666 18:-0.999805 19:1.120547 20:-2.359152 21:-0.407300 22:0.969369 23:1.001950 24:0.715165 25:0.478573 26:-0.084726 27:-0.260434 28:-0.014118 29:-0.285355 30:-1.355319 31:0.745266 32:0.213914 33:-0.040237 34:1.510760 35:-0.667109 36:0.117025 37:-1.223976 38:-0.766963 39:-0.249044 40:-1.243527 41:0.119329 42:-0.182393 43:0.036140 44:0.399424 45:-0.581441 46:-0.734478 47:1.424193 48:-0.588414 49:0.138218 50:-0.309383 51:-0.039450 52:0.991339 53:0.598409 54:-1.286377 55:-0.817831
-1 1:0.775092 2:-0.257146 3:-1.696623 4:-0.318637 5:0.235517 6:0.662997 7:-0.827674 8:0.945327 9:1.552497 10:-0.811313 11:0.421083 12:1.604562 13:0.742079 14:1.534579 15:0.981437 16:-0.337183 17:-0.258362 18:-0.186643 19:1.356358 20:1.094937 21:-0.593594 22:1.143306 23:1.370401 24:0.419452 25:1.859453 26:0.070998 27:0.531246 28:0.564930 29:-0.189178 30:-1.941742 31:1.037330 32:0.653920 33:0.156608 34:0.112056 35:-0.540889 36:0.640809 37:-0.311138 38:-0.101749 39:0.747713 40:-0.179591 41:-0.288802 42:0.683760 43:0.010837 44:-0.198706 45:-0.717059 46:0.735093 47:-0.225594 48:0.082000 49:0.051529 50:-1.235828 51:-1.678111 52:-0.308731 53:-1.373888 54:0.538229 55:0.845973
-1 1:-0.498064 2:0.545752 3:0.021837 4:-1.442435 5:-1.364865 6:1.732872 7:-0.724099 8:-0.554600 9:-0.365626 10:-0.291831 11:-0.041849 12:0.421804 13:1.096211 14:-0.815324 15:0.060179 16:-1.684414 17:0.742374 18:-1.270464 19:-1.643826 20:-2.004108 21:-1.220375 22:0.689005 23:-0.982669 24:-1.111972 25:0.215372 26:0.841376 27:-1.296731 28:-1.028644 29:0.836565 30:-2.204814 31:0.475246 32:1.289598 33:-0.799963 34:-1.008629 35:0.641251 36:0.799889 37:0.501299 38:-1.253267 39:-0.280137 40:0.484281 41:-0.226695 42:0.150502 43:-0.675952 44:0.967950 45:-0.033979 46:0.319055 47:-0.839408 48:-0.246364 49:-0.014346 50:1.761894 51:-0.320014 52:-1.727892 53:-0.522570 54:-0.754382 55:1.386726
-1 1:0.605427 2:0.514037 3:-1.457706 4:0.789479 5:0.928589 6:-1.249186 7:2.893994 8:0.181165 9:-0.201185 10:-0.789212 11:-0.391001 12:0.830530 13:-1.006090 14:0.313919 15:-0.660441 16:1.670293 17:0.772797 18:-0.919027 19:-0.866775 20:-0.729348 21:-1.026098 22:-0.406322 23:-1.083775 24:-1.166188 25:-0.875572 26:1.101559 27:-0.544165 28:-1.501563 29:-1.489747 30:-0.815082 31:0.203590 32:-0.805915 33:1.227477 34:-1.463886 35:-0.891093 36:0.586299 37:-0.317904 38:0.593013 39:0.651518 40:0.666074 41:0.123914 42:0.708949 43:0.152972 44:0.607868 45:0.951828 46:0.082408 47:0.047330 48:-0.274859 49:0.425148 50:-1.394106 51:0.233692 52:0.392321 53:0.172957 54:0.922530 55:-0.597937
-1 1:1.305276 2:-0.063219 3:0.107271 4:-0.445924 5:-0.659709 6:1.236345 7:-0.398876 8:-1.446833 9:-0.128382 10:-1.196615 11:0.700767 12:-0.113667 13:0.337523 14:0.266882 15:0.100151 16:-0.625049 17:-0.331211 18:0.353175 19:0.021276 20:1.070552 21:-1.116472 22:0.599400 23:-0.832093 24:0.960191 25:-1.803829 26:-0.576949 27:-1.168905 28:-0.355960 29:0.717606 30:-1.507013 31:-0.399159 32:-1.219864 33:-0.241093 34:0.514116 35:-0.311468 36:-0.792362 37:-0.272035 38:0.539356 39:-0.093602 40:0.377992 41:0.169506 42:-0.991186 43:-1.576659 44:-1.192247 45:0.425568 46:-0.759149 47:-0.546799 48:-0.007023 49:-0.885618 50:-0.591454 51:0.880793 52:-0.044953 53:-0.981718 54:1.690951 55:1.928236
-1 1:-0.387216 2:-0.526403 3:1.409579 4:-0.091134 5:0.506101 6:-0.813151 7:0.603500 8:-1.709083 9:-0.263583 10:0.333733 11:0.218740 12:-0.665199 13:0.702409 14:0.045742 15:0.082882 16:1.847073 17:0.461667 18:0.880587 19:-0.351219 20:0.643732 21:-0.457881 22:-0.434366 23:-1.691514 24:-1.706242 25:0.670885 26:0.455454 27:0.230370 28:-0.075855 29:0.662606 30:0.455251 31:-0.000998 32:-0.239474 33:1.016166 34:-1.167974 35:0.512376 36:0.886700 37:1.922021 38:-2.468154 39:-0.445064 40:-0.129026 41:-0.185755 42:0.813387 43:1.047918 44:-0.652813 45:-0.507158 46:-1.319297 47:-0.615604 48:0.029786 49:1.251289 50:-0.874786 51:0.460815 52:1.821424 53:0.981567 54:1.596829 55:-0.033023
-1 1:0.829182 2:-0.483918 3:0.013293 4:-1.578125 5:2.025180 6:0.925521 7:0.468514 8:1.235637 9:-1.045867 10:-0.389399 11:-0.167268 12:0.759022 13:1.327731 14:0.175917 15:0.203139 16:-1.015872 17:1.817563 18:-1.340343 19:0.540089 20:-1.540182 21:0.529347 22:0.473855 23:0.575781 24:1.085171 25:-0.992033 26:-1.988761 27:-0.214060 28:-0.765847 29:-0.159979 30:0.083146 31:-1.593302 32:0.116234 33:-0.878305 34:-0.356366 35:0.685261 36:-0.079828 37:-0.276102 38:-0.676574 39:-1.466758 40:1.082401 41:0.244600 42:0.439281 43:2.400080 44:-1.185756 45:-1.246770 46:0.321626 47:0.308292 48:0.322295 49:0.423909 50:-1.113155 51:0.706143 52:-0.058152 53:1.600597 54:0.308178 55:0.976328
-1 1:-0.380811 2:-0.669298 3:0.276623 4:-0.019968 5:-0.396551 6:-0.118329 7:-0.351450 8:1.426578 9:1.096270 10:0.736454 11:1.170196 12:0.892058 13:-1.577233 14:1.631287 15:2.206575 16:-0.679272 17:-0.229212 18:-1.568036 19:-0.506105 20:0.011592 21:0.214381 22:0.963483 23:0.050140 24:-0.646218 25:-0.878728 26:-0.203105 27:-0.233567 28:0.739570 29:-0.393021 30:1.654495 31:1.857305 32:0.546497 33:0.808302 34:-0.690344 35:0.827681 36:0.447267 37:-0.827902 38:-0.048965 39:-0.735177 40:0.463962 41:2.112970 42:0.110192 43:-1.787394 44:0.779206 45:0.053975 46:0.150123 47:1.785030 48:0.561851 49:-0.685460 50:0.788338 51:0.458206 52:0.085420 53:2.097764 54:0.707283 55:1.063996
-1 1:1.649571 2:-0.217156 3:-1.479510 4:1.483476 5:-0.251080 6:-0.428138 7:0.168409 8:0.101470 9:-1.954459 10:0.323131 11:0.827585 12:-1.787979 13:2.349969 14:0.000675 15:0.360328 16:0.529516 17:1.112853 18:-1.701355 19:-0.191437 20:0.704469 21:-2.153117 22:1.339615 23:0.475899 24:-1.216529 25:0.836335 26:-0.424868 27:-0.537936 28:-0.175984 29:-1.557421 30:-0.870975 31:0.864345 32:0.436518 33:-0.836374 34:1.571793 35:-0.523685 36:-1.567157 37:-1.236817 38:0.768463 39:0.072970 40:-0.138644 41:-0.011495 42:-0.707204 43:-0.652698 44:0.109144 45:0.295425 46:0.713156 47:0.630957 48:-0.701594 49:0.444030 50:0.516121 51:0.888803 52:-1.418860 53:-0.499865 54:0.045851 55:-0.153072
-1 1:1.344452 2:0.598473 3:-0.990619 4:-0.033542 5:-0.008058 6:1.461530 7:-0.128590 8:0.211399 9:0.046453 10:-2.012057 11:0.913927 12:-0.396680 13:-0.501023 14:0.494786 15:1.466464 16:0.716299 17:1.287805 18:0.520689 19:0.441461 20:0.042992 21:0.782831 22:1.003129 23:-0.862032 24:0.386392 25:-0.270392 26:-1.360469 27:0.422802 28:1.406654 29:-0.546980 30:1.147831 31:0.552836 32:0.962720 33:0.218236 34:0.379634 35:-1.044337 36:0.315008 37:0.447673 38:-0.000392 39:-0.504833 40:-0.425276 41:-0.803187 42:-0.112583 43:-0.623127 44:-0.990739 45:0.635436 46:-1.659859 47:-2.264262 48:1.025583 49:0.887424 50:0.518070 51:-0.260671 52:-0.175312 53:-0.713864 54:-0.876480 55:0.790294
-1 1:0.207943 2:0.335554 3:-0.058113 4:0.222224 5:0.866671 6:-0.852221 7:-0.678254 8:-2.357257 9:-1.508624 10:-0.133029 11:0.498283 12:0.627413 13:0.455521 14:1.088361 15:-1.058180 16:-0.122507 17:-1.341542 18:0.802768 19:0.309246 20:-0.270349 21:1.384648 22:-1.467145 23:0.772851 24:-0.376679 25:0.195578 26:-0.166260 27:-1.809148 28:-1.036452 29:-1.081391 30:1.787667 31:1.195831 32:1.682742 33:0.698750 34:-0.930710 35:-1.595234 36:-0.319711 37:0.842815 38:-0.021687 39:0.048179 40:-0.678899 41:-0.021563 42:0.343177 43:-0.807425 44:0.264291 45:-0.875137 46:0.087233 47:-2.364007 48:-1.812431 49:-0.355683 50:-0.659374 51:1.061792 52:-0.264829 53:-0.571008 54:-0.823352 55:1.083666
-1 1:-0.425540 2:-0.962516 3:-0.707002 4:0.182431 5:2.680393 6:0.582868 7:-0.478046 8:-1.077326 9:1.112775 10:-0.448564 11:-1.628178 12:-1.443492 13:1.029162 14:-0.621995 15:-1.593443 16:0.979338 17:0.693909 18:-1.114930 19:0.609372 20:-1.800195 21:0.161584 22:-1.254501 23:2.174371 24:-0.302665 25:-1.121490 26:0.491443 27:-0.202361 28:-0.040276 29:0.929467 30:-0.009915 31:1.091318 32:0.002983 33:-0.223578 34:0.542650 35:0.418109 36:-1.016968 37:0.872341 38:-1.973696 39:-0.641299 40:-0.606339 41:0.346733 42:-1.214712 43:0.851365 44:-2.133485 45:0.863339 46:0.132840 47:0.297615 48:0.525990 49:-3.484221 50:-0.053657 51:1.195583 52:0.019985 53:0.666339 54:-1.000219 55:-1.248952
-1 1:-0.521971 2:-1.564723 3:1.286242 4:0.547885 5:1.181019 6:-0.151541 7:0.583354 8:0.992853 9:0.221107 10:0.446176 11:-1.397703 12:0.846015 13:1.056574 14:0.591760 15:-1.590241 16:-0.065209 17:0.213958 18:0.294797 19:-0.564302 20:-0.372238 21:-0.828475 22:0.097718 23:-0.639399 24:-0.535609 25:0.585396 26:0.395737 27:1.036644 28:-1.629909 29:0.191302 30:0.842048 31:0.649519 32:-0.273242 33:-0.671765 34:1.530453 35:0.152466 36:-0.127945 37:-0.958883 38:0.569280 39:-1.525168 40:-1.585013 41:-2.132025 42:1.657847 43:1.942038 44:-0.348691 45:0.365815 46:-1.137286 47:-1.430080 48:-0.471583 49:-1.427616 50:-0.416501 51:-1.813520 52:-0.391249 53:-1.858893 54:1.863873 55:-0.442504
-1 1:-0.533893 2:-0.109937 3:0.954036 4:0.180891 5:-0.777360 6:0.205780 7:0.004456 8:0.124484 9:0.566017 10:-0.400053 11:1.782550 12:0.545271 13:0.074036 14:-0.477100 15:0.574996 16:-1.786325 17:0.138964 18:-0.316293 19:-0.574298 20:0.774708 21:1.783248 22:0.746311 23:-0.655016 24:2.255643 25:2.505752 26:0.037769 27:1.277785 28:0.879047 29:-1.126733 30:-0.530043 31:1.416766 32:1.290681 33:1.450390 34:-1.355684 35:-0.034166 36:-0.938291 37:0.612805 38:0.568687 39:0.181949 40:-0.507655 41:0.558322 42:0.512690 43:-0.192080 44:-0.248330 45:0.218570 46:-0.658145 47:-0.106330 48:-1.101876 49:-1.756677 50:-2.071208 51:1.061425 52:0.178545 53:2.248421 54:0.009780 55:-0.855552
-1 1:-1.417785 2:-0.828496 3:-0.432512 4:-0.234156 5:-0.173005 6:0.689813 7:-0.378573 8:1.094625 9:-1.259525 10:0.712886 11:1.406882 12:1.096183 13:0.280304 14:-1.066526 15:0.132313 16:-0.684664 17:0.249584 18:-1.961940 19:0.966099 20:-0.770606 21:2.532106 22:0.798016 23:0.006006 24:0.098383 25:-1.398718 26:-0.914179 27:-0.412615 28:1.210945 29:0.904899 30:0.581427 31:0.422025 32:1.181966 33:-0.851901 34:0.736416 35:0.733791 36:1.439072 37:-1.850744 38:0.701184 39:0.206113 40:-0.367770 41:-1.169758 42:1.136853 43:-1.026938 44:-2.110458 45:0.645101 46:0.388951 47:-0.057240 48:-0.199676 49:0.337130 50:0.882796 51:1.561506 52:0.085947 53:0.259354 54:0.063733 55:-1.157475
-1 1:0.138503 2:-1.000460 3:0.803706 4:-1.619687 5:0.467594 6:1.929865 7:-0.007830 8:-0.220175 9:0.505569 10:1.539972 11:1.032414 12:-1.150377 13:0.936537 14:1.062737 15:0.447255 16:0.354635 17:0.825628 18:-1.172314 19:-1.305963 20:0.364527 21:-1.180803 22:-1.576523 23:-0.943005 24:0.625430 25:-0.090020 26:-0.102074 27:1.053698 28:0.097303 29:1.176303 30:-1.440206 31:-0.629721 32:-0.419220 33:-0.206666 34:0.115062 35:-0.325917 36:-0.109037 37:-0.044980 38:1.817424 39:-2.074249 40:-0.725762 41:-0.081331 42:-0.488805 43:-0.680321 44:-0.109089 45:0.512857 46:0.327202 47:-1.703236 48:-0.482871 49:-0.165337 50:0.434000 51:-0.064349 52:-0.256792 53:2.158350 54:1.192943 55:1.211349
-1 1:-0.046248 2:0.681277 3:0.991848 4:-1.622557 5:0.650088 6:-2.472128 7:-1.152453 8:0.407868 9:1.803653 10:-1.015863 11:1.759172 12:-1.454530 13:0.050173 14:-0.918282 15:0.261486 16:0.528238 17:-0.133649 18:-0.635070 19:1.132057 20:-0.077412 21:-0.967232 22:0.038010 23:-0.767073 24:-1.272656 25:-1.877852 26:1.821561 27:-0.928481 28:1.033682 29:-0.137955 30:1.067384 31:-0.195355 32:0.839470 33:-1.869973 34:0.282669 35:0.552844 36:0.680622 37:0.174831 38:-0.468658 39:-0.740868 40:-0.580287 41:0.886254 42:0.393570 43:1.117572 44:-0.283340 45:0.187692 46:1.258463 47:0.557163 48:-1.102154 49:-0.991054 50:0.178258 51:0.823989 52:-0.859246 53:0.865728 54:0.806758 55:-1.032836
-1 1:1.023104 2:1.859475 3:-0.551227 4:-1.088682 5:0.624787 6:-0.822021 7:-1.415643 8:-2.313896 9:-1.366900 10:0.133445 11:0.235063 12:-0.949454 13:1.907704 14:-0.220755 15:-0.466556 16:0.002648 17:0.020465 18:1.402214 19:-0.162547 20:0.364798 21:-0.083541 22:0.871789 23:-0.646553 24:2.851915 25:0.185826 26:0.526125 27:-0.890927 28:-0.419179 29:0.854593 30:1.050493 31:-0.640961 32:0.356602 33:-0.938855 34:0.780281 35:0.321280 36:1.011375 37:1.571897 38:1.438439 39:-0.177809 40:-0.101363 41:-0.294464 42:0.150451 43:-0.392589 44:0.449905 45:-0.647770 46:-0.611486 47:-0.589108 48:-0.654535 49:-0.672637 50:0.089107 51:0.426768 52:0.516582 53:0.384932 54:0.333263 55:0.224975
-1 1:-1.376955 2:-0.367116 3:-1.409383 4:-0.007196 5:-1.106157 6:-0.684430 7:-0.529723 8:-1.330976 9:0.240632 10:0.350736 11:0.703286 12:-0.105639 13:0.297519 14:-0.815938 15:-0.417735 16:-0.050438 17:-0.362648 18:-0.427765 19:0.207941 20:0.612956 21:-0.278276 22:-0.893081 23:1.281853 24:0.525032 25:0.625605 26:1.280958 27:-1.030381 28:-1.036760 29:2.047156 30:0.104633 31:1.505323 32:-0.210770 33:-0.363988 34:-1.805879 35:0.078598 36:0.350836 37:1.334842 38:-0.495051 39:0.198184 40:0.450831 41:0.658957 42:0.523810 43:-0.142697 44:-1.416427 45:-1.511361 46:0.083103 47:0.394178 48:0.508718 49:-1.903018 50:0.621136 51:0.122752 52:-0.477327 53:1.123419 54:-1.006429 55:-0.900420
-1 1:1.362420 2:1.179834 3:-0.116309 4:0.829162 5:-1.152657 6:0.135384 7:-1.162694 8:1.124483 9:-0.803422 10:-2.052691 11:0.047704 12:-0.018343 13:0.282342 14:-0.639975 15:-0.866875 16:1.424772 17:0.520239 18:0.857244 19:-0.108051 20:-0.262281 21:-0.345058 22:0.557059 23:-0.641675 24:-1.961928 25:0.090112 26:0.883820 27:0.257370 28:0.509459 29:0.286652 30:1.857633 31:1.453636 32:0.645480 33:-0.903203 34:-0.300990 35:0.594967 36:1.091029 37:1.292526 38:0.445618 39:-1.993627 40:-1.070748 41:-0.037752 42:0.909066 43:0.981095 44:-1.776682 45:0.963495 46:-0.266705 47:-0.869227 48:1.592658 49:-0.876349 50:-1.043775 51:0.822322 52:-0.928650 53:0.146509 54:-1.147988 55:1.101331
-1 1:-0.950681 2:0.147904 3:-1.037827 4:1.305070 5:-0.434767 6:-2.427709 7:-1.112786 8:0.492420 9:-0.442924 10:0.579029 11:0.486256 12:0.814242 13:-0.890466 14:0.847132 15:0.745279 16:1.384013 17:0.360141 18:-0.912704 19:-1.823563 20:0.409358 21:0.401567 22:-0.534140 23:-1.547380 24:0.879571 25:-1.477272 26:0.009688 27:-2.345113 28:0.408231 29:0.187387 30:0.770248 31:-0.887836 32:-0.184716 33:-0.371689 34:0.368596 35:-0.588238 36:-1.809946 37:-2.640458 38:-0.781468 39:-0.110727 40:-0.071506 41:0.301593 42:0.138056 43:-1.363570 44:1.524908 45:0.773446 46:1.886172 47:1.298174 48:-0.512551 49:-0.832986 50:-0.337961 51:0.720108 52:-1.400007 53:-0.609765 54:-0.570062 55:0.700581
-1 1:-2.776517 2:1.107363 3:0.901837 4:-0.282961 5:0.625950 6:0.760166 7:1.049847 8:0.051982 9:1.923157 10:-0.682826 11:2.513609 12:-0.641267 13:0.456053 14:-0.029353 15:-0.070489 16:0.489701 17:1.026957 18:0.151358 19:-1.930873 20:-0.297367 21:-0.827476 22:-1.431982 23:0.038454 24:1.602272 25:0.817037 26:0.586799 27:0.820528 28:-0.741454 29:-1.354692 30:0.631910 31:2.092518 32:-0.488524 33:-1.157557 34:0.845333 35:-0.253501 36:-1.577111 37:-0.739457 38:1.839940 39:-0.503062 40:-1.627108 41:-0.023023 42:1.267531 43:0.666468 44:0.799516 45:1.011338 46:-0.867367 47:0.705212 48:-0.709569 49:-0.286377 50:0.587020 51:0.327012 52:-1.111593 53:-1.408002 54:-0.362124 55:0.951595
-1 1:1.010176 2:0.662780 3:1.307821 4:-1.541069 5:0.652273 6:0.240942 7:1.272952 8:-0.309271 9:0.232358 10:0.633068 11:0.433949 12:2.275617 13:0.924456 14:-0.321978 15:-1.207702 16:1.471230 17:0.313430 18:0.518323 19:0.446544 20:-0.250623 21:0.105904 22:-1.962049 23:-1.421836 24:-0.001059 25:0.528633 26:-0.796281 27:0.704402 28:0.932702 29:-1.176037 30:0.213827 31:0.728255 32:-0.634194 33:0.856817 34:-0.147613 35:0.176753 36:0.690807 37:0.300915 38:-0.255578 39:-0.554790 40:1.116584 41:0.893269 42:-1.448143 43:0.265818 44:1.363445 45:1.994172 46:0.129907 47:-0.775654 48:0.977688 49:-0.004705 50:0.661319 51:1.308075 52:0.944171 53:1.413437 54:1.545935 55:1.032793
-1 1:0.013038 2:0.194324 3:-0.896036 4:1.161756 5:0.793799 6:-0.689669 7:0.604385 8:1.223743 9:0.944693 10:0.482965 11:1.224143 12:-0.370972 13:0.141536 14:0.049960 15:-0.242739 16:0.118651 17:0.025900 18:0.221621 19:-1.357900 20:-2.207854 21:-0.312317 22:0.412125 23:-1.223503 24:1.011252 25:0.264534 26:-1.352675 27:0.006982 28:-0.479506 29:-0.031032 30:0.669756 31:-0.805421 32:-1.800277 33:2.022989 34:-1.292001 35:-1.324843 36:1.125117 37:1.483142 38:0.088481 39:-0.128004 40:0.817785 41:-0.172123 42:-0.795301 43:-1.262540 44:-0.230748 45:-0.075197 46:0.907802 47:0.906912 48:0.277340 49:0.419477 50:-1.538277 51:1.682975 52:-0.001439 53:0.647261 54:0.120847 55:0.958433
-1 1:0.312040 2:-0.596362 3:1.515248 4:0.683303 5:1.415693 6:-0.069387 7:0.207135 8:-0.234820 9:-0.887797 10:0.835850 11:0.464254 12:0.529360 13:-1.253049 14:0.842797 15:1.045391 16:1.546018 17:0.612375 18:-1.124115 19:-0.382962 20:0.388764 21:1.486497 22:0.105685 23:0.996487 24:-0.645157 25:-0.660783 26:1.074966 27:-0.991252 28:-0.878389 29:0.700912 30:0.111749 31:-1.667057 32:-0.703601 33:-0.110375 34:-0.169492 35:0.064643 36:0.127403 37:0.358154 38:-0.421157 39:-0.719925 40:2.141153 41:0.287323 42:0.708047 43:-0.188067 44:-0.072700 45:-1.188238 46:-1.443994 47:-0.659780 48:0.688175 49:-0.187288 50:1.398079 51:1.324623 52:-1.607515 53:2.266739 54:-0.151840 55:-0.239913
-1 1:0.362295 2:-0.651603 3:-1.798477 4:-1.157973 5:0.299317 6:-0.041062 7:0.493394 8:0.856862 9:-1.259313 10:-1.261593 11:0.223607 12:-0.563965 13:0.132775 14:-0.330122 15:-0.070058 16:-1.067379 17:-0.272208 18:1.471172 19:1.098217 20:-0.729184 21:1.189690 22:1.127261 23:0.840564 24:-1.414071 25:-1.556822 26:0.691858 27:-0.709479 28:0.644192 29:-0.201961 30:-0.709299 31:-0.352825 32:-1.281241 33:1.074771 34:0.244911 35:-0.310203 36:0.960591 37:0.521695 38:-0.216699 39:1.604006 40:-1.174490 41:0.617905 42:-0.363024 43:0.978497 44:1.526485 45:1.292485 46:-0.556443 47:0.781430 48:-0.289222 49:1.852649 50:0.202609 51:0.772800 52:-0.577756 53:-1.388844 54:-0.771278 55:0.524631
-1 1:-0.449332 2:1.673151 3:-1.242051 4:-0.644506 5:-1.283814 6:0.460805 7:2.307079 8:-0.967472 9:-0.152356 10:1.844630 11:1.028119 12:-0.801928 13:0.377649 14:0.102826 15:-0.564450 16:-0.911949 17:-0.066007 18:-1.022832 19:-0.651347 20:-0.393531 21:0.083276 22:1.268300 23:-3.244439 24:3.151416 25:-0.653737 26:0.935678 27:-0.666503 28:-0.719230 29:1.739990 30:-0.838229 31:-0.014703 32:0.404808 33:0.544859 34:0.440893 35:0.611300 36:-0.572063 37:-2.011336 38:-0.526641 39:-0.348095 40:-0.488916 41:-1.582087 42:1.238614 43:-0.174642 44:-0.397210 45:2.461871 46:0.163256 47:0.092654 48:0.861256 49:0.080688 50:0.320464 51:-0.466767 52:1.150896 53:0.658069 54:1.506619 55:0.482229
-1 1:1.478766 2:-0.028547 3:-0.641667 4:1.356638 5:0.180633 6:1.073610 7:-1.342231 8:0.140621 9:0.355782 10:0.915961 11:-0.010518 12:0.680714 13:-1.653054 14:1.736325 15:0.094752 16:-0.256388 17:-2.928419 18:-0.914150 19:1.494864 20:-0.720299 21:-1.873457 22:-0.443109 23:-1.364131 24:1.347397 25:-0.036455 26:-1.185885 27:0.319108 28:0.734708 29:0.558914 30:1.533765 31:-0.940152 32:0.497478 33:0.226672 34:0.541623 35:-0.619955 36:0.708444 37:1.197712 38:-1.716190 39:-0.427647 40:0.424388 41:-0.228813 42:0.329065 43:-0.611930 44:-1.212449 45:0.294111 46:0.878322 47:1.403081 48:0.148858 49:-1.481641 50:-0.218931 51:0.355929 52:-0.846402 53:-0.249532 54:-2.349766 55:0.748606
-1 1:0.787801 2:1.655334 3:-0.792907 4:0.385155 5:-1.955502 6:-1.199255 7:-0.369753 8:-1.001582 9:-1.087516 10:0.090109 11:-0.601373 12:1.846186 13:0.910927 14:1.668016 15:-0.627473 16:0.683459 17:-0.772336 18:-0.737307 19:-0.139172 20:0.469568 21:-0.044883 22:0.113635 23:1.219734 24:2.740152 25:-0.019346 26:1.474764 27:1.964568 28:0.495161 29:-0.327332 30:0.388587 31:0.848442 32:-1.171898 33:0.234444 34:0.919896 35:-0.014458 36:-0.188516 37:-0.098109 38:0.775212 39:-1.110135 40:-0.453902 41:0.004694 42:-0.121663 43:-0.335718 44:-0.457731 45:-2.352230 46:-0.319457 47:-1.284359 48:0.245813 49:-0.502949 50:-0.907286 51:-0.689001 52:-0.362395 53:-0.929921 54:-2.327556 55:0.915448
-1 1:-0.154668 2:1.629716 3:-0.497712 4:0.282231 5:-0.720405 6:0.650126 7:1.520841 8:-0.774946 9:-0.270001 10:-0.049292 11:0.752985 12:0.326192 13:1.087251 14:-0.538873 15:0.133063 16:-0.192937 17:-0.136082 18:1.236569 19:0.982300 20:0.010551 21:0.283626 22:1.448217 23:2.420784 24:0.506871 25:-1.402562 26:-0.332285 27:2.388878 28:-1.011416 29:1.441680 30:1.133618 31:-0.527982 32:1.341563 33:-0.125198 34:0.940548 35:-0.730218 36:-0.694759 37:0.774091 38:-0.117981 39:-0.870783 40:-0.532392 41:0.301912 42:-1.011292 43:-0.514671 44:1.852479 45:-1.196833 46:-2.339551 47:-0.410557 48:-1.314064 49:-1.407338 50:-2.395265 51:0.815701 52:-0.219304 53:-1.642003 54:0.583205 55:0.773163
-1 1:-0.388867 2:-0.770216 3:0.477338 4:-0.817574 5:-1.010977 6:0.155528 7:-0.999274 8:-1.080280 9:-0.244147 10:-0.236733 11:-1.369536 12:0.275074 13:-0.602049 14:-0.235635 15:0.073135 16:1.316990 17:1.204400 18:-0.179950 19:0.343470 20:-1.081456 21:-0.829631 22:0.077517 23:-0.453273 24:-1.215209 25:-0.603925 26:-1.816559 27:0.680679 28:1.992219 29:-0.096326 30:0.582502 31:-0.757950 32:1.293748 33:-0.244592 34:2.647528 35:0.078278 36:0.743614 37:-1.090577 38:1.226454 39:-0.521325 40:1.351089 41:-1.210184 42:0.551506 43:-0.039897 44:1.111802 45:-0.171499 46:0.592858 47:0.086612 48:1.326454 49:-1.532649 50:0.941147 51:-1.205178 52:-0.377460 53:0.175634 54:-0.120164 55:-0.033258
-1 1:1.378733 2:-1.239418 3:-0.671518 4:-0.705910 5:-0.883183 6:0.937986 7:-0.002940 8:-0.444723 9:-0.052499 10:0.467138 11:0.722731 12:0.670562 13:-0.805556 14:-0.323673 15:0.556995 16:-0.198508 17:-0.127818 18:1.247984 19:-0.690630 20:-0.259809 21:0.573522 22:-0.264209 23:0.255292 24:1.067984 25:2.289965 26:-0.661875 27:-0.746911 28:-0.223414 29:0.087867 30:-1.053154 31:0.750980 32:0.043775 33:-1.042218 34:-0.044773 35:-1.787006 36:0.742762 37:0.200917 38:-1.731778 39:-0.330149 40:1.218995 41:0.418758 42:0.399197 43:-0.854474 44:-0.196521 45:0.885027 46:-2.241207 47:-0.861912 48:-0.151122 49:0.698912 50:-0.942253 51:-1.298683 52:0.666504 53:-1.404652 54:0.162457 55:0.202326
-1 1:0.903999 2:-0.062230 3:-0.958344 4:-0.571193 5:0.361902 6:1.995648 7:1.458174 8:0.401444 9:0.096928 10:-0.492377 11:0.148168 12:-1.559085 13:-0.378392 14:0.290280 15:-1.583233 16:0.314918 17:-0.775509 18:-0.756162 19:1.522242 20:-0.851164 21:-0.933379 22:0.952081 23:-0.835505 24:1.640406 25:0.220249 26:1.849704 27:0.134354 28:-0.225382 29:0.049937 30:2.036450 31:-0.281046 32:0.564740 33:1.131220 34:-0.918539 35:-1.175226 36:-0.685812 37:-1.927751 38:-0.168499 39:-0.500772 40:0.480319 41:-2.542792 42:-0.137175 43:0.541865 44:-1.124960 45:0.450148 46:-0.984184 47:1.197066 48:-1.699925 49:0.709850 50:1.392681 51:0.590874 52:-0.585803 53:0.441117 54:1.414643 55:0.851099
-1 1:-0.401519 2:-0.213797 3:1.447991 4:-0.748048 5:-0.540054 6:0.205224 7:-0.515107 8:-0.188867 9:-1.607560 10:-0.548904 11:0.559012 12:-0.414129 13:1.296228 14:1.467086 15:-0.442069 16:-0.649883 17:-0.489973 18:1.011388 19:-0.547391 20:-0.043250 21:1.386659 22:0.789715 23:-0.277144 24:0.856345 25:-0.702933 26:0.667157 27:-0.482234 28:-0.141516 29:0.281642 30:-0.850647 31:-0.041233 32:-0.360922 33:0.327067 34:-0.075959 35:0.388774 36:0.166702 37:-2.022415 38:-0.679684 39:-0.888418 40:1.849767 41:-0.439398 42:1.856781 43:0.721360 44:-0.476165 45:0.687428 46:0.257350 47:0.132226 48:0.805363 49:-1.365394 50:-0.638714 51:-0.296897 52:0.760595 53:1.798618 54:0.263885 55:0.361577
-1 1:-0.062100 2:0.857950 3:-0.199433 4:1.080013 5:1.556220 6:-1.393368 7:-0.239734 8:-0.317594 9:0.196356 10:0.430743 11:1.366677 12:-0.096480 13:0.464103 14:0.609301 15:-1.418096 16:-0.030457 17:1.955036 18:0.179767 19:0.236110 20:-2.134496 21:0.864589 22:0.053821 23:0.687372 24:0.449612 25:-0.738693 26:-0.571096 27:1.637250 28:0.690383 29:-0.252476 30:-0.450885 31:0.060865 32:-0.903691 33:-1.146513 34:-0.228621 35:-1.819700 36:1.403488 37:-0.180242 38:-0.994023 39:0.955030 40:0.478462 41:0.162830 42:-0.303646 43:-0.066510 44:-0.847745 45:-0.559016 46:0.595634 47:-0.789044 48:-0.744090 49:-0.133999 50:-0.221983 51:-1.257718 52:-0.079702 53:-0.350528 54:-1.331132 55:-1.379883
-1 1:-1.661227 2:-1.247102 3:-0.724217 4:0.914852 5:0.488182 6:0.352935 7:-0.369767 8:-0.289253 9:-0.839914 10:0.510584 11:-0.074586 12:0.219556 13:-1.598901 14:1.876534 15:-0.538010 16:-1.596236 17:0.532423 18:-0.256127 19:-1.082053 20:-0.824269 21:-0.247457 22:-1.667923 23:-0.505421 24:-1.206400 25:0.264968 26:0.991420 27:0.093162 28:0.885144 29:1.198318 30:-0.139699 31:1.292519 32:-0.228565 33:0.207559 34:-0.884408 35:0.862302 36:1.043475 37:-0.763720 38:-0.233727 39:-0.948340 40:2.272394 41:-0.895561 42:0.494263 43:0.597547 44:1.058849 45:2.778673 46:0.678661 47:-0.646038 48:0.780527 49:-0.588272 50:1.325500 51:-0.948913 52:-0.787851 53:-0.368972 54:-0.600966 55:-0.557403
-1 1:-0.392800 2:0.239885 3:-1.115156 4:-0.183846 5:0.426476 6:-1.289998 7:-0.925870 8:1.020330 9:-0.286243 10:0.040401 11:-0.317107 12:0.223750 13:1.172699 14:1.060017 15:0.767015 16:1.357127 17:0.869410 18:-1.157344 19:-0.845023 20:-1.941868 21:-0.867092 22:0.579079 23:-0.161850 24:-0.095591 25:0.202711 26:0.310901 27:1.589596 28:0.018486 29:-0.860658 30:-0.334582 31:-0.541596 32:-0.459971 33:0.996839 34:-1.379115 35:0.985995 36:-0.897923 37:0.404051 38:-0.183253 39:-1.120303 40:1.137917 41:-0.195381 42:-0.263122 43:0.051866 44:-0.044308 45:-0.224744 46:-0.263670 47:0.559714 48:1.915830 49:-0.033045 50:0.533578 51:-0.515572 52:0.566457 53:1.218148 54:1.141364 55:1.445371
-1 1:-1.160841 2:-0.008794 3:0.586615 4:0.035326 5:-0.309973 6:1.238957 7:-1.030319 8:-1.662046 9:0.162615 10:-0.513572 11:-0.223895 12:-1.204797 13:0.513673 14:-0.487176 15:0.000557 16:0.584772 17:-0.712885 18:-1.115829 19:-1.542824 20:-0.021605 21:-0.999391 22:0.719463 23:2.279540 24:-1.404332 25:-0.178606 26:0.420870 27:-0.694271 28:-3.198460 29:-0.334717 30:-0.905163 31:-0.644005 32:1.420136 33:0.238005 34:0.639171 35:-0.489695 36:-0.382883 37:-0.188540 38:0.396192 39:0.681877 40:-0.984708 41:2.286615 42:-1.107427 43:-0.180615 44:-0.468646 45:-0.775727 46:0.401768 47:1.002593 48:0.190893 49:-1.603738 50:0.812335 51:0.467562 52:-1.459536 53:-0.940281 54:-0.736507 55:-0.746261
-1 1:0.353609 2:-0.533909 3:0.725816 4:-1.402018 5:1.297762 6:-0.811321 7:1.254620 8:0.057643 9:-0.931961 10:-0.306425 11:-2.039838 12:-0.127887 13:-1.550301 14:-0.445250 15:-1.541219 16:-0.031748 17:-1.404571 18:-0.649106 19:-0.087196 20:-0.128576 21:0.367802 22:-1.025520 23:0.850072 24:0.215524 25:-0.236030 26:0.321609 27:-0.364930 28:-0.073429 29:0.157398 30:-1.984332 31:2.814233 32:-2.291834 33:0.945192 34:-1.001845 35:-0.845000 36:-0.612043 37:0.147015 38:-0.138000 39:1.631670 40:1.204782 41:0.605647 42:1.304022 43:-0.534790 44:-2.107700 45:-0.823300 46:-0.233100 47:1.486100 48:-0.260093 49:-0.832694 50:0.894816 51:-0.041556 52:-0.457392 53:-0.357205 54:0.063343 55:0.572230
-1 1:-0.697350 2:1.795838 3:0.725875 4:-0.646561 5:-0.831700 6:-0.788556 7:-0.011185 8:0.048843 9:-2.027431 10:1.272055 11:-0.347721 12:0.915089 13:-0.951853 14:1.935604 15:-1.252647 16:-1.217617 17:-0.453805 18:-0.423113 19:-0.618763 20:-0.596199 21:1.222683 22:0.768574 23:0.205784 24:-0.453635 25:0.584362 26:1.268897 27:0.304622 28:1.676071 29:-0.244288 30:0.280903 31:-0.710942 32:0.284581 33:-0.284446 34:-0.414697 35:0.967843 36:-0.974653 37:0.321766 38:0.907519 39:0.344496 40:-0.635925 41:1.344028 42:-0.639305 43:0.444860 44:-0.429921 45:-0.259831 46:0.148431 47:-0.061774 48:-1.337536 49:0.787006 50:-0.017620 51:-0.516221 52:-0.930887 53:0.483551 54:1.357526 55:-1.689138
-1 1:-0.410038 2:0.360089 3:0.115600 4:-0.169668 5:0.000560 6:0.456097 7:1.528509 8:0.072109 9:-0.043903 10:-2.059187 11:-0.061592 12:-0.017469 13:-0.193177 14:2.250116 15:-1.991927 16:0.576585 17:-0.883682 18:0.924735 19:-0.891466 20:0.024245 21:0.460032 22:0.671446 23:1.182106 24:0.089344 25:-0.110460 26:1.700986 27:1.623173 28:0.179672 29:0.427234 30:-0.300369 31:2.387834 32:-0.605475 33:-0.685892 34:1.724270 35:-0.676610 36:0.621078 37:-1.234138 38:0.017473 39:-0.239899 40:1.412203 41:1.459148 42:0.327749 43:2.530406 44:-0.619381 45:0.045727 46:0.476342 47:-0.362240 48:0.520973 49:-1.038267 50:0.811384 51:-0.113760 52:-0.239411 53:-0.609196 54:-0.011653 55:1.998600
-1 1:0.544853 2:-1.375879 3:-0.558473 4:0.748833 5:-0.062195 6:0.596966 7:-0.521400 8:-1.556016 9:-0.157756 10:-0.307926 11:-0.510035 12:0.073676 13:1.430196 14:-0.761927 15:0.593932 16:0.423583 17:-0.662422 18:-0.118569 19:0.033625 20:-0.178248 21:-3.104508 22:0.621814 23:1.344541 24:1.424068 25:0.687593 26:0.245124 27:-0.067782 28:1.496615 29:1.012711 30:0.633677 31:-0.137555 32:-0.688413 33:-0.288851 34:1.131719 35:-0.840418 36:1.238193 37:2.157436 38:-1.005433 39:-0.971658 40:-0.589807 41:0.604067 42:2.038806 43:1.451017 44:-0.620439 45:0.293450 46:0.410931 47:0.084015 48:0.986792 49:-0.180155 50:0.079424 51:2.036231 52:0.005414 53:0.139056 54:-1.645036 55:0.910391
-1 1:-1.361713 2:2.275875 3:0.138729 4:-0.231593 5:0.551300 6:-0.877813 7:-0.465540 8:-0.679680 9:-1.340398 10:0.221672 11:0.178631 12:0.447226 13:1.680763 14:-0.239228 15:-1.869276 16:0.144620 17:0.150050 18:1.391977 19:-1.683651 20:-0.004674 21:-0.010224 22:-0.585150 23:-0.676461 24:0.408789 25:-1.325841 26:1.168463 27:1.501678 28:2.000516 29:-1.751079 30:0.364794 31:0.129332 32:1.729697 33:1.028138 34:0.019825 35:-2.132427 36:-0.500212 37:-0.210447 38:0.120152 39:-0.604808 40:-0.594248 41:-2.613694 42:-1.464259 43:-0.354606 44:0.523611 45:-2.260345 46:-1.035556 47:0.986236 48:0.344602 49:-0.465457 50:-0.231168 51:0.454448 52:-1.117412 53:0.339288 54:2.963655 55:-1.699549
-1 1:1.798022 2:-1.598437 3:1.686242 4:-1.054477 5:-0.959480 6:1.258149 7:0.252840 8:-1.266303 9:-0.856724 10:0.952396 11:0.574108 12:-0.050751 13:1.169897 14:0.426435 15:-0.161978 16:-1.666567 17:0.452127 18:1.727511 19:1.413475 20:-0.309231 21:0.040636 22:1.089986 23:-1.982208 24:-0.632550 25:0.433487 26:0.229212 27:0.149271 28:1.224142 29:-0.274048 30:0.929384 31:0.792674 32:0.377367 33:-0.295762 34:0.076586 35:1.163723 36:-0.902325 37:-0.518542 38:1.081732 39:0.688890 40:1.040520 41:0.290901 42:1.276365 43:-1.103078 44:-0.071528 45:-1.592653 46:0.379824 47:-0.965434 48:1.044036 49:-0.207739 50:0.170920 51:-0.522523 52:1.208547 53:-0.442554 54:0.661116 55:0.207981
-1 1:-0.122400 2:-0.286260 3:-0.153631 4:-0.484422 5:0.761419 6:0.368491 7:-1.533531 8:1.132714 9:0.301845 10:-0.700882 11:0.078473 12:1.179829 13:0.003675 14:0.593393 15:-1.588049 16:0.741262 17:0.716998 18:-1.351619 19:-0.416439 20:-0.585930 21:-0.064824 22:-1.039235 23:-0.202774 24:-1.542012 25:0.320736 26:-0.442906 27:-0.144210 28:-1.281411 29:-0.231446 30:-0.283597 31:0.210832 32:0.736373 33:1.198783 34:-1.038485 35:0.216133 36:-0.502149 37:-1.545120 38:0.135431 39:1.041994 40:-0.836452 41:-0.449148 42:0.596647 43:0.562140 44:1.025719 45:0.383074 46:-1.053305 47:-0.550576 48:-0.821792 49:1.256097 50:0.746151 51:0.720597 52:-0.432684 53:-0.426433 54:0.628454 55:0.264458
-1 1:1.159276 2:-1.758529 3:0.446364 4:-0.399130 5:-1.290784 6:-0.412379 7:1.334337 8:1.767922 9:-1.829226 10:-0.935623 11:0.114675 12:0.287212 13:1.556721 14:-1.289723 15:-0.548639 16:0.318741 17:-0.742497 18:-1.075697 19:2.089782 20:-0.734219 21:1.391901 22:-0.433768 23:-0.526644 24:1.023140 25:-1.842649 26:-0.023127 27:-0.379900 28:-0.550661 29:0.389302 30:-1.542770 31:-0.580414 32:-1.046538 33:1.888982 34:-1.494252 35:1.423408 36:2.205377 37:-0.398137 38:1.871959 39:0.020996 40:0.592549 41:0.711626 42:0.806550 43:-0.573641 44:2.653894 45:0.916935 46:0.574513 47:-1.928760 48:-0.249518 49:0.033915 50:-0.732657 51:-0.266930 52:-1.167023 53:0.288900 54:-0.478111 55:-0.702908
-1 1:0.115297 2:2.038641 3:0.041821 4:0.822739 5:-0.367494 6:-1.349227 7:-0.740968 8:-0.738319 9:1.332643 10:0.741031 11:1.424194 12:-1.179338 13:-0.136055 14:0.221034 15:-0.933639 16:0.149420 17:0.503428 18:-0.983303 19:1.477576 20:0.856632 21:1.866757 22:0.447760 23:-0.049224 24:-0.120417 25:-0.322632 26:0.473991 27:1.391951 28:0.384471 29:-0.168793 30:0.554965 31:0.211754 32:-0.365562 33:0.206156 34:0.637500 35:-0.003046 36:-1.112486 37:-1.918701 38:-0.163623 39:0.332137 40:0.857507 41:0.405119 42:0.139968 43:1.131263 44:0.134092 45:-0.679665 46:0.498581 47:-0.606436 48:-0.709246 49:-0.307208 50:0.668038 51:-2.536905 52:0.169437 53:-0.407957 54:0.749980 55:0.535555
-1 1:0.852495 2:-0.627415 3:0.271460 4:-0.776021 5:1.490318 6:1.429603 7:-0.419874 8:-2.023097 9:1.103275 10:-0.641401 11:-1.253378 12:-0.602791 13:-0.085534 14:-1.126208 15:0.488917 16:-2.762580 17:0.586129 18:0.254295 19:-0.812197 20:0.535116 21:0.057646 22:-1.250759 23:-0.495549 24:0.557404 25:0.024764 26:0.368498 27:1.202368 28:1.024411 29:-1.299315 30:1.279863 31:-1.468284 32:-0.512986 33:-0.418876 34:0.955197 35:-0.029689 36:-0.996710 37:-0.386903 38:0.447324 39:0.290691 40:-0.634251 41:0.438081 42:0.541087 43:0.094159 44:1.429818 45:0.596141 46:-1.005828 47:0.122905 48:-1.165714 49:0.408896 50:0.764091 51:-0.188907 52:0.387538 53:2.187954 54:1.205237 55:0.274118
-1 1:-0.110580 2:0.345035 3:0.552161 4:-1.154617 5:-1.302718 6:-0.857687 7:-1.412631 8:-0.417450 9:-1.957077 10:1.223870 11:0.340244 12:0.330738 13:0.936021 14:0.871477 15:0.080242 16:-0.925592 17:0.262442 18:-0.948355 19:1.728482 20:0.074473 21:0.376109 22:0.392031 23:-0.537003 24:0.602636 25:-1.326829 26:-1.079689 27:-2.167537 28:-0.087364 29:-0.707346 30:-0.291643 31:1.687004 32:0.182867 33:-0.497939 34:0.384845 35:0.807908 36:0.307956 37:-0.663220 38:-1.296888 39:-0.834120 40:-0.455153 41:1.144302 42:1.125215 43:-0.884340 44:-0.844446 45:-0.768329 46:1.374175 47:-1.672841 48:-0.545084 49:0.387827 50:-0.211788 51:0.108194 52:-2.713045 53:0.109485 54:-0.523429 55:0.305986
-1 1:0.871818 2:0.659360 3:-0.819119 4:-1.131876 5:-0.384054 6:0.191511 7:-1.537091 8:2.969987 9:0.588593 10:-1.021805 11:-0.158976 12:-0.269220 13:1.399198 14:0.453829 15:0.986340 16:-0.868064 17:-0.854717 18:0.259709 19:0.810506 20:0.698747 21:-0.413530 22:-0.523701 23:0.047104 24:-1.157410 25:0.126170 26:-1.630576 27:0.699644 28:-0.885727 29:-1.452059 30:1.012697 31:0.684501 32:0.513820 33:0.342889 34:0.786956 35:0.406537 36:1.276655 37:-2.196184 38:1.248790 39:-0.024634 40:0.526807 41:-0.192301 42:-1.086480 43:1.977109 44:0.196582 45:0.448925 46:-0.239183 47:0.741615 48:-1.597281 49:2.036149 50:-0.833996 51:-2.880106 52:0.233561 53:-1.554855 54:-0.446199 55:-1.016632
-1 1:0.610394 2:-0.930138 3:0.055547 4:0.877760 5:-1.690811 6:2.180400 7:-0.986287 8:0.881137 9:-1.669311 10:-0.657581 11:-2.085654 12:0.606586 13:-1.383702 14:-1.911313 15:-0.392135 16:-2.086112 17:0.911833 18:-1.363399 19:-0.818620 20:-1.541901 21:-1.701711 22:0.323783 23:-0.526200 24:-1.322500 25:3.609992 26:-0.307142 27:-0.190677 28:1.315271 29:-2.700261 30:0.382046 31:1.781572 32:0.152799 33:0.437462 34:-0.563823 35:0.375450 36:0.990803 37:0.314467 38:-1.272504 39:-0.198841 40:0.544531 41:1.996160 42:-0.955250 43:-2.236834 44:0.459775 45:-2.019557 46:0.171575 47:-1.631879 48:0.772444 49:-0.606836 50:-1.671252 51:2.201978 52:-0.882400 53:0.336297 54:-0.122308 55:-0.394080
-1 1:1.264690 2:0.279045 3:0.204005 4:-1.915991 5:-0.941689 6:-0.937760 7:0.839236 8:-0.077179 9:-0.432715 10:-0.292174 11:-0.152114 12:0.437492 13:0.494382 14:-1.122275 15:0.740292 16:-1.417883 17:-0.723187 18:-0.669860 19:-0.155495 20:-0.231231 21:-0.084648 22:1.220960 23:0.728178 24:-0.437072 25:0.624497 26:-0.001855 27:-0.696505 28:-0.826263 29:-0.532730 30:-2.501047 31:0.782960 32:-0.402283 33:-1.403414 34:0.126582 35:1.631822 36:-0.353509 37:-1.465158 38:-0.242395 39:0.738349 40:1.713341 41:-0.606604 42:-0.218978 43:-0.670635 44:0.660161 45:0.859082 46:-0.867299 47:0.693615 48:1.265553 49:0.441894 50:-1.360449 51:0.292590 52:-1.350971 53:-1.224209 54:-0.252102 55:0.234953
-1 1:-0.555870 2:0.348914 3:-0.155556 4:-1.036956 5:-1.172163 6:0.386631 7:-2.034145 8:0.410440 9:0.638554 10:1.796728 11:0.109528 12:0.800524 13:-0.063368 14:1.842803 15:0.184693 16:0.858513 17:0.304208 18:-1.447709 19:1.080593 20:0.339094 21:-0.820719 22:-1.546809 23:-0.591926 24:-0.127754 25:0.477000 26:1.119407 27:-0.201280 28:2.437015 29:0.828586 30:-0.027654 31:-1.420912 32:0.311789 33:0.091049 34:-0.666705 35:-0.817527 36:-2.171952 37:-0.267986 38:-0.887929 39:-0.051463 40:-0.271149 41:-0.021281 42:-0.699475 43:0.695222 44:1.697476 45:-1.657247 46:0.587846 47:-0.098861 48:0.584284 49:0.633356 50:-2.216551 51:0.449352 52:0.228386 53:-0.203420 54:0.198381 55:-0.997435
-1 1:-0.593756 2:0.958714 3:-1.036040 4:0.625313 5:0.999940 6:-0.713202 7:-0.712334 8:-1.556405 9:-0.148751 10:-0.947918 11:1.347807 12:-0.705624 13:-1.532381 14:1.130933 15:0.760920 16:-0.244976 17:0.191984 18:0.864612 19:1.686762 20:0.128691 21:0.030820 22:-0.022502 23:-0.222080 24:-1.216087 25:-1.913834 26:-0.221922 27:-0.489898 28:-0.601478 29:-1.062878 30:-2.503363 31:-0.469972 32:0.592231 33:2.958820 34:-0.015063 35:-0.004303 36:-0.608846 37:-0.742621 38:-1.798198 39:-1.967789 40:1.534120 41:1.664126 42:-0.401288 43:0.186567 44:1.852315 45:-1.112667 46:0.296093 47:-1.914792 48:-1.565738 49:1.960464 50:-0.627821 51:-0.973868 52:1.220352 53:1.019057 54:0.207556 55:1.344335
-1 1:0.738297 2:-1.105428 3:-0.225949 4:1.594310 5:0.614746 6:0.386406 7:-1.298418 8:1.572224 9:-2.100804 10:0.234153 11:-1.145482 12:-0.255797 13:-0.055997 14:1.512390 15:0.940863 16:0.334079 17:1.219035 18:0.865737 19:1.567093 20:-0.962137 21:0.288605 22:0.018822 23:-0.347585 24:-0.735522 25:0.566877 26:0.228040 27:1.576456 28:-1.647586 29:0.295261 30:-2.667401 31:1.077663 32:0.043728 33:0.015996 34:1.628767 35:-0.330012 36:-0.079535 37:-0.379627 38:0.309266 39:-0.818151 40:-0.413493 41:-0.653603 42:-1.473304 43:0.123101 44:1.292099 45:1.633836 46:-0.737931 47:0.211471 48:-2.017885 49:-2.048838 50:-0.074855 51:1.733549 52:0.521345 53:0.817080 54:1.508681 55:0.309627
-1 1:-0.307334 2:1.144798 3:0.574692 4:0.323430 5:-0.868873 6:-1.985953 7:1.533875 8:0.519631 9:-1.154581 10:-1.004768 11:-0.880415 12:0.111236 13:0.357924 14:-0.674216 15:0.515464 16:1.577137 17:0.930859 18:1.279257 19:0.273805 20:0.259090 21:-0.773216 22:-2.943593 23:-1.658745 24:1.051700 25:0.207268 26:0.874397 27:-0.055887 28:2.521864 29:0.737832 30:0.452312 31:-1.433620 32:-1.593292 33:0.190804 34:-0.047037 35:-0.708702 36:1.001660 37:-0.730965 38:0.021740 39:-0.019207 40:1.836345 41:0.040666 42:-2.271456 43:2.261391 44:1.491287 45:-1.490427 46:-0.102218 47:1.306450 48:0.471961 49:0.040889 50:-1.102101 51:0.251098 52:2.118400 53:-0.926847 54:-0.699755 55:0.425689
-1 1:2.152600 2:-0.495319 3:1.427458 4:2.317239 5:1.345227 6:-0.891894 7:-0.400351 8:0.369524 9:-1.425873 10:-0.592005 11:-0.075327 12:-1.612319 13:1.093089 14:-0.614068 15:0.572077 16:-0.394873 17:-1.547417 18:1.535441 19:0.363137 20:1.416387 21:0.970083 22:-1.571678 23:0.308898 24:-0.072465 25:0.273019 26:0.219436 27:1.653617 28:1.069422 29:0.172006 30:0.296242 31:0.817209 32:0.719490 33:-1.554327 34:-0.904887 35:1.154549 36:0.744096 37:0.277228 38:-1.267366 39:0.467046 40:0.315888 41:0.855586 42:-1.211801 43:0.578535 44:1.520154 45:1.422688 46:-0.058104 47:-1.884210 48:0.874828 49:-2.048907 50:2.069528 51:0.636517 52:-1.160664 53:-1.220087 54:-0.210682 55:0.455951
-1 1:1.470283 2:-0.649798 3:-0.470402 4:0.633929 5:-0.563858 6:1.258443 7:-0.215178 8:0.755479 9:-0.494575 10:-0.622867 11:-0.273688 12:0.602968 13:-1.385854 14:-1.706505 15:-0.684474 16:0.943731 17:0.589733 18:0.487944 19:-0.249957 20:1.584694 21:-0.974302 22:-0.344628 23:2.259078 24:0.663238 25:0.145348 26:0.294949 27:1.770332 28:1.093022 29:0.029530 30:-1.170783 31:-1.099090 32:1.748028 33:-0.446276 34:-0.196964 35:0.976970 36:0.739141 37:-0.450272 38:-0.163724 39:-2.622652 40:0.234377 41:-0.403056 42:1.462929 43:-1.891025 44:-0.403192 45:-0.400306 46:1.074634 47:0.113285 48:0.931981 49:-2.763319 50:-0.626315 51:-0.924255 52:-0.078202 53:-0.113972 54:-1.307328 55:0.050877
-1 1:1.190035 2:0.950854 3:-0.170343 4:-0.145463 5:1.617130 6:0.739827 7:0.390977 8:-0.809166 9:-0.622078 10:0.218595 11:0.390105 12:-0.132607 13:-0.419394 14:-0.059172 15:-2.969686 16:-0.614960 17:0.523072 18:-0.123350 19:-0.449608 20:0.377026 21:0.595496 22:0.834858 23:-0.072972 24:1.448826 25:1.092976 26:1.633766 27:0.946419 28:0.886038 29:0.623758 30:2.308983 31:0.380311 32:-1.396465 33:-0.575645 34:-1.807823 35:1.210822 36:-0.806028 37:-0.121774 38:-0.073930 39:-0.859215 40:-0.407797 41:0.583314 42:-0.112698 43:0.109196 44:0.601875 45:-0.220105 46:2.262333 47:-0.992939 48:0.305163 49:-0.528347 50:0.341338 51:0.131968 52:0.630125 53:-1.138933 54:0.297757 55:-1.268476
-1 1:0.684127 2:0.163208 3:1.285912 4:0.459315 5:0.155658 6:-1.846705 7:0.536466 8:-0.596804 9:0.561017 10:1.013708 11:-0.618651 12:-0.429489 13:0.680972 14:0.036919 15:0.170378 16:0.273650 17:-0.162846 18:-0.502519 19:0.763362 20:-0.158858 21:0.227941 22:-0.168456 23:-1.450150 24:-0.603731 25:-1.152774 26:0.618538 27:0.458448 28:0.711282 29:-0.924276 30:-0.547941 31:1.264367 32:0.199087 33:0.265646 34:0.085959 35:2.899878 36:-0.187179 37:0.142135 38:0.733786 39:-1.153152 40:0.528131 41:-0.423351 42:-1.335276 43:-1.102018 44:-0.331056 45:0.244995 46:-1.281341 47:-0.204727 48:-0.900225 49:-0.916335 50:1.661445 51:0.192801 52:-1.266910 53:-0.236577 54:0.368310 55:1.097018
-1 1:-1.989785 2:-0.312389 3:0.075506 4:1.172197 5:1.975182 6:-0.929907 7:-0.540499 8:0.047316 9:-0.416582 10:2.133910 11:0.287906 12:0.194600 13:0.372353 14:-0.709727 15:-1.218669 16:0.035383 17:0.620328 18:0.098060 19:0.540981 20:0.782601 21:1.120006 22:0.701078 23:0.266878 24:0.415353 25:0.452523 26:0.268029 27:-0.160998 28:-0.840041 29:0.308214 30:-1.067403 31:-0.452222 32:1.652534 33:1.349015 34:-1.660487 35:0.635266 36:-0.166004 37:-0.483060 38:-1.214436 39:0.266167 40:-0.481446 41:-0.958548 42:-1.274053 43:-0.308531 44:-2.351810 45:0.197286 46:-1.479080 47:-1.893698 48:-0.479620 49:-0.586342 50:-0.350757 51:0.165064 52:0.447241 53:0.093098 54:0.302952 55:-1.458214
-1 1:-0.787452 2:-0.147857 3:-0.385252 4:-0.355217 5:0.597301 6:2.608891 7:1.308301 8:0.698703 9:0.956872 10:0.330026 11:0.256800 12:0.091079 13:-1.216353 14:1.399949 15:-0.286984 16:-0.779047 17:0.751365 18:-0.737354 19:0.922844 20:-0.837667 21:0.051642 22:-0.614950 23:0.678672 24:-1.346708 25:-1.028945 26:-1.136620 27:1.455808 28:0.988185 29:-0.659162 30:0.364280 31:-0.177057 32:-2.480670 33:-0.033597 34:-1.136621 35:-1.659088 36:1.296647 37:-0.072374 38:0.186811 39:0.189089 40:-0.190491 41:-1.642094 42:1.869204 43:-0.658229 44:0.386631 45:-0.106755 46:-0.078881 47:1.681962 48:1.216821 49:0.234340 50:0.307847 51:-0.561455 52:-0.528338 53:0.432135 54:0.397194 55:0.684316
-1 1:2.175995 2:-0.169800 3:-0.137155 4:0.435797 5:-0.345967 6:0.906348 7:-1.129374 8:-0.078477 9:-0.709785 10:0.149824 11:0.467741 12:0.556303 13:-0.394184 14:-1.034465 15:0.779384 16:0.991901 17:0.534570 18:0.159433 19:-1.453883 20:-2.513152 21:0.266226 22:0.180338 23:-1.322835 24:-0.107900 25:-1.603553 26:-0.446500 27:1.845669 28:1.291316 29:-0.840576 30:-1.424108 31:0.266865 32:0.395199 33:-0.343845 34:0.800968 35:-0.541075 36:-0.948706 37:2.184681 38:-1.043097 39:0.962365 40:0.723193 41:0.000811 42:1.986955 43:-1.304795 44:-0.837606 45:-0.592426 46:1.071612 47:1.852409 48:0.100139 49:-1.318021 50:-0.933977 51:-0.763746 52:0.226146 53:-0.283272 54:0.009724 55:1.198360
-1 1:2.211415 2:-1.058927 3:2.107258 4:-1.144043 5:-1.807841 6:-1.186674 7:2.256577 8:0.462800 9:-0.319268 10:-0.866998 11:0.961127 12:-0.608572 13:0.661846 14:-0.563822 15:0.389627 16:-0.073872 17:0.894925 18:2.866286 19:-0.337200 20:0.675967 21:1.260496 22:-1.551077 23:-0.851819 24:0.651985 25:0.797106 26:0.671288 27:0.259903 28:-0.289909 29:-1.545766 30:0.003177 31:0.087344 32:0.627895 33:-0.440808 34:-0.502684 35:0.872139 36:0.735880 37:-0.498755 38:1.006622 39:0.774829 40:-0.404305 41:0.323517 42:1.532261 43:-0.795354 44:0.609715 45:-0.158434 46:-0.186627 47:0.797627 48:-0.379192 49:-0.881730 50:-0.330944 51:0.285344 52:-0.358418 53:-0.559617 54:1.053085 55:0.552835
-1 1:0.168260 2:-0.199072 3:-0.039268 4:0.599744 5:-0.412403 6:0.183671 7:-1.319383 8:-1.196693 9:-1.183707 10:0.818611 11:0.653641 12:-0.309538 13:-1.755696 14:-0.904607 15:-0.029832 16:0.615015 17:1.960257 18:-1.118383 19:0.923332 20:0.689413 21:-1.108442 22:1.951129 23:-0.159537 24:0.528869 25:-0.469296 26:-0.073280 27:-1.970424 28:-0.247559 29:-0.279252 30:-1.729538 31:-0.267469 32:-0.468376 33:-1.908668 34:0.540351 35:-1.572327 36:0.056195 37:-0.234626 38:0.424541 39:-0.319130 40:-0.576784 41:-0.327711 42:1.643173 43:-0.164415 44:1.502958 45:0.680678 46:-0.582020 47:-0.995235 48:0.785238 49:0.233106 50:1.035439 51:0.577778 52:-0.060560 53:0.176787 54:0.159522 55:-0.104653
-1 1:-1.226536 2:-1.779283 3:0.793761 4:0.799939 5:0.534103 6:0.900181 7:2.237183 8:0.744312 9:-0.391994 10:-1.482839 11:-0.449177 12:-0.930347 13:-1.407240 14:-0.297703 15:-0.871801 16:2.524667 17:-0.260304 18:-0.536700 19:1.437514 20:-2.062083 21:0.335617 22:-0.029094 23:0.508959 24:-2.269397 25:0.494276 26:0.991704 27:1.220233 28:-0.564987 29:0.879326 30:-1.098101 31:0.020016 32:0.525097 33:-2.124336 34:1.239424 35:-0.356508 36:-0.173348 37:1.695079 38:-0.229024 39:-0.084639 40:0.087451 41:1.354143 42:-0.597255 43:-1.444270 44:-0.896352 45:0.041002 46:2.792255 47:-0.104917 48:0.933411 49:-1.336008 50:-0.812087 51:-0.267185 52:0.143029 53:1.464002 54:0.132575 55:0.365456
-1 1:0.656086 2:-0.150364 3:-0.960527 4:1.329037 5:-0.096050 6:-0.621229 7:1.594308 8:1.012668 9:2.420183 10:0.081864 11:0.174859 12:-0.667523 13:1.481939 14:-0.198583 15:-0.481422 16:0.799832 17:-0.072260 18:0.984388 19:-2.329111 20:-1.617875 21:-0.414994 22:-2.109422 23:-0.748065 24:0.213489 25:1.190197 26:0.852390 27:0.644813 28:1.180825 29:0.290062 30:-0.982410 31:1.438290 32:0.653167 33:-0.064240 34:0.340124 35:-0.890772 36:1.347249 37:-0.106043 38:0.761399 39:0.675106 40:0.956244 41:0.609334 42:-0.364901 43:-0.361474 44:-0.414606 45:0.376279 46:-1.061935 47:0.365561 48:-0.105704 49:-0.896230 50:1.640490 51:1.056511 52:1.394648 53:0.885669 54:-1.651665 55:-0.407414
-1 1:-1.566805 2:1.239509 3:0.174070 4:-0.167870 5:-0.826765 6:-0.110849 7:1.470448 8:-1.606564 9:1.114690 10:-1.096037 11:0.012212 12:1.839525 13:-0.409584 14:0.430968 15:-1.337980 16:-0.710218 17:-1.328636 18:-1.871913 19:-0.270796 20:-1.108770 21:0.037393 22:-2.165007 23:0.671394 24:2.087604 25:0.086284 26:-0.180453 27:-0.606382 28:0.894087 29:-1.030837 30:0.804889 31:-1.718483 32:-0.356793 33:-0.840720 34:2.249716 35:0.097023 36:-0.504144 37:0.440447 38:1.484046 39:-0.830624 40:-1.059749 41:-0.379102 42:-0.971958 43:-0.186107 44:0.243201 45:0.613842 46:-2.999428 47:2.733379 48:-0.616649 49:1.862599 50:0.566529 51:0.694403 52:1.324280 53:-0.794826 54:0.520333 55:-1.499637
-1 1:-0.025442 2:-1.039738 3:-0.884206 4:0.696956 5:1.142057 6:2.821723 7:-0.202218 8:-1.702761 9:0.096570 10:-0.157567 11:-0.194556 12:-0.049428 13:0.038560 14:-0.282162 15:1.112236 16:-1.385688 17:-0.032303 18:0.520129 19:-0.159768 20:0.094878 21:-0.687266 22:-0.265511 23:0.925157 24:-1.207275 25:1.221211 26:1.127121 27:-0.358488 28:-0.683676 29:-2.453144 30:-0.318918 31:-0.209648 32:-1.226368 33:-0.550637 34:0.047628 35:1.802430 36:-0.496716 37:-0.047273 38:0.183497 39:-0.565769 40:-0.089164 41:0.877435 42:0.209330 43:-0.279365 44:0.830678 45:0.292145 46:-0.936718 47:0.145962 48:1.505333 49:-0.710662 50:1.580871 51:-1.922683 52:-0.484400 53:-1.504352 54:1.312650 55:-0.100469
-1 1:-1.019865 2:1.475174 3:0.623837 4:0.255243 5:0.290625 6:-0.580934 7:-0.555840 8:0.396735 9:-0.141660 10:1.121800 11:-1.721119 12:-0.805499 13:0.823643 14:-1.593347 15:-0.734973 16:-2.080688 17:-0.520091 18:0.241103 19:-0.302676 20:-0.077156 21:0.799710 22:2.059660 23:0.652327 24:-0.788111 25:1.030317 26:0.751324 27:-1.193838 28:-0.761118 29:0.571508 30:0.674543 31:-1.832987 32:-0.620686 33:0.163033 34:2.005719 35:0.365463 36:-0.683018 37:0.144656 38:0.522859 39:-2.477150 40:1.391175 41:0.538226 42:0.117996 43:0.952800 44:-2.066532 45:-0.657991 46:2.176856 47:-0.705585 48:0.825080 49:-0.507347 50:0.247118 51:-1.014842 52:-0.285157 53:-0.228624 54:-0.828502 55:1.116024
-1 1:1.595189 2:-0.979402 3:-0.500322 4:-2.063796 5:-0.227559 6:0.999088 7:-1.773505 8:-0.657996 9:0.751666 10:-0.268039 11:-0.950257 12:0.322964 13:-0.507583 14:-1.251717 15:1.112389 16:-0.494315 17:0.984776 18:-0.323323 19:-1.038756 20:-0.905958 21:-0.155290 22:-1.057257 23:0.434724 24:0.387370 25:1.359073 26:0.133875 27:-0.545963 28:1.037941 29:0.125157 30:0.496124 31:0.430257 32:0.164427 33:1.157916 34:-1.278898 35:0.447507 36:0.424964 37:1.237329 38:1.790699 39:0.997263 40:-0.562808 41:0.929495 42:0.954219 43:-0.322166 44:-0.464209 45:1.107075 46:0.579120 47:0.828516 48:-1.336927 49:0.507222 50:-0.284830 51:-0.184079 52:-0.374369 53:-0.716433 54:-0.207851 55:0.202293
-1 1:-0.853379 2:-0.913693 3:-1.673222 4:0.018092 5:-0.024155 6:1.715647 7:1.408541 8:1.532493 9:0.898790 10:0.287496 11:0.808688 12:-0.144340 13:-1.460776 14:-0.422582 15:-1.306677 16:1.401446 17:-0.946275 18:-1.489256 19:0.534196 20:1.037957 21:-0.212890 22:-0.258291 23:0.271001 24:-1.290388 25:-0.776295 26:0.007983 27:0.818531 28:1.183750 29:0.668055 30:0.606321 31:-1.923351 32:0.357913 33:-0.581700 34:-1.053526 35:0.395831 36:-1.114597 37:-0.488871 38:1.007334 39:0.593013 40:1.556098 41:-1.606209 42:1.088997 43:-2.371680 44:-1.230860 45:-1.837719 46:0.454740 47:0.657175 48:0.746208 49:-0.684487 50:0.570462 51:-0.323828 52:-0.968932 53:-0.717646 54:-0.561414 55:-0.790174
-1 1:0.927136 2:0.094587 3:-1.516991 4:0.673485 5:0.474232 6:0.291138 7:-1.429904 8:0.740383 9:-0.556432 10:-0.344058 11:-0.554128 12:1.208260 13:0.092510 14:-0.813950 15:-0.573300 16:-0.362691 17:-1.976654 18:-1.462487 19:-0.598580 20:0.551274 21:-0.815270 22:0.030399 23:-0.648019 24:-0.178917 25:-1.862436 26:-0.558161 27:0.914148 28:0.911750 29:0.474828 30:-1.616033 31:0.800639 32:0.234856 33:1.245752 34:-0.910866 35:-1.587051 36:-0.552429 37:0.794004 38:0.734529 39:0.470422 40:-0.062583 41:-0.348167 42:1.382362 43:-0.317879 44:-2.772772 45:0.973222 46:-0.825230 47:1.689017 48:-0.076006 49:-2.199285 50:0.790114 51:-0.460893 52:-0.276195 53:-0.582464 54:-1.116382 55:0.703283
-1 1:1.502913 2:-0.657682 3:0.787988 4:-0.307468 5:0.687712 6:0.177277 7:-0.139254 8:-0.619216 9:1.181550 10:1.314431 11:-0.133061 12:0.037596 13:0.216376 14:0.354678 15:-0.140359 16:0.015808 17:0.355088 18:0.407842 19:-0.244985 20:0.058282 21:-1.203096 22:-1.095059 23:0.510500 24:0.250341 25:1.519423 26:-0.983129 27:-0.835078 28:0.651771 29:-0.275309 30:-0.345488 31:-0.197177 32:-0.618956 33:-0.080180 34:1.550561 35:0.123190 36:-1.917316 37:-0.827237 38:0.323269 39:0.136008 40:2.155286 41:-0.545144 42:-1.049106 43:1.707206 44:-1.046542 45:-0.667499 46:0.963897 47:1.144632 48:1.399898 49:0.922684 50:0.470197 51:-0.913528 52:-0.524682 53:0.711771 54:-1.220577 55:1.545319
-1 1:0.065006 2:-1.364334 3:0.671747 4:-0.780407 5:0.685916 6:-0.815009 7:0.688583 8:-0.961685 9:0.358444 10:1.256801 11:0.533118 12:1.710786 13:-0.149955 14:0.252497 15:-0.803683 16:2.938631 17:-0.408441 18:-1.446865 19:1.926082 20:-0.684969 21:-0.556260 22:-0.178026 23:-0.510050 24:-0.921805 25:0.349208 26:-0.311683 27:-0.393064 28:-0.330037 29:-0.866263 30:-0.795537 31:-0.543367 32:0.601012 33:0.742908 34:0.003296 35:-0.285687 36:-1.946007 37:0.022561 38:-0.005789 39:-0.365928 40:-0.803493 41:-2.009470 42:-0.433574 43:-0.994194 44:0.480161 45:0.324321 46:-0.158718 47:0.483790 48:-0.516056 49:-0.970345 50:-0.868486 51:-1.283107 52:-1.364178 53:-0.965629 54:0.768690 55:0.581682
-1 1:-0.480331 2:-0.096957 3:-0.567974 4:-1.149426 5:1.800389 6:1.038389 7:0.614195 8:0.176588 9:0.629799 10:-0.392905 11:-0.828133 12:0.736768 13:-0.953614 14:-0.681187 15:-0.374830 16:1.881005 17:-0.137529 18:0.486993 19:-1.450584 20:0.301755 21:0.625995 22:0.458303 23:-0.691992 24:0.766714 25:-1.132303 26:-1.404327 27:-0.680870 28:0.471616 29:0.169749 30:-1.002529 31:-1.774927 32:0.936040 33:-1.486421 34:-0.714947 35:2.008934 36:-0.792776 37:0.887215 38:0.546326 39:1.531308 40:0.970196 41:-0.172009 42:-0.113465 43:-0.968342 44:0.812365 45:-0.925396 46:1.029640 47:0.317784 48:0.615724 49:-0.018807 50:-1.705467 51:0.479424 52:0.871042 53:0.228921 54:-0.468056 55:-0.279100
-1 1:0.565075 2:-0.084971 3:-1.066781 4:-0.286063 5:-0.373679 6:0.165368 7:1.534595 8:-0.548676 9:0.088848 10:1.614057 11:-0.380636 12:0.231168 13:-0.960610 14:0.981240 15:-0.905833 16:0.439780 17:-0.345813 18:-0.420597 19:-0.438003 20:0.060756 21:0.281943 22:-0.416711 23:-1.574092 24:-1.062484 25:0.164068 26:0.002329 27:-0.806832 28:-0.550209 29:0.792577 30:0.425236 31:-2.488381 32:0.067987 33:1.046366 34:-0.901732 35:-0.937487 36:0.136508 37:0.261003 38:-0.829734 39:-0.695210 40:0.687251 41:0.378374 42:0.151691 43:0.392278 44:0.005453 45:1.282098 46:-1.040795 47:0.590846 48:-1.274622 49:-0.859224 50:0.211828 51:-1.384344 52:0.272970 53:1.467772 54:-0.479189 55:0.527243
-1 1:0.369227 2:0.000567 3:-0.655022 4:-1.579767 5:-1.722088 6:0.244206 7:-1.829960 8:0.400147 9:2.008292 10:-0.850314 11:0.194066 12:-1.631631 13:0.372179 14:-2.031211 15:2.514516 16:-0.865317 17:-0.280077 18:0.841109 19:1.164814 20:-1.163911 21:0.039345 22:0.249938 23:-0.294855 24:-1.782745 25:0.051823 26:0.275947 27:1.106868 28:-0.437867 29:0.517361 30:0.318346 31:-2.027623 32:1.468349 33:0.003303 34:-0.815030 35:1.132076 36:0.057161 37:0.692992 38:-1.777485 39:-0.589972 40:0.669230 41:-0.829028 42:0.254615 43:1.930565 44:-1.127919 45:0.078893 46:0.811308 47:1.653346 48:-1.342793 49:0.932317 50:-2.182156 51:1.391495 52:0.084852 53:-1.810910 54:-0.438402 55:-0.896202
-1 1:-1.816513 2:0.792741 3:1.056891 4:-0.199391 5:-0.653436 6:-0.772724 7:-1.229380 8:-0.372293 9:-0.495135 10:0.343620 11:-0.086777 12:1.368575 13:0.925205 14:0.956082 15:0.418696 16:-0.297490 17:-2.602620 18:-0.295177 19:-0.176705 20:-0.544137 21:0.154415 22:0.380071 23:-0.512535 24:-1.277270 25:0.220315 26:1.784093 27:0.246505 28:0.738414 29:-1.966642 30:-0.728471 31:0.705537 32:-0.508319 33:-0.991901 34:1.109787 35:-1.520114 36:-0.375080 37:0.927924 38:-0.646329 39:1.691587 40:-0.706957 41:-0.949714 42:-1.853683 43:0.915520 44:0.014512 45:0.407038 46:0.130014 47:-0.097358 48:-1.661324 49:0.712462 50:0.122898 51:0.667170 52:-1.572829 53:-0.310217 54:0.623918 55:1.121567
-1 1:-0.681134 2:-0.220774 3:-0.802510 4:0.542360 5:-0.951124 6:0.941061 7:0.835899 8:-1.481842 9:1.501816 10:1.334539 11:1.337415 12:-0.779154 13:-1.062623 14:0.396093 15:-1.334158 16:1.047127 17:-1.332230 18:0.503527 19:-0.416224 20:0.091468 21:-0.640532 22:-0.098929 23:0.528443 24:0.853670 25:-0.083251 26:-0.580697 27:-0.094088 28:0.318964 29:0.215980 30:0.523850 31:2.370817 32:0.095028 33:0.737471 34:-0.365591 35:-0.417268 36:-0.112400 37:-0.428470 38:-1.109171 39:0.429608 40:-0.285488 41:-0.089301 42:-1.919309 43:1.407522 44:0.356469 45:0.325122 46:0.714063 47:1.640942 48:-0.608336 49:-0.397834 50:-1.756528 51:0.463415 52:-0.532751 53:-0.259234 54:0.621283 55:0.369114
-1 1:0.303233 2:-1.361315 3:-1.377782 4:-0.366988 5:-0.323533 6:0.854750 7:-0.940855 8:-0.032870 9:-1.754870 10:-2.124216 11:0.334177 12:-0.698550 13:-0.347296 14:0.005148 15:-1.762020 16:-1.574369 17:-0.463979 18:0.240425 19:-1.068698 20:0.908788 21:0.653614 22:-0.178156 23:1.083689 24:-0.108226 25:-0.463895 26:-0.771771 27:1.274710 28:1.036062 29:-0.689404 30:-0.946414 31:0.333939 32:-0.466586 33:-0.127966 34:-1.396568 35:1.862151 36:0.455492 37:1.135449 38:0.075766 39:0.077229 40:0.143755 41:-0.804515 42:-1.619062 43:-1.101477 44:-0.051797 45:0.492850 46:0.318147 47:-0.201581 48:0.158727 49:0.823505 50:-0.945072 51:0.169804 52:-0.029029 53:-0.538916 54:1.837978 55:0.244049
-1 1:-1.196843 2:-2.619406 3:-0.701831 4:-0.735293 5:-0.376173 6:-0.269926 7:-0.469625 8:0.437850 9:-0.405585 10:-0.091257 11:1.548751 12:1.210542 13:-1.033743 14:-1.603508 15:-0.472797 16:1.564011 17:0.349355 18:0.442517 19:-0.811163 20:0.849986 21:-0.976452 22:-1.290889 23:0.887710 24:-0.582257 25:-1.349554 26:0.399802 27:-0.544329 28:-0.359356 29:1.461848 30:-0.514545 31:1.374976 32:-0.183518 33:0.932120 34:-0.420866 35:-1.625226 36:0.087134 37:0.222697 38:0.751590 39:-0.889187 40:-1.190362 41:-0.472638 42:-2.640780 43:0.555854 44:-0.881247 45:-0.362829 46:-0.441082 47:1.163029 48:-0.279604 49:-0.331560 50:0.252263 51:-1.628848 52:-0.086282 53:0.553491 54:0.968355 55:0.444392
-1 1:-0.612560 2:-0.221197 3:-0.311101 4:0.943343 5:0.851949 6:1.272309 7:-0.844523 8:-0.691590 9:-2.739823 10:-1.725837 11:-0.274839 12:0.382317 13:-0.478413 14:0.458082 15:1.103957 16:-1.199729 17:0.581730 18:0.587737 19:0.915125 20:0.765236 21:-0.936241 22:0.372978 23:-0.700917 24:-0.500927 25:0.635963 26:0.077853 27:-1.332944 28:0.898621 29:0.304279 30:-0.457532 31:-1.173987 32:0.457410 33:-1.035230 34:-0.332986 35:-0.027743 36:1.302380 37:-1.065866 38:-0.953283 39:-1.488467 40:-0.560347 41:-1.748402 42:1.428710 43:-1.227794 44:-0.495788 45:-0.181252 46:-0.812833 47:-0.535110 48:-0.238481 49:-0.496851 50:-0.628141 51:1.282066 52:0.282255 53:-1.699725 54:0.560728 55:-0.612297
-1 1:1.423791 2:1.070038 3:0.312034 4:2.911130 5:-0.039436 6:-0.582564 7:0.881521 8:-0.480095 9:0.661161 10:-0.002166 11:-1.642775 12:1.177125 13:-0.234243 14:-0.555207 15:-0.250990 16:0.826899 17:-0.283501 18:-0.057084 19:1.829022 20:0.275566 21:0.494720 22:-0.146257 23:0.415497 24:-0.877321 25:0.884142 26:0.248611 27:-1.412978 28:-0.268134 29:-0.391062 30:-0.619028 31:-0.986340 32:0.172816 33:-0.365848 34:0.450159 35:0.086868 36:0.268867 37:0.114379 38:-0.746387 39:0.606809 40:1.347732 41:-0.428820 42:-0.391043 43:0.027826 44:0.173474 45:0.539861 46:0.199033 47:-0.943793 48:1.346123 49:0.553276 50:0.566006 51:1.140812 52:-0.985602 53:-0.031031 54:1.515131 55:0.979361
-1 1:-0.081524 2:-0.972304 3:-1.175224 4:-2.935698 5:-0.665336 6:-0.223248 7:-0.585890 8:0.706076 9:-0.690113 10:0.345839 11:-0.728256 12:0.943446 13:-0.474814 14:0.535830 15:1.566134 16:0.594792 17:-0.337474 18:0.204496 19:0.827296 20:-0.539220 21:1.825425 22:0.771816 23:0.056916 24:0.769668 25:-0.426862 26:1.005429 27:-2.221267 28:0.098303 29:-0.082077 30:0.170584 31:-1.339734 32:0.434761 33:-0.505559 34:2.277975 35:-1.147085 36:-0.308184 37:0.746503 38:-0.222309 39:-1.220706 40:0.014789 41:0.311853 42:-1.113147 43:0.736789 44:0.366811 45:-1.530854 46:-0.928971 47:-0.453753 48:-0.636338 49:-0.408378 50:0.504464 51:-0.497037 52:-0.868568 53:-0.178158 54:0.591397 55:0.247305
-1 1:0.822038 2:0.385146 3:-0.018114 4:0.899352 5:0.955339 6:0.418023 7:1.479133 8:0.593895 9:0.008592 10:0.801480 11:-0.833812 12:0.735108 13:1.335644 14:-1.241046 15:-1.885953 16:-0.197272 17:-1.386470 18:-1.351131 19:-0.236808 20:1.005610 21:-0.159037 22:-1.489052 23:-0.219525 24:0.330092 25:0.779004 26:-1.078720 27:-0.340978 28:-0.221833 29:1.368497 30:-0.273566 31:0.112838 32:0.547752 33:0.196255 34:-0.824000 35:-0.215890 36:2.274384 37:-1.243021 38:-0.634766 39:-1.333833 40:2.706555 41:0.274386 42:0.489570 43:-0.651691 44:-0.315103 45:1.538068 46:-2.373126 47:0.816573 48:0.301805 49:-0.338303 50:-2.248299 51:1.237957 52:-1.819731 53:-0.988173 54:0.401417 55:-0.219163
-1 1:1.328463 2:-0.671029 3:1.336338 4:0.410635 5:-1.121327 6:-0.021032 7:1.240840 8:-1.514034 9:0.895216 10:-1.660168 11:0.485511 12:-2.186393 13:-0.360730 14:-0.407012 15:-0.773626 16:-2.378411 17:-0.539128 18:-1.234011 19:0.392352 20:-0.076980 21:0.505693 22:0.436516 23:-0.418832 24:0.523033 25:-0.176335 26:1.682640 27:-1.606680 28:-1.207331 29:1.001804 30:-1.581145 31:-1.408705 32:-0.134325 33:-0.015697 34:-1.017929 35:0.859317 36:-1.481328 37:0.056747 38:-0.824634 39:1.696331 40:0.379303 41:-0.060560 42:-1.210780 43:-0.276253 44:-1.709311 45:-1.570899 46:0.503868 47:0.128337 48:-0.759117 49:-0.393842 50:-0.111571 51:0.596992 52:0.758489 53:-0.289767 54:-0.073970 55:-0.332774
-1 1:-0.071579 2:-0.047835 3:-0.100493 4:1.797809 5:-0.707994 6:1.596599 7:-0.265436 8:1.038070 9:0.858389 10:-1.082642 11:-0.260054 12:0.322313 13:-1.448396 14:1.346093 15:0.589462 16:0.730823 17:0.590463 18:0.086268 19:-0.080995 20:-0.435521 21:-1.942864 22:0.615905 23:1.394039 24:0.749391 25:-0.021351 26:1.341092 27:1.113505 28:0.497579 29:0.243255 30:-1.418906 31:-0.140028 32:0.929991 33:-0.989697 34:0.707428 35:-0.414100 36:0.273295 37:0.037835 38:0.553313 39:-0.724146 40:-1.454150 41:-0.015870 42:0.939479 43:0.151853 44:-0.363148 45:-0.079032 46:1.936277 47:-1.889768 48:-0.374836 49:0.534977 50:-0.912101 51:-0.218483 52:-0.184568 53:0.226307 54:-1.091514 55:0.581044
-1 1:0.718659 2:-0.242682 3:-0.662367 4:0.179991 5:0.785200 6:0.107833 7:0.700993 8:-2.335046 9:-0.324479 10:1.474664 11:-0.653313 12:-0.220789 13:-0.461392 14:-2.349127 15:-1.023605 16:-0.287552 17:1.379211 18:1.048491 19:1.612048 20:0.872674 21:1.639270 22:0.186537 23:0.311217 24:-0.509297 25:2.024187 26:-0.632257 27:0.456464 28:0.024123 29:-1.270988 30:0.456420 31:0.063100 32:-0.539801 33:0.608844 34:1.568587 35:0.340245 36:0.191089 37:-2.381950 38:0.820572 39:0.439755 40:-0.485770 41:-0.071861 42:-2.046857 43:-0.984117 44:1.461996 45:0.999047 46:0.505399 47:-1.180732 48:-1.771608 49:-0.367608 50:-1.200989 51:0.441924 52:-0.227262 53:0.071531 54:0.784728 55:0.299738
-1 1:1.480873 2:-0.128018 3:-0.350795 4:-0.828847 5:-0.149312 6:1.172311 7:-0.982294 8:3.557180 9:-0.444305 10:0.305046 11:0.466468 12:-0.624537 13:-1.808993 14:1.109033 15:-0.868961 16:1.356625 17:0.267179 18:1.089127 19:0.099142 20:0.092916 21:0.301221 22:-0.691773 23:0.264039 24:-0.888654 25:-0.827432 26:-0.535381 27:-0.011318 28:-2.609023 29:0.179084 30:-0.730488 31:0.612358 32:1.668033 33:-0.067196 34:0.296660 35:-0.004399 36:-0.758174 37:0.708919 38:1.998401 39:0.797692 40:-0.314902 41:0.933859 42:0.587485 43:0.793226 44:0.628656 45:-0.320471 46:-0.033760 47:0.510497 48:-0.527542 49:-1.139683 50:-2.401976 51:-0.664661 52:-0.815083 53:1.267979 54:-0.408360 55:1.351753
-1 1:0.606079 2:-0.739483 3:-0.362595 4:-0.549172 5:0.153602 6:-0.404074 7:1.385246 8:0.954954 9:-0.417427 10:0.732809 11:1.483550 12:-1.058140 13:-0.755716 14:-0.927752 15:-2.049454 16:-0.526369 17:0.473517 18:-0.843898 19:-1.314325 20:0.728401 21:0.554031 22:-1.433490 23:1.255793 24:0.400461 25:0.850196 26:0.753745 27:0.665435 28:-0.119953 29:-0.770162 30:0.964425 31:2.108016 32:0.118159 33:0.221929 34:-0.031985 35:1.057571 36:0.716906 37:1.324904 38:0.793567 39:0.776222 40:2.081921 41:-0.000866 42:-0.052797 43:0.543886 44:-1.476284 45:-0.546001 46:0.035573 47:-0.635175 48:-0.062887 49:-0.020821 50:-1.245580 51:-0.050464 52:-0.228282 53:-0.555411 54:1.073541 55:-0.131218
-1 1:0.370249 2:-0.414133 3:-0.075262 4:-2.476272 5:1.062543 6:0.599291 7:-1.925514 8:0.042521 9:-1.921500 10:-0.725300 11:0.165553 12:0.843536 13:-1.054629 14:-2.335248 15:-1.342379 16:-0.761166 17:-1.140299 18:0.654647 19:1.353664 20:1.076953 21:-0.102879 22:-0.097421 23:0.844137 24:-0.524089 25:-1.258599 26:-1.371761 27:-1.571840 28:-0.111633 29:0.018797 30:-0.955772 31:0.284169 32:0.140524 33:0.303221 34:2.727350 35:0.017776 36:0.816498 37:0.905425 38:1.304413 39:-0.049701 40:0.614257 41:-1.312134 42:0.859676 43:-0.861151 44:0.429437 45:-0.132935 46:-0.675689 47:-1.397420 48:0.067236 49:-1.497916 50:-0.753075 51:-1.257232 52:-0.616370 53:0.103405 54:0.840077 55:1.870327
-1 1:-1.917912 2:0.923119 3:-1.012450 4:0.898630 5:-0.168551 6:-1.828059 7:-0.255144 8:-0.048077 9:0.573278 10:-0.925838 11:-0.673265 12:-0.224905 13:-0.858752 14:-0.721979 15:-1.217520 16:-0.570717 17:-1.182788 18:0.450194 19:-0.562747 20:1.604055 21:0.472764 22:0.589868 23:1.262419 24:0.311120 25:0.611869 26:-1.025700 27:0.131317 28:-0.425323 29:0.852571 30:-0.780502 31:0.032660 32:-0.072856 33:-0.717928 34:0.834649 35:-0.205221 36:-0.894365 37:0.178726 38:0.078687 39:1.905555 40:-0.777836 41:0.199434 42:1.808904 43:-0.759126 44:-1.065964 45:-0.802378 46:1.593678 47:-0.014971 48:1.392928 49:0.414398 50:0.102100 51:1.343646 52:-0.675031 53:-0.180078 54:1.104628 55:0.582313
-1 1:-0.983872 2:0.642315 3:-0.446096 4:-0.513718 5:0.495559 6:0.881407 7:-0.995072 8:0.980751 9:0.339105 10:-2.532640 11:-0.675523 12:0.587585 13:-0.828375 14:0.269013 15:-0.264407 16:-0.936293 17:1.816494 18:-1.181076 19:-3.261192 20:-2.176134 21:1.155079 22:-1.451706 23:2.574459 24:-0.745387 25:0.559187 26:1.359147 27:1.037158 28:-1.048861 29:1.668302 30:-1.120452 31:1.123698 32:-0.669809 33:0.530397 34:-0.936955 35:-0.051572 36:-1.177797 37:-0.600159 38:-0.414406 39:1.825646 40:0.156461 41:-0.574695 42:-0.797224 43:1.120142 44:-0.088860 45:0.284478 46:-0.137736 47:-0.420639 48:0.199326 49:-1.838687 50:1.012317 51:0.418690 52:-0.532581 53:-0.837956 54:1.597457 55:1.072351
-1 1:-0.270461 2:1.806106 3:-1.854646 4:1.099667 5:1.081577 6:0.711207 7:-0.327011 8:0.122693 9:-0.157793 10:0.133812 11:0.811256 12:-1.440555 13:-0.484586 14:-0.120708 15:1.926562 16:-0.531931 17:-0.872552 18:0.161503 19:-1.843682 20:-1.031629 21:1.098829 22:0.000552 23:0.645314 24:-0.610887 25:1.172768 26:1.856789 27:-0.244622 28:-0.230864 29:-1.526112 30:-1.391665 31:0.309632 32:0.322379 33:-0.744058 34:-1.622263 35:-1.152510 36:-0.548825 37:1.120146 38:0.150281 39:0.117431 40:-0.744398 41:-1.279991 42:0.581184 43:0.671689 44:-0.887450 45:1.504271 46:-0.942904 47:1.334866 48:1.031144 49:-1.664829 50:1.934395 51:0.850554 52:0.630691 53:1.125668 54:-1.556881 55:2.541947
-1 1:0.805227 2:0.597478 3:-1.326384 4:-1.434576 5:0.422799 6:-0.110472 7:-0.235437 8:-0.855914 9:-0.171882 10:0.332707 11:-0.920230 12:0.432593 13:0.192011 14:-0.181689 15:0.797606 16:0.190988 17:-1.489177 18:-1.559133 19:-2.042288 20:0.070265 21:-0.642349 22:0.225061 23:0.748995 24:0.600401 25:-0.742936 26:0.029431 27:-0.303346 28:-0.321672 29:-0.508046 30:-0.122552 31:-0.479807 32:-1.413074 33:-0.523369 34:0.305974 35:-0.413132 36:-0.328072 37:0.016990 38:-0.684529 39:1.675928 40:-0.620911 41:1.543736 42:-0.588718 43:1.794445 44:-1.221045 45:-1.865170 46:2.715283 47:0.614799 48:0.850295 49:1.271007 50:-0.026308 51:1.614003 52:0.602860 53:-0.030336 54:-1.505763 55:0.445803
-1 1:1.049421 2:0.494524 3:-0.502466 4:1.037912 5:-1.343719 6:0.558444 7:1.086876 8:-1.199795 9:-0.165845 10:0.736020 11:0.376542 12:-0.199198 13:-0.276302 14:1.603690 15:-0.866521 16:1.279228 17:-0.371757 18:0.056104 19:0.197531 20:0.358808 21:-0.241257 22:1.313673 23:-0.883959 24:0.682998 25:1.187647 26:0.206072 27:-0.779595 28:0.910354 29:-0.930805 30:-2.223409 31:-0.546228 32:0.184218 33:-0.569338 34:-1.466124 35:0.019673 36:1.350305 37:-0.029385 38:-0.517786 39:-1.073898 40:1.959757 41:-0.120655 42:-0.577192 43:0.033102 44:-1.092413 45:0.190322 46:-1.037833 47:0.212031 48:-0.454745 49:-0.478472 50:0.079274 51:0.746870 52:1.157130 53:0.722300 54:-1.237611 55:-0.778740
-1 1:0.215554 2:2.381969 3:-1.023510 4:-0.859915 5:-1.111573 6:0.329379 7:-0.045004 8:1.008398 9:-0.379291 10:0.064173 11:0.437206 12:-0.786785 13:1.081355 14:0.043140 15:-1.311725 16:-0.524486 17:-0.255072 18:-1.096965 19:-0.573169 20:1.419619 21:-2.205063 22:1.623664 23:1.267828 24:-0.317478 25:-1.601410 26:1.538516 27:0.042812 28:-0.425205 29:0.067289 30:0.925178 31:1.310443 32:-0.507484 33:-2.442493 34:-1.530488 35:0.415341 36:0.353868 37:0.454960 38:0.136543 39:-0.804726 40:1.397321 41:-1.765145 42:-0.973742 43:0.554546 44:-0.055550 45:-0.305474 46:-1.092942 47:-0.724152 48:-2.333055 49:-0.144312 50:0.006890 51:-0.755262 52:-0.065998 53:-0.736923 54:0.569634 55:-1.523827
-1 1:-0.730380 2:0.532100 3:-0.558830 4:-0.240927 5:0.006023 6:1.525534 7:0.453487 8:-0.013427 9:-1.337033 10:-0.521852 11:0.145288 12:0.191273 13:-0.828404 14:-3.078499 15:-0.585101 16:0.284352 17:-0.617793 18:-1.101853 19:-1.468248 20:-0.653934 21:0.825072 22:0.814488 23:0.207827 24:0.384231 25:-0.446681 26:-0.976796 27:-0.309834 28:0.556340 29:-0.169963 30:-1.663917 31:-1.117676 32:-0.039711 33:0.508804 34:1.907543 35:-1.985274 36:1.047475 37:-0.067678 38:-1.466875 39:-0.708531 40:0.498534 41:0.482002 42:-1.175066 43:-1.020438 44:-0.801573 45:-0.099402 46:-0.351212 47:1.038658 48:0.231971 49:-2.279510 50:1.175200 51:0.659606 52:0.074402 53:0.878655 54:1.462476 55:-0.399149
-1 1:0.514231 2:-0.700781 3:-1.443665 4:-2.518683 5:0.568543 6:1.456129 7:0.423056 8:0.173276 9:-0.611064 10:0.189545 11:0.128220 12:-0.259619 13:0.019436 14:0.132395 15:0.566758 16:-0.248781 17:-0.910195 18:0.141956 19:1.011954 20:0.488492 21:0.620909 22:0.909047 23:-0.118050 24:-0.818679 25:-0.170823 26:0.381223 27:0.513625 28:2.235195 29:-0.399372 30:2.747408 31:-0.386763 32:-0.451915 33:0.280650 34:-0.606173 35:-0.393193 36:0.684857 37:0.270013 38:1.280773 39:-0.851090 40:-1.159863 41:-0.253975 42:1.194525 43:0.145818 44:0.024890 45:-0.746382 46:-1.712952 47:-1.268613 48:-0.296279 49:0.705765 50:0.003573 51:-0.141456 52:1.457797 53:-0.577724 54:0.216511 55:-0.404119
-1 1:0.533158 2:-1.896909 3:0.973377 4:-0.171302 5:0.472673 6:-0.064309 7:-0.759286 8:0.128591 9:0.710108 10:-0.344994 11:0.816706 12:-1.976413 13:-0.611501 14:0.291237 15:1.424375 16:0.273522 17:-2.592263 18:0.297647 19:-0.203110 20:-1.266010 21:0.155133 22:1.266467 23:-1.021360 24:1.067475 25:1.671652 26:-0.250909 27:0.838521 28:1.223546 29:-0.836044 30:0.260476 31:0.942129 32:-1.488018 33:0.713276 34:0.823953 35:0.933243 36:-1.893042 37:-0.133709 38:-0.379607 39:-0.976903 40:-0.476789 41:-1.133392 42:1.154250 43:3.134685 44:-0.015536 45:-1.117578 46:0.081757 47:0.302224 48:1.255557 49:-1.697463 50:0.048240 51:0.979209 52:-1.217279 53:0.824815 54:1.051353 55:-1.931525
-1 1:0.922940 2:-0.006425 3:-0.620999 4:1.210903 5:1.420791 6:-0.691116 7:-0.655198 8:0.848099 9:-0.912606 10:-0.916663 11:-1.023698 12:-0.036699 13:-1.673063 14:-1.291137 15:-1.621118 16:-1.237986 17:-0.835116 18:1.296723 19:-0.566152 20:-0.988114 21:0.882822 22:0.067306 23:0.054790 24:0.676146 25:0.765410 26:-1.226040 27:-1.339569 28:0.998577 29:-1.580330 30:0.841549 31:-2.536174 32:-0.538906 33:0.174219 34:1.817200 35:-1.217825 36:0.788720 37:0.133989 38:-2.060744 39:0.634093 40:0.809442 41:-0.169855 42:-1.047093 43:-1.443719 44:-1.093184 45:0.551391 46:0.103635 47:0.730713 48:0.317169 49:-0.091066 50:-0.233969 51:0.479779 52:-0.799184 53:-1.271277 54:-0.006638 55:-0.602218
-1 1:0.149430 2:-0.204473 3:0.600124 4:1.453077 5:-1.054364 6:1.362438 7:-2.019895 8:0.524348 9:-1.413104 10:-0.771448 11:-0.687043 12:0.742185 13:0.441840 14:-0.233907 15:1.354430 16:-0.841344 17:-0.250730 18:1.107694 19:1.517761 20:1.532420 21:0.723616 22:-0.611550 23:0.617775 24:0.257758 25:0.430180 26:1.503107 27:1.293373 28:0.673800 29:0.345110 30:-0.077746 31:0.746088 32:0.429410 33:-0.121203 34:-0.806837 35:-1.331897 36:-1.420246 37:0.501420 38:0.785944 39:-1.099340 40:0.323146 41:0.128099 42:-1.502933 43:0.588517 44:0.081444 45:-0.006791 46:1.161816 47:-1.720338 48:-1.244501 49:0.255595 50:-0.696293 51:0.101447 52:0.803915 53:-0.867000 54:-0.865112 55:-0.096575
-1 1:-0.001796 2:-1.726558 3:0.439087 4:0.405125 5:1.677101 6:0.500263 7:2.047619 8:0.016445 9:-0.818847 10:-0.790026 11:0.884487 12:-0.938061 13:0.880515 14:0.853062 15:1.849692 16:0.072106 17:1.650444 18:-0.728555 19:-0.153456 20:-0.037703 21:2.076441 22:-1.038992 23:1.527307 24:2.170665 25:0.884421 26:0.027425 27:-0.631911 28:1.696149 29:0.770780 30:0.828036 31:1.654379 32:-1.107694 33:1.064731 34:2.480963 35:0.073498 36:-1.452383 37:0.889397 38:-0.538423 39:0.521174 40:1.901416 41:0.946632 42:2.346643 43:-0.314857 44:0.217240 45:-0.755288 46:-0.492662 47:-0.389684 48:1.538267 49:0.211511 50:1.125245 51:0.336550 52:-1.370394 53:-3.088318 54:-0.046442 55:2.761899
-1 1:0.030105 2:0.022974 3:-1.240058 4:1.682810 5:-0.399439 6:0.750279 7:1.978687 8:0.824104 9:0.859903 10:0.215898 11:-0.253983 12:-0.902787 13:1.109128 14:0.408680 15:0.555739 16:-1.126056 17:-0.366847 18:1.190013 19:1.328943 20:-0.315492 21:-0.511611 22:-0.997318 23:1.207845 24:1.509451 25:1.520598 26:0.719077 27:0.639550 28:0.984076 29:-1.907262 30:-0.001753 31:-0.865655 32:-0.103540 33:0.207353 34:-0.300296 35:-0.951531 36:-0.705587 37:-2.327327 38:1.212137 39:1.163277 40:1.397837 41:1.840232 42:-0.477958 43:0.050234 44:0.283094 45:1.526090 46:0.344173 47:-0.396535 48:-0.243021 49:0.067318 50:-1.398986 51:-1.475804 52:-0.441260 53:2.898981 54:-0.450080 55:-1.382716
-1 1:-0.438724 2:-0.708601 3:-2.449187 4:-0.983079 5:-0.155772 6:-0.575000 7:0.160887 8:-0.307124 9:-0.996497 10:0.808575 11:0.019300 12:0.443036 13:0.635785 14:0.209907 15:-0.708754 16:-0.100281 17:-0.439124 18:0.740500 19:0.858259 20:-1.825664 21:-1.436640 22:1.536291 23:-0.017860 24:-0.566290 25:-0.786089 26:-1.735925 27:-0.259175 28:0.105614 29:0.147991 30:0.867436 31:0.620046 32:0.262228 33:-1.030008 34:1.459105 35:-0.012165 36:-1.302313 37:0.869094 38:1.166616 39:0.318605 40:0.362767 41:-0.151963 42:-0.592508 43:-0.862409 44:0.558528 45:1.984702 46:0.081004 47:1.650209 48:-0.551930 49:-0.215034 50:1.398604 51:-0.949037 52:-0.305260 53:0.251854 54:-1.502420 55:-0.485011
-1 1:-0.772866 2:0.138988 3:-0.026942 4:0.264567 5:0.031821 6:1.378719 7:-0.100367 8:-0.788480 9:1.084417 10:1.710718 11:1.034224 12:0.576538 13:-0.328468 14:0.523524 15:0.921850 16:0.532533 17:1.056755 18:2.632381 19:-0.542155 20:2.230392 21:0.409151 22:-0.570128 23:0.163587 24:-0.296336 25:0.719383 26:0.702888 27:-1.694569 28:-0.757902 29:0.768634 30:-0.320092 31:0.072303 32:-0.034678 33:1.820580 34:-0.984310 35:-0.080491 36:-0.298385 37:-0.878095 38:-1.697140 39:-0.221790 40:0.428694 41:-0.543833 42:-1.566599 43:-1.641579 44:0.956726 45:0.143378 46:0.016606 47:-1.543112 48:-1.476862 49:-0.701797 50:0.061086 51:-0.579456 52:1.267788 53:0.056516 54:-0.516480 55:1.792517
-1 1:-0.600264 2:0.408904 3:-0.512978 4:0.894206 5:0.180858 6:0.583105 7:-0.099712 8:-0.172797 9:-1.158427 10:1.596543 11:-0.121564 12:-0.147183 13:0.714727 14:1.665872 15:-0.164260 16:0.089872 17:0.349789 18:0.697049 19:1.080476 20:-1.315280 21:1.760270 22:-1.466511 23:-1.979883 24:1.204222 25:1.476343 26:0.443035 27:0.281595 28:-1.966090 29:1.224289 30:-0.518692 31:-2.313586 32:1.719367 33:-0.453361 34:2.698767 35:-1.205750 36:0.455032 37:-0.585507 38:-0.760743 39:2.149790 40:-0.986486 41:1.459737 42:1.204451 43:-0.668952 44:-0.002346 45:1.077796 46:1.433275 47:1.181360 48:0.439354 49:0.170322 50:0.389583 51:0.098787 52:-0.731676 53:1.013142 54:0.101915 55:1.798117
-1 1:0.160837 2:-1.207848 3:0.291136 4:-0.929981 5:-2.034535 6:0.962188 7:-0.155350 8:1.117449 9:-1.394100 10:-0.186596 11:-2.051629 12:1.375872 13:1.695224 14:0.062021 15:-0.722099 16:0.384114 17:-0.227553 18:0.059478 19:-2.007794 20:0.974195 21:1.665985 22:0.251988 23:-0.049878 24:-0.657272 25:0.541823 26:-0.379659 27:-0.762307 28:-0.433110 29:-1.117652 30:0.348009 31:1.209721 32:0.036018 33:-1.141824 34:-0.177094 35:-0.578223 36:1.587614 37:1.644305 38:0.441160 39:0.900875 40:0.701763 41:1.258452 42:-0.957934 43:0.816147 44:-0.139285 45:-0.224238 46:-0.833763 47:-1.284781 48:0.283608 49:-0.744974 50:0.946135 51:-1.417437 52:1.846248 53:1.526285 54:0.161990 55:-1.248251
-1 1:1.436369 2:-0.658403 3:-0.481919 4:-1.414877 5:0.499577 6:2.341777 7:2.352432 8:0.422421 9:-1.103602 10:-0.205452 11:-0.418986 12:1.001387 13:-0.371719 14:1.465051 15:0.902501 16:-0.153080 17:0.274845 18:1.038161 19:-0.297903 20:0.417738 21:1.645901 22:-0.563531 23:0.226448 24:1.028714 25:1.289792 26:-0.585689 27:0.417145 28:0.256106 29:0.728394 30:1.640538 31:-1.297098 32:-0.056548 33:2.029622 34:-1.837316 35:-0.856096 36:0.629800 37:0.701411 38:1.110806 39:-0.199460 40:-0.555363 41:-1.910256 42:-1.387055 43:-1.185472 44:-0.205257 45:0.250692 46:1.590904 47:-0.043377 48:-0.558973 49:-0.686954 50:-0.380740 51:1.210572 52:0.418156 53:1.688191 54:-1.062693 55:-1.399128
-1 1:1.109637 2:-0.055788 3:0.889392 4:-1.864703 5:-1.184452 6:1.044088 7:-0.859070 8:0.213511 9:-0.696525 10:-0.819392 11:-1.089160 12:0.584448 13:-0.620474 14:0.522325 15:-1.518900 16:0.188675 17:-0.227025 18:-2.266546 19:0.225876 20:0.299925 21:0.644659 22:1.483095 23:-0.482818 24:1.128759 25:1.270089 26:-0.491547 27:-0.835511 28:-0.644916 29:-1.629718 30:-0.650667 31:2.274279 32:-0.248301 33:-0.363502 34:0.701132 35:1.194681 36:0.215023 37:-0.407802 38:1.291461 39:-2.396389 40:0.774133 41:-0.465502 42:-0.000618 43:-0.637324 44:0.984950 45:2.626164 46:-0.650726 47:-0.953663 48:-0.875557 49:0.968437 50:0.739296 51:0.428806 52:0.601265 53:-0.617955 54:2.988638 55:1.384523
-1 1:-0.572960 2:-0.362931 3:-0.025119 4:-1.514923 5:-0.909266 6:-0.401822 7:0.921280 8:0.583646 9:-0.500386 10:0.755003 11:0.814964 12:0.651139 13:-0.462680 14:-1.677209 15:0.087172 16:-1.017295 17:-1.304435 18:0.165415 19:1.486739 20:0.102298 21:1.114664 22:0.450110 23:0.261697 24:-1.698663 25:1.827433 26:-0.743148 27:1.720462 28:-0.117555 29:0.091186 30:0.639445 31:-1.381521 32:1.365871 33:-0.408671 34:-0.417365 35:0.141277 36:-0.119586 37:-0.134081 38:0.067365 39:0.722393 40:-0.264401 41:-0.959204 42:-0.512117 43:-2.156532 44:0.227774 45:0.599175 46:0.480782 47:1.061260 48:1.302614 49:-0.162293 50:-1.980904 51:-0.457422 52:0.602489 53:0.195649 54:-0.072602 55:-1.067852
-1 1:0.423246 2:1.715758 3:1.339347 4:2.083831 5:-1.646054 6:0.172099 7:-0.021369 8:-1.207274 9:0.332188 10:-2.041831 11:-1.160990 12:2.172765 13:-1.092513 14:-1.044575 15:0.735302 16:0.176501 17:-0.487180 18:0.180352 19:-0.499030 20:-0.681009 21:0.106866 22:-2.006704 23:-0.308914 24:-1.241508 25:0.842626 26:0.894178 27:-0.611542 28:-1.583373 29:1.515830 30:1.298260 31:-0.908502 32:1.620028 33:0.353415 34:-0.340555 35:0.890990 36:-0.299246 37:0.484382 38:1.210108 39:-0.830896 40:-0.095953 41:0.128663 42:1.647744 43:1.607263 44:0.230895 45:0.546961 46:-0.869653 47:1.239778 48:0.587679 49:0.429631 50:-1.857132 51:0.389722 52:-0.116342 53:-0.504501 54:0.877841 55:0.555425
-1 1:0.088275 2:0.042212 3:0.642309 4:-1.098570 5:-0.090388 6:0.512884 7:-1.773176 8:-3.101847 9:-0.799176 10:2.328631 11:-0.528778 12:-0.753818 13:-0.683547 14:-0.646981 15:1.658485 16:1.020089 17:1.489726 18:-0.610371 19:-0.263583 20:0.505080 21:-0.522436 22:1.318566 23:0.250787 24:-0.197058 25:0.983096 26:-1.017207 27:0.480545 28:-0.727153 29:-1.770214 30:1.119786 31:-0.746523 32:-1.055287 33:-0.956135 34:0.031696 35:-1.810495 36:1.030026 37:0.682975 38:0.522259 39:-0.170474 40:1.618500 41:1.578540 42:0.326170 43:0.030775 44:-0.612404 45:-0.342712 46:-1.004810 47:0.686357 48:-0.206593 49:1.661201 50:0.002366 51:-2.107382 52:0.872993 53:-0.838971 54:-0.719274 55:-0.416722
-1 1:-1.551062 2:0.501252 3:1.927716 4:-0.602208 5:0.309506 6:-0.422930 7:0.260288 8:0.125235 9:-0.286302 10:1.097418 11:1.868763 12:0.375385 13:-1.449343 14:-0.940946 15:0.859796 16:-0.023777 17:-0.975156 18:-1.453937 19:-1.538597 20:1.882615 21:-0.150680 22:0.299921 23:-0.007976 24:-1.500859 25:1.948610 26:-0.293430 27:-2.170346 28:0.733312 29:-1.760292 30:-1.794765 31:-0.309217 32:0.977045 33:-0.572999 34:-0.724138 35:-0.101758 36:-1.814351 37:-0.277302 38:0.920739 39:0.336595 40:0.001350 41:1.951289 42:0.306493 43:0.649995 44:-0.872935 45:1.496067 46:-0.743215 47:0.290545 48:-0.192570 49:0.816660 50:-1.218802 51:0.166351 52:1.381421 53:-1.241346 54:-0.076169 55:-0.270188
-1 1:-0.756455 2:-0.991581 3:0.110753 4:0.686373 5:0.113750 6:-0.001295 7:2.909479 8:0.622271 9:0.879297 10:1.262883 11:1.773197 12:0.723853 13:0.871082 14:1.067859 15:-2.256640 16:-0.249481 17:-1.591208 18:0.300972 19:0.160176 20:-0.635507 21:0.280322 22:1.678666 23:-0.845223 24:-1.134873 25:2.336271 26:-1.235518 27:1.119432 28:0.252410 29:-0.393884 30:-1.802433 31:-0.659268 32:-0.108022 33:1.206417 34:-0.138606 35:0.725155 36:0.478862 37:-0.797380 38:0.485372 39:-0.716660 40:-0.486596 41:0.258865 42:0.586086 43:0.026169 44:0.538445 45:-0.997605 46:-0.502807 47:1.158652 48:0.398563 49:0.364250 50:-0.181656 51:0.710207 52:0.127246 53:0.319679 54:0.657512 55:0.716477
-1 1:0.872860 2:0.225008 3:1.323059 4:0.365550 5:1.171345 6:-0.739897 7:1.525363 8:-1.483624 9:-0.339185 10:-1.121946 11:0.983918 12:-0.267084 13:-0.595956 14:1.710945 15:0.121587 16:1.606090 17:-0.491537 18:0.301637 19:1.191691 20:0.568949 21:-0.503439 22:0.452002 23:-0.162386 24:0.060640 25:1.295093 26:2.238324 27:-0.587553 28:0.362888 29:0.213244 30:0.483462 31:-0.260678 32:-1.163579 33:1.090478 34:0.637276 35:-0.579135 36:-0.591676 37:2.370052 38:-0.218445 39:0.422558 40:-1.151644 41:0.098728 42:-0.035515 43:0.629473 44:0.869545 45:-1.431232 46:-0.373459 47:-0.697040 48:0.926140 49:-1.121076 50:-0.419279 51:-0.485583 52:-1.148813 53:-0.221712 54:-0.022410 55:0.732284
-1 1:0.913792 2:0.531959 3:0.412850 4:-0.856143 5:1.004873 6:-1.158386 7:0.789761 8:-0.186544 9:0.389616 10:-0.127988 11:-1.641283 12:-1.130539 13:0.264314 14:0.752261 15:0.733420 16:1.106703 17:-0.123253 18:1.114693 19:-0.264868 20:-0.349269 21:1.376291 22:-0.899742 23:1.267026 24:1.277783 25:-1.251832 26:-1.513144 27:-0.017029 28:0.352908 29:-0.568565 30:0.527492 31:-0.607092 32:-1.637111 33:0.131737 34:-0.256425 35:-0.116586 36:0.514722 37:-0.665648 38:-1.337386 39:1.083164 40:0.087479 41:-0.756477 42:-0.764548 43:-0.348592 44:-1.461863 45:0.828889 46:1.922226 47:0.158598 48:-0.648899 49:-1.192501 50:0.246436 51:-1.129872 52:-1.315583 53:1.665744 54:0.411927 55:0.246191
-1 1:-1.616121 2:0.235573 3:-2.268058 4:1.365052 5:-1.099364 6:-0.336766 7:0.309837 8:0.837132 9:-0.579499 10:-0.130394 11:0.764208 12:-0.230015 13:-0.306047 14:-0.946953 15:-0.297881 16:1.281574 17:0.687470 18:-0.465618 19:0.211576 20:0.513803 21:-0.458502 22:-0.062738 23:0.351631 24:0.273590 25:-0.664278 26:0.727890 27:0.828673 28:-0.380859 29:-0.667605 30:-0.551055 31:-0.095433 32:0.110719 33:1.172630 34:-0.013843 35:-0.225828 36:0.425739 37:0.583170 38:-1.242615 39:0.719540 40:0.285968 41:0.795565 42:-0.501461 43:0.982348 44:-0.317792 45:-0.686539 46:1.490869 47:-1.076107 48:1.307709 49:-0.666106 50:0.063390 51:-1.517520 52:2.332964 53:-0.264832 54:-1.602827 55:0.428027
-1 1:-0.000426 2:-0.508865 3:0.486591 4:-0.576869 5:1.491938 6:-0.818129 7:1.404709 8:0.342933 9:0.145425 10:-1.945686 11:-0.673746 12:-0.857843 13:0.122153 14:0.424875 15:-0.237081 16:0.712202 17:0.884416 18:-0.682186 19:-1.528118 20:0.292333 21:0.229811 22:0.186289 23:0.443741 24:0.922744 25:1.658373 26:-0.165140 27:0.366561 28:1.588873 29:0.679736 30:0.592694 31:-0.633363 32:-0.633663 33:1.457645 34:-0.973244 35:-1.022939 36:0.003652 37:0.055525 38:0.498290 39:0.401725 40:-1.367936 41:-1.250690 42:0.415318 43:0.236038 44:1.751618 45:-1.537244 46:0.253273 47:0.510499 48:-2.503989 49:-0.582693 50:-0.717383 51:-0.163302 52:2.635938 53:0.895257 54:-0.096512 55:-0.168373
-1 1:0.380763 2:0.290655 3:-0.599413 4:-1.367908 5:-0.050540 6:-1.961876 7:0.926044 8:1.639220 9:-0.015519 10:0.457797 11:-0.822453 12:0.249802 13:-1.513914 14:0.160111 15:-2.345356 16:1.303662 17:0.920022 18:0.232979 19:1.038802 20:-2.898302 21:0.905000 22:-1.046330 23:-1.945240 24:-0.409237 25:0.591630 26:0.632397 27:0.526431 28:1.515910 29:-0.297743 30:0.814814 31:1.036670 32:-0.469380 33:0.787530 34:0.688678 35:-2.786615 36:0.474664 37:1.537567 38:0.000630 39:0.369915 40:2.050673 41:-0.158984 42:0.406658 43:-0.253802 44:-2.213395 45:0.280820 46:0.152818 47:1.754428 48:0.083205 49:-0.040307 50:-0.542340 51:0.402598 52:-0.208946 53:-0.719090 54:-2.372948 55:-0.231484
-1 1:-0.776405 2:2.845715 3:0.033729 4:-0.599442 5:-2.788370 6:0.490419 7:0.430106 8:0.457943 9:-1.310133 10:0.304795 11:-1.974935 12:1.179425 13:-1.179955 14:-0.505590 15:-0.533785 16:-0.533619 17:0.069104 18:0.075686 19:-0.022027 20:-0.809923 21:1.120490 22:-0.210610 23:-0.438562 24:0.497577 25:-0.072664 26:2.406084 27:0.855094 28:-1.651502 29:0.399668 30:-0.978585 31:-0.659334 32:-0.132417 33:0.326106 34:0.765273 35:0.993326 36:-1.381632 37:-1.442374 38:0.484671 39:0.637259 40:-0.512028 41:-0.711621 42:0.129921 43:-0.143405 44:2.016996 45:0.173639 46:-0.299746 47:1.419754 48:-2.153405 49:-0.681788 50:-0.292759 51:-2.581294 52:-0.732416 53:-1.151234 54:-0.248399 55:1.099338
-1 1:-1.080415 2:0.865605 3:0.046399 4:-1.021591 5:-0.174043 6:0.164094 7:0.535844 8:0.683637 9:-0.452235 10:-0.235070 11:-2.200364 12:-0.644617 13:0.299416 14:0.902748 15:0.572480 16:-0.072187 17:2.229611 18:0.556702 19:1.668518 20:-0.552993 21:-1.592165 22:-0.795489 23:-0.189650 24:-0.982323 25:-0.425164 26:0.020827 27:-0.000022 28:-0.264621 29:-0.283735 30:0.274677 31:-0.879440 32:-0.656135 33:1.629551 34:1.560663 35:-1.565250 36:1.101454 37:-0.601642 38:-0.432085 39:0.375529 40:-0.375837 41:1.301885 42:-0.422421 43:0.507313 44:0.504942 45:0.347729 46:-2.036193 47:-0.810655 48:0.655474 49:-2.764697 50:-1.086956 51:-0.375495 52:-1.285263 53:0.573600 54:-0.102490 55:1.904026
-1 1:1.434202 2:-1.824792 3:0.807037 4:-0.348680 5:-0.229212 6:-1.040572 7:1.476048 8:-0.397528 9:2.289559 10:0.175477 11:0.822525 12:-0.262217 13:-0.143702 14:-1.463698 15:-0.997948 16:0.390961 17:-0.142191 18:-1.895995 19:0.143862 20:-0.233162 21:-0.124390 22:-0.680782 23:-1.922514 24:2.565829 25:0.605892 26:0.308912 27:0.589231 28:-1.906728 29:0.382029 30:2.408053 31:0.329548 32:2.144350 33:1.222537 34:1.171706 35:-0.084035 36:-1.547547 37:0.761151 38:-0.803185 39:1.282221 40:0.597538 41:-0.565077 42:0.367511 43:-0.330052 44:0.047746 45:0.650934 46:-0.158780 47:0.594093 48:-0.603852 49:0.583220 50:1.166947 51:0.255491 52:-1.461814 53:-0.650273 54:-1.719804 55:0.548306
-1 1:0.303826 2:2.100330 3:1.465829 4:0.597157 5:-0.221651 6:-0.814442 7:0.262794 8:0.918484 9:-0.478418 10:0.873293 11:1.774142 12:0.181900 13:1.496868 14:-0.164242 15:0.174169 16:-0.156669 17:-2.045184 18:-0.919042 19:0.152087 20:0.664454 21:1.226067 22:0.024383 23:3.152546 24:-1.251242 25:-0.527225 26:0.638825 27:-0.547280 28:-1.173793 29:-0.062261 30:-1.164431 31:-0.067922 32:-0.938587 33:-0.021813 34:0.269071 35:0.188606 36:-0.903495 37:-0.569011 38:0.245661 39:0.976126 40:-1.002129 41:-1.956180 42:-0.375996 43:-0.309390 44:0.001732 45:-0.096515 46:-0.573999 47:-0.265981 48:-1.388785 49:-1.249600 50:-0.791524 51:-0.155580 52:-0.858490 53:-0.210579 54:0.379342 55:0.334560
-1 1:-1.817817 2:-0.038395 3:0.290837 4:-1.404819 5:1.037217 6:0.506336 7:0.100469 8:-1.624338 9:-0.001490 10:1.073584 11:0.812828 12:0.287222 13:1.389931 14:-0.948778 15:0.280164 16:-0.838452 17:-0.224867 18:0.375889 19:-1.600401 20:-0.882067 21:0.461647 22:2.218247 23:-2.601068 24:-0.339066 25:-0.477856 26:0.829947 27:-0.906714 28:1.730688 29:-0.025922 30:0.238114 31:0.403251 32:0.090929 33:-1.025916 34:0.529924 35:-0.403082 36:0.849615 37:-0.000026 38:0.059355 39:1.060053 40:-0.968399 41:0.322644 42:-1.430726 43:-0.838335 44:0.922517 45:0.758666 46:0.593148 47:1.570952 48:-1.839807 49:0.728671 50:-0.336477 51:-1.344075 52:-0.684118 53:-0.122206 54:1.004982 55:-1.361496
-1 1:0.758063 2:-0.469237 3:-0.050967 4:2.356920 5:2.256967 6:-1.439741 7:0.859690 8:0.762597 9:-1.442756 10:0.252695 11:-0.335236 12:1.630423 13:0.384087 14:0.041220 15:-0.129810 16:-1.217914 17:0.471497 18:-0.437573 19:-0.139102 20:0.519877 21:1.432033 22:0.557495 23:1.311603 24:-0.761909 25:2.614816 26:-0.750160 27:1.267179 28:2.094620 29:-0.125216 30:-0.095668 31:0.736970 32:-0.752829 33:-0.368680 34:1.454503 35:1.279047 36:0.077078 37:0.530729 38:1.793971 39:-0.032917 40:-0.905164 41:0.173290 42:-0.975856 43:0.738332 44:0.214419 45:1.810614 46:-0.652857 47:0.491280 48:-0.081173 49:-0.532247 50:0.558173 51:1.258058 52:-0.681551 53:0.525034 54:0.193839 55:0.002317
-1 1:-1.781819 2:-0.323306 3:-0.002724 4:1.127045 5:1.590134 6:0.870109 7:0.368325 8:-0.694476 9:-1.163940 10:0.906162 11:0.173876 12:-0.570327 13:-0.292254 14:2.957045 15:-0.578018 16:0.190593 17:0.542234 18:-0.354382 19:-0.693152 20:0.229531 21:-0.208414 22:1.899621 23:-0.941175 24:0.989694 25:-0.954591 26:-0.336441 27:0.015291 28:1.283023 29:-0.662083 30:0.886220 31:-0.311424 32:1.068068 33:-0.487770 34:1.670909 35:0.477442 36:0.862398 37:0.697085 38:-1.074812 39:-2.046428 40:-0.378043 41:-1.439851 42:-1.223132 43:0.792916 44:-0.712669 45:1.696524 46:-1.782382 47:0.858394 48:-0.216556 49:-0.463295 50:0.408730 51:-1.813998 52:1.329530 53:-0.405716 54:-1.604606 55:1.148539
-1 1:-0.790527 2:-1.214343 3:0.360083 4:-0.291682 5:0.580667 6:-0.342375 7:1.139812 8:-0.150252 9:-0.950826 10:0.320488 11:1.359210 12:0.761164 13:0.935423 14:0.427014 15:0.333265 16:0.995594 17:-0.396442 18:0.927725 19:-0.537320 20:-0.347762 21:1.834463 22:-0.184515 23:-0.368305 24:0.673348 25:-1.330111 26:-0.383512 27:-0.745535 28:0.610779 29:-0.228411 30:-1.335687 31:0.068535 32:0.448974 33:-0.351920 34:1.195218 35:-0.033940 36:-0.296455 37:-1.175539 38:-1.594656 39:0.555839 40:1.584655 41:-0.567322 42:-0.377608 43:-3.117491 44:-0.854537 45:-0.592233 46:0.750941 47:-0.944684 48:-0.078656 49:-0.800787 50:-0.872344 51:-0.601533 52:0.673016 53:-1.310781 54:0.455987 55:-0.399211
-1 1:-1.095074 2:-0.947612 3:-2.051375 4:-1.051247 5:-0.439063 6:-0.888874 7:-0.088576 8:-0.875276 9:-1.645839 10:-1.213395 11:0.122514 12:-0.281631 13:-1.530752 14:0.731033 15:-0.367452 16:1.431222 17:0.465057 18:1.110244 19:0.198183 20:0.599513 21:0.345886 22:-1.264787 23:-0.781101 24:0.434527 25:-0.287411 26:0.107062 27:1.390689 28:0.354534 29:0.110202 30:0.073659 31:-0.620179 32:0.062097 33:-0.772940 34:2.867070 35:-1.399841 36:0.935215 37:1.155092 38:-1.351004 39:1.757371 40:-0.433205 41:-2.305592 42:-0.925953 43:-2.169801 44:0.617981 45:-0.297333 46:0.387891 47:0.165849 48:-1.294303 49:-0.756254 50:-0.726237 51:-0.619229 52:1.259441 53:0.213268 54:-0.160026 55:1.361488
-1 1:1.381293 2:-0.182751 3:1.230178 4:1.249910 5:-0.503493 6:1.141107 7:0.066563 8:-1.598021 9:0.629045 10:-0.693938 11:-0.711493 12:-0.903402 13:-1.079555 14:-0.418700 15:-0.119229 16:-0.081333 17:-0.644466 18:-0.946814 19:-0.075246 20:0.118425 21:-0.416607 22:0.938402 23:-1.165175 24:0.736302 25:-1.774034 26:-1.081251 27:2.119788 28:0.620296 29:-1.047605 30:-0.208584 31:-0.536768 32:1.095344 33:-0.232255 34:3.027570 35:-1.125774 36:-0.257740 37:0.908870 38:-0.359884 39:-1.015723 40:-0.657466 41:-0.584457 42:1.200088 43:-0.375997 44:0.603951 45:0.311330 46:1.673633 47:2.122746 48:-0.352271 49:0.878695 50:0.306338 51:-0.600688 52:-1.239194 53:-0.911719 54:1.354885 55:-0.277996
-1 1:1.509430 2:-0.517399 3:0.397064 4:-1.119609 5:0.046211 6:-0.049293 7:1.490706 8:-0.891847 9:1.567073 10:-1.153752 11:-0.262064 12:-0.999154 13:0.519657 14:0.828322 15:-0.472333 16:-0.671567 17:0.456707 18:0.765394 19:-1.338768 20:-0.217342 21:0.863007 22:1.480038 23:1.537066 24:0.481407 25:1.229925 26:-1.041026 27:0.962194 28:0.253598 29:1.021308 30:1.295928 31:1.788526 32:2.772285 33:-1.475458 34:-0.469628 35:0.140630 36:0.581390 37:-0.038190 38:-0.384241 39:0.895976 40:-0.316081 41:-0.001602 42:-0.961960 43:-0.596578 44:-0.999894 45:0.679592 46:0.178393 47:0.979264 48:0.058477 49:0.772982 50:0.439006 51:0.650382 52:-0.082613 53:-0.077518 54:1.026292 55:0.300907
-1 1:-0.504261 2:0.343810 3:-1.112909 4:-0.991499 5:-0.589104 6:0.382310 7:-0.806942 8:0.433562 9:1.187204 10:1.171133 11:-0.063399 12:-0.843095 13:2.440610 14:-0.160661 15:-0.397261 16:-0.832605 17:0.686560 18:-0.813828 19:-0.277845 20:-0.163138 21:-0.462571 22:0.161608 23:0.669617 24:-0.848870 25:-1.110001 26:1.941005 27:-0.194277 28:0.914196 29:0.266920 30:-0.047180 31:1.994050 32:-0.924641 33:-3.197347 34:-0.497601 35:-0.681220 36:1.938043 37:1.045227 38:-0.234646 39:1.842624 40:-1.192263 41:0.137184 42:0.425678 43:1.484018 44:0.891730 45:-0.191760 46:1.854821 47:0.267139 48:-1.045225 49:0.256192 50:1.282839 51:-1.078463 52:-0.471588 53:-0.964913 54:-0.840596 55:1.390124
-1 1:1.710614 2:0.924686 3:0.392086 4:1.864636 5:-0.186864 6:-0.448472 7:0.091251 8:0.170707 9:-1.193917 10:0.147705 11:2.297397 12:-0.423999 13:-0.004569 14:-1.171366 15:0.313654 16:1.093800 17:1.433322 18:-1.601566 19:-0.265745 20:-0.657864 21:-0.283809 22:0.702555 23:0.009260 24:-0.157080 25:-0.218901 26:-1.901000 27:0.737358 28:-1.069097 29:1.004431 30:-0.299335 31:-0.859697 32:-0.181950 33:1.168195 34:-0.403585 35:1.576360 36:-2.615880 37:0.794256 38:-0.852262 39:-1.139653 40:0.406906 41:-0.179771 42:0.476148 43:0.060733 44:-0.096862 45:-0.177228 46:-0.372869 47:0.373785 48:-1.525789 49:0.817429 50:0.109630 51:-0.297439 52:0.373907 53:-0.366622 54:-1.307211 55:0.482554
-1 1:0.441897 2:0.001230 3:-0.004416 4:0.795291 5:-1.143647 6:-1.210444 7:-0.257694 8:-0.038821 9:-0.146092 10:0.712587 11:0.299207 12:1.404389 13:0.668249 14:0.399541 15:0.338386 16:1.505458 17:1.092634 18:0.482867 19:-0.573385 20:0.182703 21:-1.402706 22:0.251217 23:-1.481561 24:-1.490123 25:-1.078013 26:-0.379587 27:-0.654507 28:0.623448 29:0.102438 30:-0.447198 31:-1.375565 32:-1.157589 33:0.741830 34:-0.811704 35:-1.977246 36:-0.038226 37:0.859842 38:-0.065698 39:-0.052095 40:-0.175219 41:1.033489 42:-0.250735 43:0.057707 44:-0.042719 45:0.392997 46:-0.852935 47:-0.708765 48:-0.565728 49:-0.764002 50:-0.416118 51:0.171566 52:-0.934198 53:-0.199203 54:0.116164 55:0.346887
-1 1:-0.414721 2:0.713716 3:0.951393 4:-1.065449 5:0.137526 6:-0.240040 7:1.218515 8:0.965667 9:1.110638 10:-0.374998 11:-0.553769 12:0.660474 13:0.649394 14:0.997931 15:-0.249398 16:-1.264588 17:0.016582 18:-0.763344 19:-0.164817 20:-0.114352 21:-0.288283 22:-0.955512 23:-0.185504 24:-1.380903 25:0.848566 26:-0.526014 27:0.011641 28:0.823049 29:-0.941275 30:-0.427572 31:0.954934 32:1.125125 33:-1.179164 34:-1.075427 35:-1.568587 36:0.017179 37:-0.505666 38:0.768195 39:0.203604 40:0.698902 41:-0.514526 42:0.417585 43:-0.483590 44:-0.741796 45:-1.365410 46:0.228408 47:0.385188 48:-0.078337 49:-2.071192 50:0.397524 51:0.601376 52:-0.018096 53:0.135691 54:0.477981 55:0.750935
-1 1:-0.853530 2:-0.400877 3:-0.510126 4:-0.758572 5:0.638820 6:-0.540999 7:-1.664098 8:-0.114404 9:-0.320660 10:-0.002546 11:0.431813 12:-0.691019 13:-0.782621 14:-2.241635 15:0.248773 16:-1.228019 17:-0.305731 18:0.070683 19:0.051130 20:0.581555 21:0.107362 22:0.485362 23:-0.345279 24:-0.584652 25:0.096762 26:-0.860410 27:2.867402 28:0.771029 29:0.919982 30:0.755315 31:1.071049 32:1.752340 33:0.534574 34:1.129700 35:-0.324376 36:0.021403 37:-0.337466 38:1.285784 39:-0.266630 40:-0.535021 41:-0.380673 42:1.111093 43:0.296394 44:1.462598 45:1.220600 46:0.005164 47:-0.744454 48:-0.074153 49:-1.634411 50:0.363546 51:-2.896999 52:0.857839 53:-0.144349 54:1.012838 55:3.271256
-1 1:-0.028682 2:0.297250 3:0.107927 4:-0.546149 5:1.704616 6:-1.094088 7:1.158229 8:-0.246239 9:-2.239245 10:-0.812588 11:-0.308755 12:1.212010 13:-1.505400 14:0.649285 15:-1.273225 16:-0.638694 17:1.173892 18:1.639203 19:-1.485412 20:0.790616 21:-1.979776 22:0.222360 23:0.302671 24:0.083812 25:0.945113 26:-0.998242 27:0.664734 28:2.169257 29:-0.483282 30:0.333657 31:0.456389 32:0.608558 33:-0.676401 34:-0.891820 35:0.087094 36:-0.426576 37:-0.715597 38:-2.476376 39:-1.461240 40:1.327392 41:-0.331789 42:0.323416 43:1.557072 44:-0.978697 45:-0.660828 46:1.943605 47:1.512897 48:1.230538 49:0.749365 50:0.500124 51:0.005500 52:0.278727 53:0.983893 54:-1.258930 55:-1.243442
-1 1:0.359608 2:0.204458 3:0.644924 4:-0.370547 5:-0.586185 6:-0.487653 7:1.462884 8:-0.625839 9:-1.325593 10:-0.241167 11:-0.186287 12:-0.336542 13:-0.281844 14:0.818830 15:-0.249518 16:0.069351 17:-0.404179 18:-0.896831 19:-0.710794 20:0.462187 21:1.813989 22:0.894587 23:-1.430812 24:1.028300 25:-1.362946 26:0.730194 27:-1.544088 28:0.750999 29:-1.368666 30:-0.723421 31:-0.997881 32:1.543087 33:0.365634 34:-0.620147 35:-0.596912 36:-0.210188 37:-0.279689 38:-1.229560 39:1.595401 40:-0.579140 41:0.089549 42:0.841392 43:0.305475 44:0.930785 45:1.689416 46:-0.084742 47:-0.047932 48:-0.335365 49:1.176602 50:1.233494 51:-1.099935 52:0.400326 53:0.262927 54:1.215000 55:0.339301
-1 1:0.767219 2:-0.181213 3:0.702421 4:-1.018468 5:0.660882 6:0.603599 7:-0.149272 8:-1.521078 9:1.468782 10:-0.421291 11:0.619444 12:-0.100680 13:1.885650 14:0.896748 15:-0.926692 16:0.959263 17:-0.738850 18:0.821337 19:-0.283043 20:0.119124 21:-0.867343 22:1.477284 23:-0.530934 24:0.526610 25:-0.202710 26:-1.602901 27:-0.008729 28:0.256717 29:-1.935350 30:-0.528374 31:-0.142805 32:0.657244 33:0.398739 34:-0.492275 35:-0.584413 36:0.134615 37:0.364577 38:-0.684437 39:2.168016 40:-1.326274 41:-1.515601 42:-0.953531 43:0.392545 44:-0.220650 45:0.329281 46:0.452922 47:-0.079302 48:-0.173427 49:-0.311756 50:-1.445185 51:0.269921 52:-1.000263 53:-0.149420 54:-1.475911 55:0.878930
-1 1:0.660315 2:-0.234097 3:1.438599 4:0.107216 5:0.101451 6:1.286160 7:-1.170150 8:0.182648 9:-0.349760 10:-0.130732 11:1.408325 12:-1.704679 13:-0.288207 14:-0.519031 15:-0.877554 16:-0.389207 17:1.720789 18:0.031693 19:-0.946507 20:1.955877 21:1.358476 22:-2.153591 23:-1.048480 24:1.354483 25:-1.449219 26:-0.811835 27:-1.696133 28:0.322354 29:0.306901 30:0.993155 31:-0.252802 32:0.735255 33:-1.718177 34:0.109923 35:1.549134 36:0.584158 37:-0.725825 38:0.380102 39:-0.431540 40:0.944352 41:1.263801 42:0.561051 43:0.871113 44:-0.019461 45:-0.469586 46:0.562398 47:-1.934454 48:0.505174 49:-0.831204 50:1.219991 51:0.927063 52:0.793590 53:0.200033 54:-1.481454 55:1.087309
-1 1:0.105325 2:-0.278030 3:0.874870 4:-1.335682 5:-2.033943 6:0.380444 7:0.733993 8:0.881712 9:-0.524068 10:1.624538 11:-0.437352 12:0.481936 13:-0.293755 14:-0.032755 15:0.577983 16:0.277945 17:-1.555985 18:0.223404 19:0.394779 20:0.042948 21:0.791082 22:-1.489373 23:-0.497765 24:-0.448528 25:-0.166446 26:0.713713 27:0.605053 28:0.745506 29:-0.137472 30:-1.215393 31:1.440723 32:0.431820 33:-1.991641 34:-3.235604 35:-0.668914 36:-0.940360 37:0.653610 38:0.460539 39:-0.131805 40:0.193565 41:-1.008009 42:0.028751 43:-1.415996 44:-0.075615 45:0.703766 46:-0.405227 47:1.655519 48:0.167906 49:0.107057 50:-0.784270 51:-0.106129 52:-1.332907 53:-1.136510 54:-0.226576 55:-1.058018
-1 1:1.079154 2:-0.251048 3:1.350605 4:0.270825 5:0.447351 6:-0.101564 7:-1.453295 8:-0.440003 9:-1.400011 10:-0.855988 11:-0.309911 12:1.098665 13:-0.610752 14:-0.993132 15:1.281137 16:1.523519 17:1.707554 18:1.077004 19:0.591157 20:1.032156 21:-1.794160 22:0.681247 23:0.700343 24:0.888868 25:0.247649 26:-0.986931 27:0.787395 28:-0.751409 29:-1.507132 30:1.435622 31:-0.405094 32:-1.518919 33:1.002465 34:-1.179460 35:-1.511953 36:-0.741735 37:1.547984 38:-1.075496 39:-0.277743 40:0.936363 41:-1.929207 42:-0.728458 43:0.112447 44:1.346240 45:1.412378 46:-0.798803 47:-0.309991 48:2.736757 49:-1.774260 50:-0.430349 51:-0.470690 52:-1.975825 53:-0.718478 54:-1.344313 55:0.007465
-1 1:0.365578 2:-0.001293 3:-0.205386 4:0.315022 5:-0.093805 6:-0.123681 7:-0.840096 8:2.313426 9:-0.111490 10:-0.361529 11:-1.204165 12:-0.437376 13:-1.231484 14:1.069333 15:-0.003995 16:-0.828878 17:-0.188147 18:-0.014404 19:1.228014 20:-0.673938 21:0.757505 22:-0.726221 23:-0.970847 24:-1.398172 25:0.474684 26:0.243407 27:0.395830 28:-0.643490 29:-0.997174 30:0.452601 31:0.350657 32:-0.535524 33:0.255871 34:0.065757 35:0.159689 36:-1.174748 37:-0.473280 38:1.090144 39:-0.885950 40:-0.777140 41:-1.287659 42:1.447098 43:0.857106 44:1.553343 45:2.615441 46:-0.412610 47:-0.069428 48:0.197541 49:-0.030080 50:-0.231538 51:1.370618 52:1.039300 53:0.179489 54:-0.992190 55:-0.215761
-1 1:0.429533 2:0.321823 3:-0.103529 4:-0.600510 5:-1.063443 6:1.359021 7:0.818858 8:-0.522191 9:0.157267 10:-1.196985 11:0.019678 12:-1.199126 13:0.149475 14:0.857791 15:0.835258 16:0.032092 17:0.682387 18:-0.584102 19:2.085104 20:1.067942 21:1.160024 22:1.805198 23:0.413640 24:-0.014414 25:-0.126633 26:-1.077202 27:-0.380596 28:0.810341 29:1.163186 30:-1.533753 31:-0.124527 32:0.888508 33:0.127705 34:0.855543 35:-0.300946 36:1.897620 37:-0.644428 38:-0.678987 39:-1.327184 40:-1.170808 41:-0.479368 42:0.083509 43:0.239729 44:-0.347923 45:-1.592101 46:-0.804076 47:-1.893936 48:-1.489735 49:1.392147 50:-0.508290 51:-1.823685 52:2.267454 53:-1.604196 54:-1.388144 55:-0.111046
-1 1:0.774483 2:-0.066409 3:-0.641750 4:-0.501122 5:0.690952 6:-0.476369 7:0.287798 8:-1.561481 9:-0.054506 10:-1.023115 11:1.045254 12:-1.460909 13:-0.664607 14:-1.042381 15:0.075574 16:1.004651 17:0.926959 18:0.208197 19:-0.906328 20:1.763428 21:0.616341 22:-0.283552 23:-0.110878 24:1.959859 25:-0.086711 26:-0.230398 27:1.038638 28:1.050374 29:1.483253 30:0.603432 31:-0.324030 32:0.615628 33:0.981250 34:1.381626 35:-0.869854 36:-1.203648 37:-0.632801 38:-0.924726 39:-1.233740 40:1.023490 41:1.200284 42:-0.341631 43:1.112247 44:-0.493324 45:1.129725 46:0.035594 47:0.590842 48:0.560418 49:-0.467860 50:-1.062276 51:1.764969 52:-0.274000 53:0.123315 54:-0.071182 55:-1.535485
-1 1:0.615198 2:0.054866 3:0.134285 4:2.304856 5:0.912101 6:-1.024793 7:-0.097037 8:-0.035371 9:-0.765151 10:-0.037935 11:0.936977 12:-1.283113 13:-1.140192 14:-0.343659 15:0.722385 16:0.649260 17:0.944008 18:0.690473 19:-0.673570 20:0.471158 21:-0.528175 22:0.966273 23:0.085507 24:0.192745 25:-1.280100 26:-0.419227 27:-1.327114 28:1.851503 29:-1.327422 30:0.786778 31:0.459268 32:-0.767176 33:-0.516466 34:1.504637 35:-0.179381 36:-0.933252 37:-0.915885 38:-0.077104 39:0.715363 40:-0.872127 41:0.792419 42:0.623557 43:0.476292 44:-0.078029 45:-1.988997 46:0.181269 47:0.177085 48:0.326882 49:-0.847163 50:-1.316659 51:0.554025 52:0.860310 53:-0.931817 54:-0.213113 55:-0.732512
-1 1:-1.714139 2:0.001008 3:-0.025554 4:-0.511373 5:-0.353823 6:-0.248765 7:0.257501 8:0.426473 9:0.670074 10:-1.029474 11:0.426257 12:-1.379690 13:1.441314 14:-0.153021 15:1.685402 16:-0.517958 17:-0.811382 18:-0.006765 19:-0.446724 20:0.147918 21:-0.454800 22:-0.258751 23:-1.925267 24:0.989341 25:-0.486960 26:-1.147820 27:-1.233549 28:-0.150131 29:-1.146205 30:-2.053508 31:-0.484102 32:-0.555899 33:-0.323813 34:-1.222864 35:-0.098804 36:0.962272 37:-0.314905 38:-0.580721 39:-0.652653 40:1.240581 41:-1.842379 42:0.585429 43:0.225701 44:2.088497 45:0.634007 46:-0.262389 47:1.851008 48:-0.119364 49:0.001146 50:0.246131 51:0.179794 52:-1.806451 53:-0.708470 54:0.177570 55:2.259479
-1 1:0.189621 2:-3.383621 3:-0.083831 4:-0.844643 5:0.001545 6:0.465995 7:-0.779144 8:0.702770 9:1.188594 10:0.651220 11:-0.620818 12:-2.236025 13:-0.313855 14:0.233604 15:-1.115894 16:0.122854 17:-1.940272 18:0.655408 19:1.555216 20:0.312212 21:0.034942 22:1.419653 23:0.225354 24:-0.908973 25:-0.941291 26:-0.446617 27:-1.213639 28:-0.600822 29:-1.001943 30:-0.108288 31:-0.661901 32:-0.905630 33:0.994673 34:-0.703075 35:1.882943 36:1.604105 37:-2.440006 38:-0.088724 39:-0.808242 40:1.144320 41:0.088945 42:-0.065819 43:0.989090 44:1.764458 45:-1.704445 46:-2.076986 47:-0.208943 48:0.200622 49:0.810866 50:0.492520 51:0.240498 52:-0.060870 53:0.107379 54:0.403287 55:0.157170
-1 1:1.606884 2:-0.268730 3:-0.117086 4:-1.432584 5:-1.647039 6:-1.122245 7:-0.037445 8:-0.125529 9:1.234446 10:-1.529588 11:0.500055 12:1.080578 13:-2.452383 14:0.926550 15:-0.806229 16:1.070909 17:0.856490 18:0.207321 19:-0.589526 20:-0.452032 21:-1.366538 22:-0.737185 23:-0.649138 24:1.023636 25:-0.698940 26:-0.531406 27:0.417917 28:-1.060466 29:1.454091 30:-0.044138 31:0.084336 32:-0.013412 33:1.147709 34:0.280232 35:0.136120 36:-0.674500 37:-1.447813 38:-0.947384 39:-0.468999 40:1.690481 41:0.398921 42:0.083148 43:-0.614798 44:1.071985 45:-0.604597 46:0.614197 47:0.098952 48:-0.245961 49:-0.964790 50:-1.189300 51:-0.924031 52:-0.121606 53:1.319963 54:-0.084721 55:-0.332320
-1 1:-0.035435 2:-0.268977 3:-0.110103 4:0.678606 5:-1.271981 6:1.515829 7:-0.641291 8:1.207780 9:1.492750 10:0.053428 11:-1.182364 12:-0.731081 13:-0.691183 14:1.159084 15:-0.442071 16:0.132645 17:0.486402 18:0.797979 19:-0.545657 20:-0.960808 21:1.257738 22:1.112726 23:0.282249 24:-1.114008 25:1.276962 26:-0.018553 27:-1.051417 28:0.398006 29:-1.032559 30:0.497401 31:-0.073777 32:-0.516131 33:-0.478625 34:0.477291 35:-0.463776 36:-1.914659 37:0.191033 38:-0.353894 39:0.380312 40:-0.774073 41:0.469150 42:0.764088 43:-1.436515 44:0.230323 45:0.941800 46:0.942475 47:-0.896810 48:1.015364 49:0.861866 50:-0.738511 51:-0.631121 52:1.186979 53:-0.679654 54:-0.685881 55:-2.642673
-1 1:0.436852 2:1.554473 3:-0.628109 4:1.372255 5:-0.458700 6:-1.347705 7:0.748574 8:-0.789797 9:-0.979481 10:0.638647 11:-1.191077 12:1.533255 13:0.859952 14:0.375318 15:0.410889 16:1.576084 17:-2.687046 18:-1.305893 19:0.038412 20:0.576142 21:0.280999 22:1.036230 23:-0.388219 24:-0.386046 25:1.246653 26:0.425702 27:-0.567029 28:0.630191 29:-0.601501 30:0.651440 31:-1.107487 32:0.916499 33:-0.157803 34:-0.720013 35:0.861111 36:1.661968 37:0.044591 38:1.349279 39:-1.760913 40:1.336057 41:1.248629 42:-0.563486 43:-0.200637 44:1.691263 45:1.222040 46:-0.296626 47:-0.116830 48:-0.308361 49:1.078811 50:0.869356 51:0.242932 52:-0.638127 53:0.018882 54:0.110240 55:-0.312649
-1 1:-0.496909 2:-0.016203 3:-1.000464 4:-0.993706 5:0.844537 6:0.351874 7:-0.989063 8:1.091941 9:1.041845 10:0.332671 11:-0.626386 12:0.562292 13:-0.504836 14:-1.071703 15:1.512334 16:0.754601 17:1.470522 18:0.507145 19:-1.344062 20:0.240140 21:-1.674383 22:0.944424 23:0.500342 24:-0.780347 25:-0.199990 26:-1.822738 27:0.499397 28:-0.523917 29:1.485302 30:-0.523590 31:0.916603 32:0.224111 33:-2.420747 34:0.983974 35:0.047070 36:-0.192526 37:-0.287040 38:-1.898856 39:-0.164572 40:-1.499035 41:-0.428240 42:0.116906 43:0.939289 44:0.143875 45:0.570939 46:0.644083 47:-1.305610 48:-0.407925 49:0.392407 50:-0.808157 51:-0.886528 52:-1.009908 53:0.092310 54:0.159628 55:-1.118240
-1 1:-0.447240 2:0.530952 3:-0.741078 4:-0.754758 5:-0.892387 6:-0.956203 7:0.637959 8:-0.579759 9:0.072932 10:-0.504661 11:-0.700805 12:-1.351854 13:-0.605202 14:1.602462 15:-2.040993 16:0.561156 17:-0.615362 18:-0.812186 19:-0.402311 20:-1.465434 21:0.007852 22:-3.147903 23:-0.789887 24:-0.245583 25:-0.008825 26:-0.728076 27:-0.667915 28:0.055860 29:-1.202454 30:-0.366831 31:-0.041578 32:-0.749349 33:1.136326 34:0.200185 35:0.322421 36:-0.050696 37:-0.095919 38:-0.682733 39:-0.094322 40:-0.563602 41:-0.203199 42:1.489713 43:-0.244949 44:0.493903 45:0.449589 46:-0.683126 47:-0.103047 48:0.302297 49:-1.211059 50:-0.630005 51:1.028084 52:-0.306016 53:-1.298437 54:-2.170630 55:0.515661
-1 1:0.690005 2:1.329190 3:0.475602 4:-3.087908 5:1.044648 6:0.269214 7:0.879389 8:-0.431167 9:0.489849 10:-1.437075 11:-1.661149 12:1.725345 13:-0.097984 14:-1.595449 15:1.738905 16:0.450966 17:0.223867 18:-0.451151 19:1.180555 20:0.176345 21:-0.062028 22:-0.218081 23:1.236435 24:0.932684 25:-0.415640 26:0.647314 27:2.060041 28:-0.011959 29:-0.881933 30:0.859667 31:-0.155869 32:-0.500751 33:-0.903671 34:-0.156497 35:0.579124 36:0.894418 37:0.155513 38:0.316087 39:-0.686508 40:0.333535 41:0.764182 42:-0.087915 43:-0.316564 44:-0.135391 45:0.466935 46:-1.514556 47:0.693940 48:-0.069856 49:0.795723 50:0.128274 51:0.812948 52:-0.835052 53:-0.441110 54:2.298142 55:-0.741297
-1 1:0.424746 2:-1.714218 3:-1.240156 4:0.343174 5:0.358599 6:0.230513 7:0.233307 8:-0.280773 9:-0.111735 10:0.462677 11:1.331265 12:-0.131847 13:-0.861413 14:-1.524644 15:0.298026 16:-0.155972 17:0.807607 18:-0.745886 19:1.506205 20:2.426317 21:-2.047665 22:-0.056529 23:0.006534 24:0.610344 25:1.681704 26:1.385810 27:0.583524 28:-1.202108 29:0.554726 30:1.148948 31:-2.269667 32:-1.813050 33:-0.689673 34:0.056551 35:1.654394 36:-1.003342 37:0.560833 38:0.397165 39:0.886905 40:-0.685186 41:-1.263186 42:1.321092 43:0.837522 44:0.548257 45:-0.687971 46:-0.541995 47:1.036031 48:0.414938 49:-1.599367 50:-1.069045 51:0.270262 52:-1.118159 53:-1.000845 54:0.186604 55:0.410579
-1 1:-0.559978 2:1.529252 3:0.809765 4:1.157707 5:-1.146229 6:-0.624439 7:0.107873 8:-0.245394 9:-0.053905 10:-2.369482 11:2.049501 12:-0.931692 13:1.244111 14:-1.302456 15:-0.008896 16:0.005660 17:0.003832 18:0.211813 19:-1.038220 20:0.570078 21:0.254059 22:0.149509 23:0.155711 24:1.046828 25:-0.576252 26:1.470729 27:-0.987591 28:0.364102 29:-1.055613 30:-1.441806 31:0.319229 32:0.159844 33:0.682343 34:1.012510 35:-1.353759 36:-0.047117 37:0.592488 38:-0.141048 39:-0.229593 40:-1.885250 41:-1.516696 42:-0.605869 43:0.503425 44:0.441012 45:-0.664243 46:-1.147220 47:-1.726225 48:-0.455519 49:-1.469909 50:-0.345512 51:0.146553 52:-0.572013 53:-2.323797 54:-0.357546 55:1.135507
-1 1:0.517234 2:1.130325 3:-0.408905 4:-1.345910 5:0.063552 6:0.465454 7:0.145100 8:-0.241360 9:-1.547129 10:-0.434360 11:-0.454645 12:0.369333 13:0.539886 14:0.081903 15:-0.703824 16:0.215103 17:-0.010909 18:-0.867779 19:-0.667976 20:1.292274 21:0.019807 22:-0.262187 23:-0.834956 24:2.871696 25:0.515763 26:-0.423769 27:0.095515 28:-1.277411 29:-0.029407 30:-1.221768 31:-0.907124 32:-0.663889 33:1.163423 34:0.372359 35:1.006756 36:-1.506727 37:-0.099707 38:0.948839 39:-1.520220 40:0.386345 41:0.720984 42:1.249054 43:-0.377660 44:0.267611 45:1.044694 46:0.135829 47:0.320367 48:0.184278 49:0.277631 50:-0.216379 51:-0.570779 52:-0.895746 53:0.756241 54:-0.614209 55:0.813306
-1 1:-0.557707 2:1.201756 3:-0.230183 4:0.127154 5:-0.841958 6:-0.073154 7:-0.383047 8:-0.440317 9:-2.083366 10:-0.280980 11:0.433861 12:0.983879 13:-1.172141 14:0.007539 15:-0.787991 16:-0.645671 17:0.541562 18:-1.316664 19:0.561335 20:1.353429 21:-0.206784 22:0.203290 23:1.335059 24:-1.863778 25:0.386190 26:0.665994 27:-0.669783 28:-1.456846 29:-2.458647 30:-1.167720 31:-1.152538 32:1.482231 33:-1.497430 34:-0.819989 35:-0.868920 36:-1.239573 37:0.386042 38:0.107772 39:0.146205 40:1.610535 41:-0.190375 42:1.198291 43:0.190621 44:2.113070 45:-0.736502 46:0.021352 47:-1.080482 48:0.021069 49:0.005847 50:-0.465087 51:0.155943 52:0.408943 53:1.636862 54:1.752385 55:-0.539178
-1 1:-0.098236 2:0.607210 3:-0.899615 4:0.727420 5:-0.502031 6:0.006927 7:-0.680993 8:-0.619725 9:0.981045 10:-0.841102 11:-0.940571 12:1.144363 13:-0.912740 14:-2.153011 15:-2.431576 16:-0.818018 17:-0.907826 18:0.423784 19:-1.143093 20:0.038953 21:0.547077 22:-0.999213 23:-0.482209 24:0.082921 25:-1.157865 26:0.451126 27:1.264271 28:1.687283 29:-0.045040 30:-0.122218 31:0.193417 32:-1.043159 33:-1.245881 34:-0.915303 35:0.755264 36:-2.072895 37:1.312216 38:-0.128460 39:0.956936 40:0.708821 41:-0.358709 42:-1.715957 43:0.186691 44:-0.948166 45:0.650930 46:1.989682 47:-0.141599 48:1.017089 49:-0.503985 50:-0.761661 51:2.018166 52:0.156962 53:2.404333 54:-0.123495 55:-1.408455
-1 1:-0.705670 2:-0.675125 3:1.089620 4:0.209577 5:-1.395764 6:2.061081 7:1.248367 8:0.824308 9:-1.303059 10:-0.575998 11:1.015382 12:0.566125 13:-0.271937 14:0.385692 15:-0.631675 16:-0.322837 17:1.853359 18:-0.822968 19:-1.542494 20:0.403622 21:-0.541553 22:1.745112 23:0.352942 24:-1.926080 25:-1.022489 26:-1.562460 27:0.268584 28:-2.256083 29:-1.064362 30:-0.505883 31:0.511216 32:1.271312 33:0.962246 34:-0.371078 35:-0.389871 36:0.412113 37:0.963361 38:-0.353071 39:-0.591837 40:-1.142239 41:0.092729 42:-0.974613 43:-0.590256 44:2.054756 45:-1.263579 46:-0.237584 47:0.322607 48:0.653469 49:-0.029115 50:0.086786 51:1.202512 52:-1.067933 53:1.920906 54:0.289518 55:1.625883
-1 1:1.934157 2:0.480952 3:0.904152 4:-1.306302 5:-0.077508 6:1.676168 7:-1.367764 8:1.128548 9:1.427431 10:0.734806 11:0.525485 12:-1.078298 13:-1.241431 14:1.577240 15:-1.462510 16:-0.333614 17:-0.043007 18:-0.027691 19:0.257686 20:0.244653 21:-1.088932 22:-0.289657 23:0.646843 24:1.456143 25:-0.285602 26:0.828024 27:-0.070796 28:0.529866 29:-0.951093 30:0.003466 31:0.239538 32:-1.201739 33:-0.523716 34:0.106906 35:-0.401828 36:-0.883288 37:-1.307153 38:1.779018 39:-1.234127 40:-0.754856 41:-0.004811 42:1.458987 43:1.666751 44:-0.181422 45:1.669400 46:-2.084456 47:0.192580 48:-0.871415 49:0.553561 50:0.368141 51:-0.493502 52:0.356911 53:0.165714 54:-2.284046 55:-1.107031
-1 1:-0.164133 2:0.266163 3:-0.357870 4:0.466669 5:0.951968 6:0.781696 7:-0.290607 8:-0.302825 9:-1.177751 10:-1.762732 11:-1.393126 12:0.215867 13:-1.711637 14:0.020622 15:0.646332 16:-0.387400 17:0.275823 18:0.863488 19:0.558932 20:-0.186168 21:0.802895 22:-0.482732 23:-2.420925 24:-1.893369 25:0.040438 26:2.300026 27:0.720389 28:0.173961 29:1.343864 30:-1.597270 31:0.847850 32:-0.008542 33:-1.569278 34:-0.306263 35:0.690057 36:0.744504 37:1.085822 38:-1.171367 39:-0.549608 40:-0.872710 41:0.449402 42:-0.258142 43:0.390967 44:-0.865555 45:-0.312816 46:-1.183341 47:0.200557 48:-0.248154 49:-0.644901 50:-0.688887 51:-1.455737 52:2.580778 53:-1.186773 54:0.536567 55:1.253505
-1 1:-0.099019 2:1.272341 3:-0.806772 4:-1.492019 5:-0.926892 6:-1.329156 7:-1.923141 8:1.039057 9:-0.242958 10:-0.513829 11:0.542931 12:0.381538 13:0.883278 14:0.200746 15:0.891852 16:1.324630 17:-0.277057 18:1.325073 19:-0.249633 20:1.732844 21:-0.644028 22:0.004547 23:0.078566 24:-2.024471 25:-2.194392 26:-0.859208 27:0.547745 28:-0.296999 29:0.032673 30:0.926272 31:-0.011835 32:-0.061969 33:0.173848 34:-0.517854 35:1.824615 36:-0.067849 37:1.873418 38:-0.538567 39:1.271109 40:-0.863309 41:0.206205 42:1.697645 43:-0.585674 44:0.962504 45:0.469982 46:1.283396 47:0.485627 48:0.505735 49:0.801255 50:1.376171 51:0.169405 52:0.494280 53:1.131049 54:-0.855071 55:-0.051165
-1 1:-0.799995 2:0.648130 3:0.612477 4:-0.548247 5:0.142248 6:-0.557388 7:1.399764 8:-1.158605 9:2.308252 10:-0.139468 11:-0.175760 12:-0.974310 13:0.995448 14:0.211746 15:-0.430792 16:0.096252 17:0.017261 18:1.616855 19:2.121241 20:-0.038417 21:0.572224 22:1.017901 23:-0.403661 24:0.112899 25:0.006909 26:-0.025347 27:-1.066324 28:-1.335734 29:0.050762 30:0.080721 31:0.386267 32:0.050784 33:0.611997 34:0.963908 35:0.560099 36:1.038622 37:1.802724 38:-1.143997 39:-0.170682 40:-1.079711 41:-0.019980 42:1.693761 43:-0.056265 44:-2.011154 45:-0.204921 46:0.826358 47:-0.304550 48:0.018808 49:1.488622 50:-0.706133 51:0.450824 52:0.570685 53:0.512116 54:0.862664 55:-0.096063
-1 1:-0.326575 2:-0.177476 3:-0.220508 4:1.293924 5:1.439077 6:0.049542 7:1.483279 8:0.261775 9:0.044707 10:-1.132061 11:0.787198 12:-0.189891 13:-0.335246 14:0.961544 15:-0.240164 16:-0.765443 17:0.765977 18:0.735629 19:-0.688569 20:1.436906 21:0.779402 22:-0.248120 23:1.140660 24:0.168149 25:0.295802 26:-1.057240 27:-1.338619 28:0.023488 29:-0.670809 30:1.184585 31:-1.477339 32:-1.173805 33:0.985047 34:-1.293847 35:-0.617010 36:-0.352812 37:-0.542568 38:-0.727975 39:-0.378631 40:1.788678 41:-2.402776 42:0.435468 43:-1.286603 44:-0.515830 45:1.283652 46:-0.373396 47:-0.457070 48:0.243580 49:-0.674655 50:-0.751712 51:-0.125088 52:-0.477855 53:-0.018433 54:0.209106 55:0.018510
-1 1:1.944530 2:-1.475520 3:0.211299 4:-0.738832 5:-1.471117 6:0.447140 7:-0.435553 8:-0.420099 9:-1.284200 10:-1.138601 11:0.006959 12:-0.599028 13:-0.183012 14:1.188817 15:-0.679174 16:0.306061 17:-0.405719 18:0.819564 19:-1.757380 20:0.049506 21:-0.418462 22:-1.143426 23:0.453908 24:0.734314 25:1.082586 26:1.243347 27:-0.486263 28:-0.828886 29:0.507288 30:0.077026 31:-0.396303 32:-1.165180 33:-0.783809 34:2.241435 35:-0.178167 36:-0.543465 37:-0.287900 38:-0.497959 39:0.023320 40:0.671196 41:0.228195 42:-0.983698 43:-1.625516 44:-0.645642 45:-1.021072 46:-0.306136 47:1.209198 48:-2.191278 49:-0.126269 50:0.526540 51:1.348746 52:-0.497558 53:-0.252560 54:0.152206 55:0.273144
-1 1:1.810316 2:-1.470794 3:-1.656661 4:-0.807275 5:1.677384 6:0.866912 7:1.697984 8:-0.278471 9:1.277229 10:-0.146080 11:-0.977746 12:-0.119356 13:-0.396772 14:-2.536645 15:-0.601757 16:-1.062791 17:-2.198906 18:-0.891195 19:-1.068329 20:0.504792 21:-0.596820 22:0.540194 23:0.980272 24:-0.628320 25:1.103247 26:-0.064998 27:-0.820909 28:-0.754450 29:2.383544 30:1.368851 31:-0.716329 32:0.499379 33:0.629083 34:1.622674 35:1.154987 36:-0.226466 37:-0.952477 38:0.820637 39:1.994425 40:0.501399 41:0.838362 42:0.608087 43:-0.682166 44:1.060428 45:-1.409604 46:-0.363559 47:-1.246870 48:0.168211 49:-0.092051 50:0.350356 51:0.735424 52:-0.588571 53:0.795062 54:0.548756 55:0.305876
-1 1:1.865837 2:0.339744 3:0.493514 4:0.076750 5:0.669861 6:0.102606 7:0.477290 8:-0.343474 9:0.693777 10:-0.048785 11:-1.413417 12:-0.641883 13:0.190576 14:1.228942 15:2.668023 16:-0.730327 17:-1.420645 18:-0.896782 19:0.498515 20:0.080647 21:-0.234303 22:0.414657 23:-1.111865 24:-1.321116 25:1.090853 26:-1.713598 27:0.442871 28:-1.643126 29:-0.977995 30:-0.064610 31:0.140379 32:0.886025 33:-1.084774 34:0.548204 35:0.755162 36:1.190102 37:0.846674 38:-0.442312 39:-0.945141 40:0.224961 41:1.863800 42:-0.184638 43:-0.111056 44:-0.416231 45:0.510023 46:-1.263038 47:-0.341335 48:1.634730 49:-0.900263 50:0.254505 51:2.236143 52:0.565986 53:0.222461 54:-0.552850 55:-2.184014
-1 1:1.480299 2:2.396834 3:-0.719761 4:-0.118532 5:-0.104962 6:-1.181340 7:1.470128 8:-1.159243 9:0.304687 10:0.125390 11:1.149459 12:-1.084134 13:0.629386 14:1.968137 15:0.181641 16:-1.285557 17:1.181127 18:-1.996152 19:1.067124 20:-0.821846 21:-0.609011 22:0.837281 23:-0.141539 24:0.402944 25:-0.379509 26:1.409402 27:0.260945 28:0.142048 29:1.111553 30:-0.118264 31:-2.467928 32:-0.919344 33:-0.046759 34:0.688098 35:0.664735 36:2.566569 37:-1.037338 38:0.958999 39:1.260164 40:0.610961 41:0.548965 42:0.035343 43:-0.313979 44:1.212959 45:0.123760 46:1.459326 47:-1.341547 48:-0.862701 49:0.171536 50:0.220518 51:-0.019242 52:-1.663666 53:-1.391860 54:0.279999 55:-0.237202
-1 1:0.703222 2:-0.053174 3:-0.194276 4:0.697864 5:-0.554905 6:-0.990708 7:0.587960 8:-0.718318 9:-0.034633 10:1.101591 11:0.170966 12:1.694115 13:2.247386 14:-0.126893 15:0.363911 16:1.088760 17:-0.292657 18:-0.010016 19:0.649106 20:0.493215 21:0.717724 22:0.252342 23:-1.236653 24:2.172992 25:2.441889 26:0.347911 27:0.700621 28:-0.235984 29:-0.886676 30:-1.011615 31:-1.188677 32:0.312803 33:0.101812 34:-0.524200 35:0.291823 36:-1.224261 37:0.217966 38:-0.478386 39:2.577180 40:3.391414 41:-0.544164 42:-0.123093 43:-0.130820 44:-0.822017 45:0.328033 46:-1.081861 47:1.247521 48:-1.041401 49:1.675775 50:-0.569497 51:-0.973011 52:-2.472799 53:0.568705 54:-0.840443 55:-1.580155
-1 1:0.402146 2:1.436964 3:-0.746433 4:1.347207 5:1.721157 6:-0.846751 7:0.557027 8:0.948693 9:-0.489239 10:0.580436 11:1.488487 12:0.480443 13:0.640545 14:-1.682938 15:-1.119659 16:1.064531 17:-1.558332 18:0.428540 19:0.631505 20:1.521543 21:-0.415410 22:-0.276823 23:-0.640930 24:-0.415355 25:0.228689 26:-0.440117 27:0.367928 28:-1.721609 29:-1.441912 30:-0.646801 31:1.426434 32:-0.926450 33:-1.685541 34:1.014550 35:-1.804259 36:-0.029106 37:0.615181 38:0.123226 39:-0.011298 40:-0.210011 41:1.379703 42:0.426197 43:-1.235924 44:-0.235720 45:0.018081 46:-1.520367 47:-2.702654 48:-0.434154 49:-2.102178 50:0.251452 51:0.835418 52:0.994832 53:-0.285377 54:-0.283797 55:0.322410
-1 1:-1.312599 2:1.181833 3:0.637593 4:0.411371 5:-0.128498 6:-0.338504 7:0.510239 8:1.667888 9:-0.274236 10:-0.203637 11:-0.233443 12:0.011872 13:0.175277 14:0.260079 15:-0.748364 16:-0.881475 17:1.614540 18:0.718069 19:-0.075541 20:-0.040039 21:-0.056298 22:-1.019965 23:-0.513955 24:0.498398 25:0.246142 26:1.223486 27:-0.030615 28:1.312908 29:-1.000617 30:-0.289525 31:-0.332324 32:0.575108 33:0.296289 34:-0.013992 35:0.365173 36:0.213547 37:1.884485 38:-0.502586 39:0.381288 40:-0.598957 41:-0.293985 42:-0.977510 43:0.757154 44:1.336605 45:-1.212047 46:1.026744 47:-1.047782 48:0.478439 49:-0.792781 50:0.144346 51:1.087717 52:-0.459862 53:-0.490375 54:-0.019969 55:0.084446
-1 1:1.045760 2:1.429252 3:-0.920820 4:-0.107212 5:0.161300 6:0.181676 7:-0.491126 8:2.107612 9:-0.184160 10:0.262916 11:0.421667 12:0.814764 13:0.050128 14:0.175418 15:1.324823 16:-0.974792 17:0.835603 18:1.768990 19:-0.090278 20:-0.071842 21:0.383424 22:-0.262880 23:-0.477323 24:0.737844 25:-1.232499 26:-0.107795 27:2.093751 28:-0.450332 29:-0.022534 30:-1.161613 31:-0.539440 32:0.280642 33:-0.128563 34:0.912505 35:-0.411259 36:-0.148061 37:-0.162335 38:1.955918 39:-0.599075 40:-2.075332 41:2.114410 42:-0.253119 43:-0.903759 44:1.925298 45:-0.864311 46:1.567510 47:-1.044578 48:-0.750071 49:-1.193449 50:1.046688 51:0.461252 52:0.617097 53:0.513353 54:1.017366 55:1.492897
-1 1:0.238302 2:0.368026 3:2.091011 4:2.252379 5:0.030776 6:-0.779722 7:1.308992 8:1.063199 9:0.069177 10:-0.061474 11:-0.241859 12:0.144793 13:-0.180175 14:-0.571032 15:-0.052031 16:1.344061 17:0.014176 18:-1.018349 19:-0.851744 20:1.130592 21:-0.324350 22:0.216605 23:-0.352031 24:-1.037517 25:-2.278145 26:1.903384 27:0.249463 28:-0.783087 29:-2.005487 30:1.422918 31:-1.285669 32:2.668632 33:1.163066 34:1.465958 35:-1.548735 36:-0.978941 37:0.931945 38:-0.839026 39:1.043625 40:-0.049895 41:1.676773 42:1.039935 43:-1.149459 44:-0.463166 45:-0.425218 46:-0.338501 47:1.526136 48:0.885043 49:1.036118 50:-0.204731 51:1.414489 52:-0.902965 53:-0.392231 54:1.039363 55:-0.307636
-1 1:0.510610 2:1.700443 3:-0.621385 4:1.913897 5:-0.448749 6:-2.175968 7:-0.995933 8:-0.046070 9:-1.744685 10:-0.963107 11:-0.138546 12:0.754046 13:-0.451360 14:-0.594925 15:-0.289681 16:-0.162690 17:0.022068 18:-0.056678 19:1.003026 20:-0.197337 21:-0.659103 22:-0.401335 23:-2.870171 24:-0.954646 25:-1.102441 26:-0.233284 27:1.590663 28:-1.105913 29:-0.967522 30:-0.823899 31:0.914914 32:1.171928 33:1.226570 34:-0.762021 35:0.318178 36:-0.345475 37:0.342183 38:0.111869 39:0.418014 40:-0.984472 41:1.904748 42:1.882986 43:0.294349 44:-0.586909 45:-0.031401 46:-0.885885 47:0.656905 48:0.315083 49:-2.060345 50:-0.414953 51:0.178034 52:0.317121 53:2.220971 54:-1.032018 55:-0.388881
-1 1:-2.122926 2:-0.406001 3:-0.092645 4:0.848797 5:0.791212 6:-0.041402 7:1.809096 8:0.699448 9:-0.126434 10:-0.394563 11:1.832901 12:-0.494175 13:0.635613 14:0.522156 15:0.701633 16:0.629714 17:-1.866167 18:0.092427 19:0.438393 20:-0.973258 21:1.064388 22:0.384163 23:0.379044 24:-2.674215 25:1.011438 26:-1.607591 27:0.686239 28:-0.366991 29:-1.123160 30:-0.037657 31:-1.430219 32:0.710331 33:-1.235019 34:-1.339425 35:-0.955656 36:0.417502 37:1.585405 38:0.728183 39:0.121257 40:-1.465398 41:1.306087 42:-0.375695 43:0.171298 44:0.225024 45:-0.002084 46:1.769895 47:0.632465 48:-0.524948 49:-0.300723 50:-0.164745 51:0.225199 52:-1.373670 53:-2.429624 54:0.520270 55:2.119907
-1 1:0.453918 2:0.667440 3:-1.596908 4:-0.668850 5:-1.699647 6:-0.010546 7:2.457841 8:0.326405 9:1.105895 10:0.513653 11:-1.518518 12:0.059937 13:-0.783691 14:0.620986 15:-0.514636 16:-0.662029 17:1.900451 18:1.081701 19:0.852390 20:-1.235447 21:-0.377499 22:-0.394956 23:-0.264970 24:-0.145111 25:-0.693645 26:-0.340719 27:-0.308992 28:-1.598237 29:0.178237 30:1.122470 31:-1.911451 32:0.535426 33:0.140206 34:0.711668 35:-0.581507 36:0.113960 37:-1.739440 38:0.073021 39:-1.608980 40:1.340852 41:-1.080763 42:-0.137788 43:0.070532 44:-0.156813 45:1.480153 46:-0.393656 47:1.170476 48:0.827106 49:0.263365 50:0.110530 51:0.661817 52:-0.023205 53:-0.255962 54:1.487050 55:0.283117
-1 1:-2.632502 2:-0.225931 3:-0.792734 4:-0.460118 5:0.703766 6:0.694378 7:0.205771 8:0.001163 9:0.532701 10:-0.310250 11:0.314798 12:1.337727 13:0.969546 14:0.836673 15:-0.013471 16:1.040551 17:-0.426171 18:-1.061676 19:0.918812 20:1.266028 21:0.335742 22:0.419878 23:-0.889512 24:-2.912555 25:-1.100920 26:-0.609435 27:2.524725 28:0.658769 29:0.551449 30:-2.393620 31:1.108157 32:0.040678 33:0.069153 34:1.345705 35:0.577049 36:-0.513576 37:-0.941833 38:-0.815908 39:-0.173808 40:-0.803653 41:0.101200 42:0.416783 43:0.295211 44:0.813852 45:-0.625887 46:2.702069 47:1.954813 48:1.094407 49:-0.410550 50:-1.112659 51:-0.759136 52:-1.272865 53:0.680348 54:-1.088489 55:0.479704
-1 1:-1.922073 2:-1.813316 3:1.336605 4:-0.243776 5:-0.636838 6:-0.021860 7:-0.927516 8:-0.970463 9:1.115188 10:0.322965 11:-1.999509 12:-1.491008 13:-0.776964 14:-0.000505 15:0.697608 16:0.755650 17:-1.750623 18:0.266572 19:0.360199 20:-0.924798 21:0.940106 22:1.411629 23:-0.194159 24:0.515829 25:-1.594843 26:1.159117 27:1.093768 28:0.919692 29:-0.781048 30:-0.206760 31:0.229160 32:0.142585 33:-0.507925 34:-0.593546 35:-0.415328 36:-0.296824 37:0.144843 38:-0.506596 39:-0.258230 40:-0.328299 41:0.659472 42:-0.995053 43:0.914644 44:1.517791 45:-1.323271 46:0.570373 47:-0.292713 48:-0.682718 49:0.153113 50:0.824619 51:1.215451 52:1.445251 53:0.775646 54:-0.588031 55:-0.798348
-1 1:-0.612008 2:1.366884 3:0.131659 4:0.930926 5:-0.083393 6:1.236740 7:-0.872360 8:0.779294 9:-0.616406 10:1.103241 11:-1.868944 12:-1.061956 13:0.303330 14:0.681235 15:-0.008951 16:-0.330061 17:0.647054 18:-0.265470 19:-0.611556 20:-1.715773 21:-2.357044 22:0.011839 23:-2.110606 24:0.277136 25:0.279375 26:0.080266 27:-1.256342 28:0.266794 29:0.122384 30:0.484776 31:1.054873 32:0.113867 33:-1.336838 34:-0.065903 35:-0.001625 36:-1.566406 37:0.672503 38:0.167720 39:1.089336 40:-1.198390 41:-0.539223 42:-0.742317 43:1.330322 44:-0.935537 45:-0.115357 46:-1.238904 47:0.667198 48:-0.791952 49:0.005810 50:-0.472547 51:0.243883 52:1.569840 53:-0.300608 54:-0.966586 55:-0.709151
-1 1:-0.763449 2:-0.241957 3:-0.727544 4:-1.048475 5:-1.795513 6:0.028863 7:0.824406 8:-0.176489 9:-0.288267 10:0.825205 11:-0.781630 12:0.072265 13:0.200157 14:-0.421495 15:1.215785 16:0.102701 17:0.588215 18:1.224334 19:1.046460 20:2.492095 21:-1.296265 22:1.225882 23:-0.676402 24:-0.220666 25:1.122155 26:1.673225 27:-0.232393 28:0.599503 29:1.601659 30:0.217757 31:-0.857135 32:-1.565643 33:-0.960673 34:-0.523235 35:-0.606275 36:1.155035 37:-0.750791 38:0.849012 39:-0.143692 40:-0.610103 41:-1.015941 42:-0.755682 43:-0.548714 44:-2.972132 45:-0.432366 46:1.129073 47:0.265353 48:0.716978 49:0.212366 50:0.198332 51:1.166044 52:-0.923111 53:1.258809 54:0.057993 55:1.705437
-1 1:-0.359977 2:-1.200723 3:-1.609339 4:0.512306 5:0.883813 6:-1.604532 7:-2.295850 8:1.019553 9:-0.428001 10:-0.497139 11:-0.742589 12:0.536689 13:1.530824 14:0.815098 15:1.663186 16:0.662292 17:-0.667764 18:0.733324 19:-0.850649 20:0.910537 21:-0.235511 22:1.111934 23:-0.126450 24:-0.179755 25:0.124952 26:0.796651 27:-0.178624 28:-0.172576 29:0.785089 30:-0.531955 31:-0.173693 32:0.432264 33:1.270472 34:0.527457 35:0.566407 36:-0.342030 37:-1.515090 38:0.138731 39:0.922707 40:-0.498315 41:-0.570591 42:-0.360435 43:-0.484489 44:0.806107 45:0.380403 46:1.346541 47:0.304646 48:1.318197 49:1.407554 50:0.273238 51:-1.080370 52:-1.548090 53:-0.940337 54:-0.371181 55:-0.964192
-1 1:-1.111764 2:0.047037 3:0.908879 4:-0.271796 5:-0.368038 6:0.502532 7:-0.057247 8:-0.681887 9:1.591607 10:0.018660 11:-0.513671 12:2.174891 13:-0.049297 14:-0.025573 15:0.077565 16:-0.457793 17:-0.988355 18:-2.709023 19:-0.496008 20:0.326899 21:-1.072173 22:-2.889407 23:0.043004 24:-0.652153 25:1.255047 26:0.163733 27:-0.796495 28:-0.879259 29:0.896252 30:0.391635 31:-0.446787 32:0.089251 33:-0.834067 34:-0.230280 35:0.771787 36:0.440039 37:-0.113657 38:-0.498197 39:0.576830 40:-0.897587 41:-1.138351 42:-0.087390 43:-1.672639 44:0.998788 45:-0.147225 46:0.581067 47:-1.028264 48:-0.414910 49:-0.414300 50:-0.430640 51:0.489075 52:-0.332325 53:2.355758 54:0.910051 55:1.297273
-1 1:0.281442 2:-2.782400 3:-1.680186 4:-0.312211 5:-1.513995 6:-1.172626 7:0.932171 8:0.064770 9:-0.171397 10:-0.386840 11:-1.644742 12:2.230244 13:1.378732 14:0.231811 15:0.882270 16:-0.240849 17:-1.053555 18:2.108121 19:-0.825272 20:-0.585463 21:-0.106123 22:-0.226179 23:-0.653376 24:0.276310 25:1.020043 26:-0.514290 27:1.217587 28:-0.868844 29:0.658499 30:0.129344 31:0.346690 32:1.050955 33:-1.870711 34:1.588732 35:-0.636379 36:-1.303030 37:-0.172565 38:-0.130563 39:-0.115540 40:-0.073867 41:-0.099424 42:-0.800653 43:-0.009189 44:-0.307254 45:-0.023701 46:1.203402 47:-1.451612 48:0.291343 49:-0.919601 50:0.338681 51:-1.575443 52:-1.211829 53:-0.479099 54:-0.422223 55:-0.192159
-1 1:-0.012686 2:0.391941 3:0.459253 4:0.413204 5:1.407229 6:2.298636 7:0.859221 8:0.183476 9:-0.205270 10:0.580987 11:0.196568 12:-0.736915 13:-0.357308 14:1.187916 15:0.259540 16:1.323104 17:1.441516 18:-1.149477 19:-1.264472 20:-0.695121 21:0.376714 22:0.096368 23:0.848269 24:1.146028 25:0.918887 26:-0.143989 27:0.840430 28:0.929111 29:0.142169 30:-0.114009 31:-1.963558 32:-0.176010 33:0.147567 34:-1.320964 35:1.318372 36:0.125353 37:0.680899 38:0.272372 39:-0.977739 40:-1.589208 41:0.093639 42:-0.460164 43:0.541679 44:0.229640 45:1.328862 46:-0.726729 47:-0.227918 48:-0.274295 49:0.141182 50:-0.055236 51:-0.228866 52:0.040279 53:0.294159 54:-0.610904 55:1.756371
-1 1:-0.454570 2:0.908375 3:0.868914 4:0.463962 5:-1.171697 6:-1.243156 7:-2.527240 8:2.655598 9:-1.395768 10:1.081441 11:-0.317851 12:0.602098 13:0.157583 14:0.812489 15:0.359341 16:-0.619070 17:-0.052068 18:0.356267 19:0.820482 20:1.970642 21:0.819247 22:0.123702 23:-0.365331 24:-0.903683 25:-0.532652 26:-0.517945 27:1.023648 28:-0.407544 29:0.452310 30:0.233071 31:-0.343107 32:-2.492596 33:0.299265 34:1.613043 35:-1.716284 36:-0.438343 37:-0.708480 38:2.138588 39:-1.774763 40:0.715736 41:-0.698648 42:-1.146836 43:0.229959 44:-1.513146 45:0.946955 46:0.031153 47:-0.647155 48:-0.575399 49:-0.426433 50:-1.093299 51:0.801604 52:-1.337717 53:-1.222247 54:-0.304659 55:0.206111
-1 1:-0.073627 2:-0.941901 3:-1.654208 4:1.185101 5:0.447198 6:1.285246 7:-0.791442 8:1.332793 9:1.961130 10:-0.119470 11:0.097990 12:1.154834 13:-0.142788 14:-0.588959 15:-1.538189 16:-0.644593 17:0.101877 18:0.865291 19:-0.999508 20:-1.334796 21:-2.019404 22:-1.172441 23:-0.516191 24:-0.429270 25:-0.529438 26:1.467152 27:0.019853 28:0.718570 29:-1.444712 30:0.040788 31:-0.977044 32:1.640364 33:-0.093804 34:-1.117959 35:0.534541 36:0.331864 37:-0.238018 38:-0.377614 39:-0.535011 40:-0.466040 41:-0.651993 42:0.139730 43:-0.459625 44:-0.170857 45:-0.349740 46:-0.766757 47:-0.825103 48:0.614882 49:0.374795 50:0.064607 51:-0.034416 52:-0.409254 53:0.381064 54:0.006678 55:-0.325561
-1 1:-0.643384 2:-1.687808 3:1.166629 4:0.761435 5:0.544172 6:2.046188 7:-1.004467 8:-1.596898 9:-2.096384 10:-0.907173 11:-0.328659 12:0.538813 13:-0.228996 14:0.294625 15:0.340494 16:-1.602844 17:0.409876 18:-1.616871 19:-0.043478 20:0.212193 21:0.607401 22:0.306610 23:-1.459201 24:1.579591 25:-0.307699 26:0.458257 27:-0.389611 28:0.255901 29:-0.029911 30:-0.416297 31:0.050783 32:-1.909511 33:0.150697 34:0.099817 35:-1.985715 36:-0.056126 37:-0.885357 38:-0.019462 39:-1.809776 40:-0.480091 41:-0.279324 42:-0.889148 43:-1.221979 44:-1.311407 45:0.303671 46:0.592595 47:-0.323095 48:-0.818267 49:0.721341 50:-0.064719 51:1.322849 52:0.344797 53:-1.040094 54:-0.784661 55:-0.845545
-1 1:1.892064 2:-0.337292 3:0.458251 4:-0.742241 5:0.906749 6:0.541083 7:0.443875 8:-0.786777 9:0.251753 10:1.099596 11:1.213058 12:-1.946602 13:0.155628 14:-1.043783 15:0.717224 16:-0.493034 17:-0.186470 18:-0.227364 19:1.128548 20:0.314509 21:-2.166678 22:2.036622 23:0.139158 24:-1.251484 25:-1.327465 26:-0.922522 27:1.708782 28:0.521352 29:-1.292568 30:-0.737070 31:-0.168447 32:-0.146867 33:-0.882049 34:0.171357 35:0.119014 36:0.497278 37:2.380011 38:-0.760639 39:0.372051 40:0.181354 41:-0.206453 42:0.758530 43:-0.624798 44:0.416833 45:-0.088815 46:0.338030 47:0.122682 48:-0.052400 49:0.090992 50:-1.371928 51:0.901947 52:-0.174218 53:-1.148096 54:0.168627 55:0.103588
-1 1:0.423853 2:-0.274207 3:0.012111 4:-2.296734 5:0.805112 6:-2.690846 7:-0.119931 8:-0.748590 9:-0.845734 10:2.897220 11:-1.281785 12:1.192881 13:-0.275432 14:-1.425430 15:0.010906 16:1.711952 17:0.813332 18:-0.235113 19:-0.759752 20:0.182158 21:0.496378 22:-0.293655 23:1.455385 24:0.283920 25:0.081583 26:0.161466 27:-0.542400 28:-1.010053 29:-2.488236 30:-0.253338 31:-0.999082 32:0.301360 33:0.574062 34:-0.086852 35:-1.378860 36:1.527359 37:-1.400425 38:1.551305 39:-0.550432 40:0.140427 41:0.087221 42:0.130662 43:0.339776 44:-1.111114 45:-2.786933 46:-1.367587 47:0.176356 48:-0.535314 49:-1.492536 50:-1.371814 51:-0.044539 52:-0.414992 53:-0.246669 54:-0.050414 55:0.342128
-1 1:-0.449290 2:-0.811204 3:-0.356687 4:1.191390 5:0.040217 6:-0.623765 7:-0.673960 8:-1.799669 9:-1.654557 10:0.240574 11:1.534998 12:0.192530 13:0.711587 14:-1.259214 15:-2.141555 16:-0.314241 17:0.097076 18:-0.315558 19:-1.359297 20:0.994853 21:1.109257 22:-0.742711 23:-1.313131 24:1.102364 25:-1.229816 26:-1.334251 27:-1.169935 28:-0.460204 29:-0.648643 30:-0.087485 31:-0.488927 32:0.939573 33:-1.581062 34:-0.356125 35:0.816831 36:1.049306 37:0.153316 38:1.012994 39:0.021369 40:-0.026724 41:-0.664227 42:0.019634 43:-0.326004 44:-1.149061 45:0.774149 46:-0.879346 47:-0.816888 48:0.360330 49:0.690874 50:-0.691609 51:1.264651 52:-1.280276 53:-0.961284 54:0.052567 55:-0.531848
-1 1:1.438809 2:-1.766772 3:-0.746323 4:0.968288 5:-0.083885 6:0.463803 7:0.654914 8:0.202074 9:0.052760 10:-0.107900 11:0.291111 12:0.473482 13:-2.052608 14:0.930868 15:0.452217 16:-0.238586 17:-0.815069 18:-1.975971 19:1.990570 20:0.451065 21:0.473980 22:-1.056776 23:1.883615 24:-0.375982 25:-0.741813 26:-1.685972 27:-0.278674 28:-0.043260 29:-0.499519 30:0.624213 31:0.442202 32:-1.835800 33:1.636769 34:0.473574 35:-0.520298 36:-0.730863 37:1.196890 38:1.702972 39:-0.074242 40:-0.981887 41:-1.130209 42:-0.113360 43:0.537316 44:0.230572 45:-2.692115 46:1.524257 47:-0.824681 48:-0.243406 49:-1.740943 50:-0.973063 51:-0.057662 52:1.774432 53:0.171978 54:0.944529 55:-0.780481
-1 1:-0.521637 2:-0.968692 3:1.587374 4:0.860239 5:-1.463877 6:-0.618692 7:0.193840 8:1.057201 9:-0.268720 10:0.345924 11:-0.037322 12:-1.741735 13:0.679717 14:0.610085 15:0.876369 16:-0.391964 17:-0.040854 18:-1.543413 19:1.181624 20:0.325093 21:1.039807 22:-0.583833 23:1.021709 24:-0.570057 25:0.340747 26:0.351602 27:0.412337 28:-0.634604 29:0.171053 30:-0.521983 31:-1.184529 32:-0.628463 33:2.254145 34:-0.790637 35:-1.116241 36:-0.704092 37:0.693347 38:-0.518379 39:0.022653 40:1.006328 41:-0.811176 42:0.320948 43:-0.055466 44:1.535708 45:0.758746 46:-0.906866 47:-0.250536 48:0.508316 49:-2.205093 50:1.489295 51:-1.686262 52:0.267429 53:0.858336 54:-0.997152 55:0.073714
-1 1:-0.968370 2:0.744583 3:-0.275177 4:-2.673427 5:1.525288 6:-0.779487 7:0.079451 8:-1.331453 9:0.853084 10:0.529363 11:-1.278461 12:-0.503674 13:-0.385598 14:-0.105677 15:2.071154 16:-0.067802 17:-0.472146 18:-0.467877 19:1.182867 20:-0.073025 21:-0.486133 22:-0.642672 23:-0.264937 24:0.504551 25:1.424762 26:-1.866929 27:0.676540 28:-2.375522 29:-0.292134 30:0.523373 31:0.263752 32:-0.629888 33:0.566187 34:1.836246 35:-0.025902 36:0.255995 37:0.768140 38:0.009974 39:0.544958 40:1.241502 41:-0.708790 42:-0.765046 43:-0.062821 44:-0.245849 45:2.544986 46:0.029028 47:-0.987335 48:3.883013 49:-0.015297 50:0.557886 51:-1.625471 52:0.477575 53:-0.530514 54:-0.591924 55:-0.880091
-1 1:1.303213 2:1.389225 3:-1.296881 4:-0.018012 5:-1.264872 6:2.357531 7:0.318065 8:0.972588 9:-0.711066 10:1.000041 11:1.342843 12:1.646731 13:-1.254795 14:-0.662520 15:0.044642 16:1.961349 17:1.728968 18:-1.827344 19:0.760753 20:-0.240557 21:0.730990 22:-1.010514 23:0.143140 24:0.858039 25:-0.683862 26:-0.045754 27:0.865160 28:-2.010051 29:-0.843160 30:-0.202846 31:-0.900012 32:1.139990 33:-2.225074 34:-0.847927 35:-1.303656 36:-0.718800 37:-0.076746 38:-0.307699 39:-0.975965 40:0.136733 41:-0.259170 42:0.227467 43:0.663723 44:-0.331695 45:0.671831 46:0.219532 47:1.827237 48:-1.363375 49:0.161253 50:-0.454251 51:-0.731664 52:0.453117 53:-0.909886 54:-0.815343 55:-1.105460
-1 1:0.564016 2:0.989849 3:-0.805026 4:-0.945535 5:-0.060952 6:-1.529639 7:0.557666 8:0.251449 9:0.817775 10:1.065375 11:-0.300404 12:1.922680 13:0.005456 14:-0.008561 15:-1.102240 16:-1.009722 17:-0.868021 18:-1.037865 19:0.256622 20:-0.603176 21:-0.531596 22:1.429878 23:0.909348 24:-1.068275 25:-1.536525 26:1.355737 27:0.370716 28:-1.488815 29:0.711039 30:2.439368 31:-0.838446 32:-0.380412 33:-0.070626 34:-0.402988 35:1.952314 36:0.770815 37:0.454736 38:-0.287885 39:0.103806 40:0.334051 41:0.795577 42:-1.112792 43:3.215738 44:-0.455786 45:-0.425767 46:-0.854854 47:0.891397 48:0.123109 49:0.969976 50:0.803383 51:0.322835 52:0.416602 53:0.604482 54:-1.480248 55:-2.111993
-1 1:-1.496770 2:-0.175796 3:0.697581 4:-2.241917 5:0.704677 6:-0.729795 7:-0.222834 8:-0.504967 9:0.266103 10:-1.440103 11:0.409580 12:0.664216 13:-0.314299 14:-0.758292 15:1.578649 16:1.729569 17:0.160276 18:0.634164 19:0.260404 20:-1.532780 21:-1.147518 22:-0.872665 23:-1.648347 24:-0.363426 25:1.259647 26:0.122456 27:-0.893865 28:-0.252841 29:-1.360275 30:-0.540574 31:-0.089276 32:0.329411 33:0.829029 34:0.086416 35:-0.598594 36:1.134888 37:0.025951 38:1.110814 39:-0.399528 40:-0.162810 41:-1.540437 42:0.080489 43:0.263211 44:1.157317 45:-1.275771 46:0.346185 47:-0.717947 48:0.617647 49:0.305784 50:0.410415 51:0.683878 52:0.642798 53:-0.297634 54:0.988729 55:-0.012319
-1 1:0.835764 2:0.024536 3:1.760755 4:0.335481 5:1.368350 6:0.967903 7:0.475466 8:1.236016 9:0.278646 10:1.018734 11:0.520743 12:-0.144312 13:-0.759517 14:-0.699541 15:1.150483 16:1.984942 17:0.344757 18:-0.837814 19:1.142066 20:0.495229 21:-1.449060 22:-0.118488 23:0.616092 24:-0.932756 25:0.718117 26:-0.611752 27:-2.269149 28:-0.631287 29:0.192483 30:1.012250 31:0.013264 32:1.347382 33:-1.217059 34:-0.076253 35:2.931660 36:-0.144622 37:-0.558211 38:-0.664629 39:-1.607305 40:0.689077 41:0.305074 42:-0.216537 43:-0.091440 44:0.233627 45:-0.542366 46:0.325328 47:-0.755019 48:0.946996 49:0.895259 50:1.143563 51:-1.096795 52:-1.093187 53:-1.423005 54:-1.687994 55:-0.061265
-1 1:-0.051908 2:-1.571277 3:0.099400 4:0.666060 5:0.339869 6:-0.863713 7:0.790183 8:-0.397153 9:2.814608 10:0.438229 11:0.189953 12:0.899393 13:0.253978 14:0.472066 15:-0.461650 16:-0.236248 17:-0.472578 18:-0.003562 19:0.106688 20:0.903890 21:-1.100376 22:-0.344712 23:1.464746 24:-0.275596 25:-0.315862 26:-0.598510 27:-0.040188 28:1.092286 29:-1.572017 30:0.413272 31:-0.392784 32:-0.356358 33:0.552770 34:0.639860 35:-0.656988 36:-1.523136 37:0.281760 38:-0.460489 39:-0.003604 40:0.403992 41:0.313772 42:-0.572781 43:1.680814 44:-0.854627 45:-0.899581 46:0.650912 47:0.059655 48:-0.039604 49:0.250846 50:-1.564275 51:0.638400 52:-1.035267 53:-0.265166 54:1.271986 55:-0.096583
-1 1:-0.292249 2:1.987576 3:0.296557 4:-0.541028 5:-0.461401 6:-1.121010 7:-0.950030 8:-2.981418 9:2.009285 10:-1.889122 11:1.058202 12:-1.141528 13:-0.457568 14:-1.209960 15:-0.755221 16:0.421046 17:1.465060 18:-0.088640 19:0.229098 20:-1.361293 21:-1.265522 22:-1.954266 23:-1.259206 24:-0.614033 25:1.355066 26:-0.320027 27:0.054723 28:0.646154 29:-0.760888 30:-0.378328 31:1.965923 32:0.342998 33:-0.814202 34:-0.367765 35:-0.003482 36:-0.394791 37:-0.653774 38:-0.994487 39:-1.061099 40:1.578889 41:-0.363268 42:-1.282664 43:0.687257 44:-1.082926 45:-1.798901 46:0.663152 47:-0.140453 48:1.538306 49:0.971020 50:1.265011 51:-0.553956 52:-1.575270 53:0.357773 54:0.036022 55:0.118754
-1 1:0.938926 2:2.038756 3:-1.402978 4:-1.503613 5:1.236263 6:0.385962 7:-0.375442 8:0.331279 9:-0.588425 10:0.174965 11:-0.961741 12:1.548243 13:0.617946 14:-0.263498 15:1.133974 16:-1.635486 17:1.684921 18:1.194973 19:1.477753 20:0.145734 21:1.985060 22:0.153998 23:0.546355 24:-1.291969 25:-1.725295 26:-0.580620 27:-0.938490 28:0.509245 29:0.651376 30:0.534562 31:0.368620 32:0.800611 33:-1.337495 34:-0.386997 35:-0.051268 36:-0.846954 37:0.719286 38:0.625610 39:0.187728 40:0.273053 41:-0.765832 42:-1.361135 43:-0.382069 44:0.297752 45:1.253898 46:0.371409 47:0.172971 48:0.301010 49:-0.314802 50:0.711323 51:1.230390 52:-0.432357 53:-0.110818 54:-0.519134 55:0.316365
-1 1:-1.036291 2:-0.707685 3:0.926732 4:0.012197 5:-0.321861 6:-1.333970 7:-0.591014 8:-0.230923 9:-0.947516 10:-0.225464 11:-1.550750 12:-1.169108 13:0.392484 14:-1.402580 15:0.057636 16:1.589860 17:-0.381875 18:-0.358728 19:-0.660355 20:-1.206110 21:1.585220 22:-0.045994 23:-0.949363 24:0.302570 25:1.019431 26:0.461359 27:-0.531576 28:0.807063 29:0.526828 30:-0.204345 31:0.095846 32:1.820851 33:-1.101673 34:0.072176 35:0.232516 36:-0.784402 37:0.121343 38:-0.364766 39:0.433696 40:-1.230245 41:-0.062835 42:-0.790104 43:0.712363 44:1.009036 45:-1.329930 46:1.234252 47:-1.339801 48:-0.602944 49:-1.239228 50:1.136448 51:1.247310 52:0.386277 53:-0.023581 54:1.157997 55:-0.550594
-1 1:1.305527 2:0.253819 3:-0.081444 4:1.409986 5:-1.915012 6:0.535309 7:-0.709945 8:2.642100 9:-0.316937 10:-0.372349 11:1.917383 12:0.946871 13:0.275158 14:0.686386 15:-0.954092 16:-1.072569 17:-0.036469 18:-0.208269 19:0.800910 20:-0.004687 21:0.438346 22:0.000061 23:-0.171862 24:-2.049793 25:-2.065905 26:0.820715 27:1.205708 28:1.368358 29:-2.310503 30:-0.361591 31:0.620042 32:0.645647 33:0.459919 34:-1.678153 35:-1.882925 36:-1.290983 37:-0.728341 38:0.551292 39:0.517104 40:-0.052296 41:0.550789 42:0.678722 43:0.872002 44:-0.748576 45:1.130213 46:-0.159821 47:-0.029125 48:0.540805 49:-0.232184 50:0.705168 51:0.217229 52:-0.750644 53:2.080191 54:1.564556 55:1.206884
-1 1:-1.689842 2:1.322790 3:-0.194778 4:0.302741 5:-0.925086 6:-0.426012 7:-0.021537 8:0.790576 9:1.395730 10:1.390455 11:0.724735 12:0.555418 13:-0.538375 14:-0.101226 15:0.512786 16:-0.228054 17:1.256455 18:0.160794 19:-1.276669 20:-0.439393 21:0.988066 22:0.253911 23:0.673448 24:0.206313 25:0.987657 26:-0.150409 27:0.306207 28:1.257126 29:-1.484335 30:0.448818 31:0.704370 32:-0.282104 33:1.851102 34:1.281104 35:-0.142920 36:0.712852 37:-1.173446 38:0.605722 39:0.156569 40:-0.789268 41:0.533665 42:0.979558 43:-1.003704 44:-0.287918 45:0.557690 46:-1.099384 47:-0.528358 48:0.631142 49:0.813073 50:1.461946 51:0.674557 52:-0.316679 53:-0.986591 54:1.280316 55:-0.182704
-1 1:0.135798 2:0.815046 3:-0.019732 4:0.774809 5:-0.056715 6:-0.577334 7:-0.139494 8:0.871204 9:-0.566453 10:1.430983 11:-0.413382 12:1.631229 13:0.070307 14:-0.442575 15:0.698180 16:-0.846894 17:0.738294 18:-0.210928 19:-0.494284 20:1.130895 21:0.040462 22:-1.395219 23:1.609175 24:-0.100073 25:-0.333114 26:0.165215 27:1.059334 28:-1.098417 29:-1.403888 30:0.373123 31:1.938643 32:1.080341 33:-0.335745 34:-0.123039 35:-0.578674 36:-0.222202 37:-0.911227 38:-0.704587 39:-0.603131 40:-1.193070 41:0.063668 42:-2.438155 43:1.297738 44:-0.695513 45:-0.642919 46:-0.080317 47:-1.306745 48:1.163542 49:1.264233 50:0.376451 51:0.331007 52:1.209883 53:0.204396 54:-0.368328 55:-0.827427
-1 1:-0.084595 2:0.657651 3:-1.170428 4:-1.882804 5:0.746526 6:0.836107 7:0.846326 8:-1.353140 9:0.444489 10:-0.735072 11:-0.554773 12:0.653775 13:0.401182 14:-2.446298 15:0.907812 16:-0.107636 17:1.483526 18:-0.481105 19:-0.117783 20:0.404825 21:1.040804 22:-0.042029 23:1.003057 24:0.246308 25:0.406570 26:2.163566 27:0.261014 28:1.353798 29:-0.679087 30:-1.060806 31:-0.783992 32:0.153639 33:-1.182813 34:0.771732 35:0.350382 36:-0.540607 37:1.266154 38:-0.439518 39:1.665561 40:-0.385542 41:0.863494 42:0.528628 43:1.453093 44:-1.509330 45:1.530266 46:-0.774732 47:0.806783 48:1.102461 49:2.039434 50:-0.338358 51:0.929776 52:-1.766462 53:-1.578853 54:0.783045 55:0.245502
-1 1:-1.534798 2:-0.555531 3:-0.509124 4:1.018602 5:0.640828 6:0.316160 7:-0.811214 8:-1.294271 9:-0.081134 10:0.148918 11:-0.427312 12:-0.548164 13:-0.357896 14:0.423443 15:0.019711 16:-0.446230 17:0.368816 18:1.643367 19:1.431647 20:0.145242 21:1.498502 22:-0.912889 23:-0.038069 24:-0.070919 25:-1.713332 26:0.020403 27:-0.107072 28:-0.324526 29:0.739650 30:1.761807 31:-0.029885 32:0.104884 33:-1.974837 34:-0.942366 35:-0.230435 36:1.593334 37:0.419118 38:1.065804 39:-1.569930 40:-0.447386 41:-1.327595 42:1.091020 43:1.238727 44:-0.017550 45:-1.488663 46:0.337916 47:0.950835 48:-0.514798 49:0.912530 50:-0.918499 51:-0.112511 52:-2.301586 53:1.515716 54:1.147518 55:-1.333490
-1 1:0.317150 2:1.835433 3:0.879406 4:-0.303047 5:-1.838572 6:0.610247 7:-1.105716 8:-2.961173 9:-1.745352 10:1.009492 11:-0.749501 12:0.952413 13:0.689247 14:-0.500172 15:2.127711 16:0.360782 17:-1.792654 18:0.052825 19:0.131017 20:1.122702 21:0.672987 22:0.379169 23:-2.052671 24:1.575307 25:0.836890 26:0.270023 27:1.285297 28:-0.014029 29:-0.005009 30:0.298495 31:1.965112 32:0.762602 33:1.060326 34:-1.793453 35:-0.246928 36:0.049436 37:1.016972 38:1.499992 39:0.916029 40:-1.978784 41:0.182697 42:0.001308 43:1.053956 44:1.136086 45:-0.533285 46:1.032961 47:1.610942 48:0.100185 49:-1.064645 50:-0.527504 51:-0.200863 52:0.792720 53:0.503464 54:0.533845 55:0.148873
-1 1:1.179585 2:1.339607 3:-1.167994 4:0.612052 5:1.132892 6:0.151988 7:-0.098347 8:-0.081694 9:0.737937 10:1.477813 11:-0.168249 12:1.112227 13:-1.888230 14:-0.631017 15:-0.535217 16:-0.479099 17:-0.246216 18:1.614909 19:1.130162 20:1.104984 21:0.127545 22:1.265541 23:-0.375691 24:1.830237 25:0.412030 26:0.724831 27:1.128247 28:0.267864 29:-0.577133 30:0.496667 31:0.402571 32:1.143429 33:0.452436 34:0.788399 35:-0.386813 36:0.730885 37:-1.086800 38:-1.210002 39:-0.063698 40:-0.175860 41:0.984239 42:0.719660 43:-0.112594 44:-0.552268 45:-1.057207 46:-0.420276 47:-0.236773 48:-1.038519 49:-0.767616 50:1.620287 51:1.469534 52:-0.121938 53:-0.630585 54:-0.182012 55:0.063071
-1 1:0.151796 2:-1.607793 3:-0.997243 4:-1.173930 5:0.030224 6:-1.397879 7:0.737187 8:0.124176 9:0.389487 10:0.932000 11:-0.822579 12:-0.401228 13:-2.342863 14:-0.391212 15:1.292919 16:-0.449895 17:-0.075154 18:-0.993083 19:-0.979101 20:-0.447632 21:-0.112206 22:0.645947 23:1.026504 24:-0.405791 25:1.615063 26:1.711752 27:0.553122 28:-1.651309 29:0.535707 30:-1.420563 31:1.439781 32:0.969225 33:1.799926 34:0.341544 35:0.695750 36:1.367781 37:-0.147165 38:-0.622120 39:0.047484 40:-1.114152 41:1.731686 42:0.107842 43:2.079884 44:-1.216280 45:0.163494 46:-1.402493 47:-0.684331 48:-1.039724 49:0.589439 50:1.101019 51:0.354609 52:1.410215 53:0.778369 54:1.213172 55:0.889188
-1 1:0.326447 2:0.318178 3:-0.619438 4:-0.203728 5:-0.640122 6:-0.352100 7:-0.302790 8:-1.305937 9:0.733556 10:0.051937 11:-0.777684 12:1.680490 13:-1.460649 14:-0.569204 15:0.314227 16:0.397746 17:-1.514700 18:-0.026013 19:0.454603 20:0.470357 21:1.846738 22:0.369076 23:-1.293229 24:-1.091976 25:-0.830307 26:-1.713520 27:0.599677 28:-0.745952 29:-0.900866 30:0.786121 31:1.093159 32:1.323575 33:-0.983859 34:-0.174387 35:2.493147 36:0.676576 37:0.568162 38:0.388452 39:0.834504 40:-0.141156 41:-0.005824 42:-0.700884 43:0.168246 44:0.850402 45:0.704578 46:-0.067834 47:0.651185 48:1.049582 49:0.377206 50:-0.545100 51:0.480422 52:-1.304685 53:-0.962874 54:-0.705626 55:3.060282
-1 1:-1.701564 2:0.626787 3:0.002931 4:1.092151 5:0.696710 6:-1.021784 7:-0.013736 8:0.277209 9:-0.750450 10:-2.659586 11:0.735128 12:0.326321 13:-0.209149 14:0.074064 15:-1.166791 16:0.864088 17:-1.392828 18:-1.061185 19:0.979737 20:0.503913 21:1.029539 22:-0.267921 23:-1.333520 24:-0.669165 25:1.006227 26:-2.244773 27:1.219447 28:0.996719 29:0.021546 30:0.855620 31:-0.642447 32:-1.879175 33:0.805756 34:1.003808 35:1.959535 36:0.309643 37:0.666282 38:-1.307403 39:0.215861 40:-0.126860 41:-0.517558 42:-0.728775 43:1.039920 44:-0.817137 45:-1.405525 46:-1.266689 47:-0.260662 48:-1.644061 49:1.784665 50:-0.077927 51:-1.651623 52:-0.305458 53:0.788192 54:-0.039883 55:-0.172238
-1 1:-1.755709 2:-0.177634 3:-0.279066 4:-0.684036 5:0.043963 6:-0.274660 7:1.472839 8:-0.513175 9:-1.031366 10:0.887985 11:-0.869636 12:1.206038 13:-0.221344 14:0.192130 15:-0.463888 16:-0.850508 17:-0.743503 18:-0.167925 19:-0.143003 20:-0.422156 21:-0.305095 22:0.465511 23:-2.283643 24:0.856833 25:0.705414 26:0.526021 27:-1.536972 28:-0.513249 29:-0.099783 30:1.162920 31:-1.309626 32:0.337275 33:1.240577 34:-0.684575 35:0.241805 36:0.060633 37:1.760029 38:-0.031015 39:1.669742 40:-1.069851 41:-1.012916 42:0.861075 43:-1.658427 44:0.214887 45:0.277066 46:0.896590 47:0.346677 48:0.628224 49:1.879826 50:-0.872436 51:-1.070525 52:1.585836 53:-0.497913 54:-1.178979 55:0.353562
-1 1:0.629096 2:0.183259 3:1.791595 4:0.106688 5:0.481681 6:0.019757 7:0.720542 8:1.284555 9:0.607233 10:1.202349 11:-0.080818 12:-0.773825 13:-1.008535 14:-1.327206 15:-1.318495 16:-0.228580 17:-0.091808 18:0.104099 19:1.695682 20:0.553359 21:0.383023 22:-0.612784 23:-1.160912 24:-1.757839 25:1.230993 26:0.520085 27:1.814267 28:-0.662504 29:-0.283285 30:2.661008 31:0.985782 32:0.477645 33:-0.137402 34:0.353809 35:1.447182 36:0.659792 37:1.633119 38:0.230289 39:0.425023 40:0.281846 41:-0.241581 42:-1.381073 43:1.538662 44:0.182611 45:0.711791 46:-0.497182 47:0.815960 48:-2.665093 49:-1.610770 50:0.408804 51:-0.731544 52:1.297237 53:-1.150331 54:-0.107875 55:1.792053
-1 1:0.107392 2:-0.278706 3:0.924037 4:1.083906 5:0.053566 6:-2.020067 7:-2.922629 8:0.307972 9:0.479392 10:-0.382992 11:1.015627 12:-1.145441 13:1.572271 14:0.895122 15:1.997552 16:-0.185288 17:-0.723237 18:-0.575847 19:-0.967103 20:-1.270757 21:2.066855 22:-0.648781 23:0.014258 24:0.293155 25:-1.760801 26:0.649698 27:-0.118013 28:0.489192 29:-0.185628 30:0.450431 31:0.666679 32:0.106741 33:0.613205 34:0.413263 35:1.153917 36:-1.882394 37:0.513812 38:-1.839603 39:0.224338 40:-0.516994 41:-1.767247 42:-0.535337 43:0.883360 44:1.881901 45:-1.897422 46:0.190176 47:-0.837303 48:1.034272 49:-0.807727 50:0.012120 51:0.430809 52:-0.407486 53:-0.298773 54:-0.331261 55:-0.192010
-1 1:-2.482969 2:0.190119 3:-0.827190 4:-0.615738 5:-0.780439 6:-0.281074 7:-0.307078 8:-0.816750 9:-0.121517 10:0.505097 11:-1.177564 12:-0.373374 13:-0.512419 14:1.009183 15:1.872056 16:1.825961 17:-0.073292 18:0.037302 19:0.539462 20:-1.218869 21:0.138679 22:1.031944 23:-0.781585 24:0.411827 25:1.294873 26:0.576720 27:-0.607546 28:-0.436908 29:-0.045580 30:-0.167140 31:-0.931679 32:0.336504 33:1.258849 34:-0.646610 35:-0.825174 36:1.469051 37:-0.614524 38:-0.637766 39:0.361164 40:-1.376127 41:-0.736933 42:0.012954 43:-1.575392 44:-1.195035 45:-0.334487 46:1.264495 47:0.211310 48:-0.033958 49:0.226847 50:1.543273 51:0.181558 52:0.020743 53:-0.043220 54:-0.634188 55:-0.588805
-1 1:-1.288696 2:-0.770605 3:0.601586 4:1.618869 5:0.568406 6:0.132317 7:-1.128571 8:0.943912 9:0.070527 10:0.314733 11:-1.828885 12:1.404122 13:1.016242 14:-0.737778 15:-0.437361 16:-0.169376 17:-0.724045 18:1.035413 19:-1.658313 20:1.126852 21:-0.069933 22:0.015447 23:-1.032226 24:-0.930375 25:0.580146 26:-0.685764 27:0.614401 28:1.500530 29:-0.850494 30:-0.113573 31:-0.078769 32:1.326483 33:-0.152606 34:-0.856565 35:-1.787929 36:1.825393 37:0.543212 38:1.167694 39:0.600445 40:0.248914 41:-0.120499 42:-0.170532 43:0.535420 44:0.581610 45:0.245975 46:-0.985885 47:1.508615 48:0.780581 49:-0.853222 50:0.029193 51:-0.099923 52:-1.064256 53:1.275701 54:1.219942 55:-1.541491
-1 1:0.189517 2:-0.589528 3:-0.922190 4:0.482797 5:0.409071 6:0.168534 7:0.682552 8:-0.491111 9:-1.093971 10:-0.569935 11:1.638022 12:-0.546042 13:-0.577706 14:1.020561 15:1.560936 16:-2.060661 17:0.615049 18:0.565993 19:-0.729695 20:-0.477848 21:-0.875157 22:-0.336013 23:0.236759 24:-0.033729 25:-1.218951 26:-0.463582 27:-1.882591 28:0.183318 29:0.365248 30:-0.624286 31:1.111652 32:-1.735916 33:-1.510685 34:1.578444 35:-0.120945 36:-0.698334 37:-0.194039 38:1.077543 39:-0.854034 40:-0.277357 41:0.166112 42:-1.305770 43:0.550902 44:0.000624 45:-0.429903 46:-0.217098 47:2.450537 48:-0.143071 49:-0.206809 50:0.078313 51:1.748119 52:0.856529 53:0.641662 54:0.174328 55:1.006981
-1 1:-0.124335 2:-0.573687 3:0.562848 4:0.891865 5:0.910459 6:-0.799615 7:0.115972 8:0.189613 9:-0.166959 10:1.194090 11:0.386628 12:1.698199 13:0.687485 14:0.064097 15:-1.623139 16:0.356054 17:0.640561 18:-1.583369 19:1.347294 20:-0.185397 21:0.118406 22:1.520587 23:1.162522 24:0.833460 25:0.598623 26:-0.517073 27:0.005326 28:-0.360886 29:-2.513579 30:1.710676 31:0.656464 32:1.361194 33:0.700423 34:-0.566046 35:1.182582 36:-0.723065 37:0.409306 38:-0.709342 39:0.750279 40:0.548863 41:0.106525 42:-0.727264 43:1.216332 44:-1.130985 45:-0.454194 46:-3.635049 47:0.187381 48:-0.533931 49:0.794025 50:0.968225 51:1.389291 52:2.338721 53:-0.155595 54:-0.450311 55:0.797600
-1 1:0.660916 2:0.694172 3:-1.368121 4:0.928104 5:0.709848 6:1.198818 7:-0.215666 8:-0.743434 9:0.079115 10:-0.237581 11:0.125111 12:-0.666858 13:-0.149160 14:0.360179 15:-1.090170 16:0.452034 17:-1.045904 18:-0.131223 19:0.193569 20:-1.664775 21:1.826156 22:-0.645078 23:1.760019 24:-0.805401 25:0.766909 26:0.001919 27:1.252810 28:0.583791 29:-0.450872 30:-0.362010 31:1.119482 32:0.870185 33:0.986946 34:-0.259570 35:-0.578259 36:0.466915 37:-0.891807 38:-0.413165 39:-1.200261 40:-0.087488 41:0.296156 42:0.304372 43:-0.488907 44:-1.727659 45:-0.226918 46:1.218548 47:-0.844579 48:0.099936 49:0.216983 50:0.216005 51:0.380616 52:0.631801 53:0.563769 54:-1.037366 55:-0.993167
-1 1:0.192681 2:0.494800 3:-1.363720 4:1.204710 5:0.206303 6:-0.397496 7:2.657846 8:-0.771925 9:1.452175 10:-0.264805 11:-1.039040 12:-0.111298 13:1.841857 14:0.653001 15:-0.638992 16:0.102552 17:-1.524195 18:0.199019 19:0.226752 20:1.915627 21:0.422517 22:0.901339 23:0.283125 24:-0.552746 25:1.755102 26:1.584413 27:1.396786 28:-0.879427 29:-0.411007 30:1.059789 31:-1.147612 32:0.200846 33:-0.418191 34:-0.110853 35:0.212500 36:-0.611555 37:-0.369563 38:-0.213615 39:-1.106114 40:-0.168581 41:0.767705 42:-1.065540 43:0.691301 44:-0.034581 45:-1.058441 46:-0.756596 47:2.202909 48:0.044745 49:0.554758 50:0.187508 51:1.123705 52:0.132190 53:-0.928641 54:1.329100 55:-1.222958
-1 1:-1.669077 2:-0.229975 3:0.043429 4:-1.336571 5:0.822170 6:1.151843 7:0.820185 8:-0.885570 9:0.271412 10:-0.262492 11:1.633074 12:1.299793 13:1.008506 14:1.151919 15:-0.339496 16:1.686919 17:0.354591 18:-1.056457 19:0.883911 20:0.823616 21:1.055562 22:-0.135820 23:0.191808 24:1.191427 25:0.701323 26:-0.033512 27:-1.777261 28:0.034708 29:-0.446019 30:-1.108808 31:0.642553 32:-0.444935 33:1.560613 34:-0.882900 35:-0.500525 36:-1.109105 37:0.090781 38:0.098590 39:0.762939 40:1.255349 41:0.305214 42:0.754791 43:0.019386 44:-0.067401 45:0.328558 46:-1.501199 47:-0.835729 48:1.528514 49:-1.242887 50:0.542134 51:-0.154696 52:-1.230574 53:0.312565 54:-0.474678 55:-0.943734
-1 1:0.518344 2:1.057794 3:1.392156 4:-0.198326 5:-2.585377 6:-0.163789 7:1.190468 8:0.669253 9:-0.574908 10:1.988004 11:-0.242570 12:-0.662491 13:-0.204505 14:-0.671243 15:0.711363 16:-0.035533 17:-0.839686 18:0.525425 19:1.232861 20:-2.855468 21:-1.272931 22:-1.473381 23:0.450199 24:-0.586349 25:0.696601 26:1.075401 27:1.690699 28:-0.153303 29:1.504083 30:0.500057 31:0.030447 32:0.968257 33:0.987079 34:0.927773 35:0.768960 36:1.219142 37:3.179997 38:-0.833970 39:0.176057 40:-0.188062 41:0.133627 42:-1.005386 43:-0.611230 44:1.587358 45:-0.849282 46:-0.355643 47:0.937436 48:-0.038701 49:1.346887 50:-0.279273 51:-1.207004 52:-0.657675 53:1.430668 54:0.371629 55:-0.423928
-1 1:-0.491135 2:0.518601 3:0.416956 4:1.073087 5:-0.564858 6:-0.581535 7:-1.712508 8:0.973377 9:-1.061542 10:-0.089891 11:-0.436130 12:-0.300764 13:-0.414352 14:0.225493 15:-1.709216 16:0.320865 17:0.232656 18:1.139871 19:0.347822 20:1.027129 21:0.787561 22:0.979340 23:0.201042 24:0.533442 25:-0.065958 26:0.833549 27:0.908949 28:-1.482897 29:0.102348 30:-1.085514 31:0.689972 32:-0.083560 33:-0.055368 34:0.645357 35:-0.727769 36:1.267264 37:1.198615 38:0.147965 39:-0.935053 40:-1.066027 41:1.442067 42:0.547746 43:0.566099 44:0.367984 45:-0.171358 46:1.204915 47:0.524326 48:0.230238 49:0.252772 50:0.743953 51:-0.284037 52:0.250569 53:-0.716328 54:-0.410099 55:0.215056
-1 1:0.941998 2:-0.512447 3:-0.005684 4:-0.083761 5:0.129574 6:1.011435 7:0.555118 8:-1.102629 9:0.096434 10:-0.897896 11:0.840072 12:0.753862 13:0.401082 14:-0.717673 15:0.015892 16:-1.111950 17:1.141820 18:1.028268 19:0.048407 20:1.399418 21:-1.349785 22:-0.668804 23:-0.865741 24:1.680844 25:0.231525 26:-1.306926 27:-0.283577 28:0.571681 29:-0.304157 30:0.231462 31:1.721481 32:-0.540014 33:-0.457079 34:-0.634364 35:-0.212489 36:0.598625 37:0.622317 38:0.346320 39:-1.145037 40:0.523650 41:0.513119 42:-1.784460 43:0.346390 44:0.082925 45:0.354027 46:-0.703075 47:-1.700425 48:-0.714609 49:-0.196368 50:0.737964 51:-0.789683 52:-0.522270 53:0.321027 54:1.431626 55:0.498312
-1 1:-1.189646 2:-2.372990 3:0.080159 4:-0.854496 5:0.655615 6:-1.549506 7:1.507490 8:0.496639 9:-0.153338 10:-0.642342 11:0.099182 12:1.361135 13:0.235511 14:0.448937 15:-0.280626 16:-0.706297 17:-1.901155 18:1.001254 19:-1.041229 20:0.793879 21:-0.319894 22:0.000399 23:-1.139490 24:-0.154088 25:-1.305423 26:0.905611 27:0.379244 28:-0.658954 29:-0.442107 30:2.308038 31:0.125925 32:0.129024 33:1.756122 34:-0.942012 35:-0.100062 36:0.877384 37:1.249779 38:-0.306288 39:1.408716 40:0.029610 41:-0.183773 42:0.268515 43:0.396524 44:-0.204938 45:0.553484 46:0.026244 47:-1.692423 48:-1.762404 49:0.968235 50:-0.670083 51:-0.803551 52:-2.389630 53:0.931678 54:-0.705897 55:-1.616682
-1 1:-2.261259 2:-0.864447 3:0.445505 4:-1.669659 5:0.154258 6:0.456322 7:-0.457296 8:-1.455086 9:-1.418546 10:-0.071957 11:-0.369418 12:0.724441 13:0.576427 14:-0.154575 15:0.989872 16:-0.156929 17:-1.576298 18:-0.041462 19:-0.075717 20:0.231193 21:-0.042508 22:0.169582 23:0.070523 24:-1.433021 25:-0.191824 26:-0.950072 27:1.890042 28:1.485457 29:-1.903211 30:0.193731 31:1.234868 32:1.302997 33:0.042531 34:0.665384 35:-1.381829 36:-0.129553 37:-0.117861 38:0.219547 39:0.131888 40:1.286160 41:0.133186 42:2.970592 43:-2.748437 44:-0.320896 45:0.463668 46:1.515388 47:0.550234 48:-0.020423 49:-0.386692 50:-1.300072 51:-0.709240 52:0.360888 53:-0.654908 54:0.345496 55:-1.076249
-1 1:0.159832 2:0.584852 3:-1.553559 4:-1.771329 5:0.737985 6:0.010536 7:0.023233 8:-0.013021 9:-0.117474 10:3.433080 11:0.475865 12:1.315024 13:-1.083807 14:-1.439467 15:0.203018 16:-0.753181 17:-0.499459 18:-1.397260 19:1.552944 20:-0.885848 21:-0.085222 22:-1.059301 23:-0.514633 24:-0.142588 25:0.896920 26:-0.754660 27:0.833141 28:-0.477778 29:-0.031506 30:1.022019 31:0.226813 32:-2.257570 33:-1.518713 34:-1.456143 35:0.646467 36:-2.856076 37:0.187281 38:-1.070355 39:0.681729 40:-0.075609 41:0.404850 42:-0.446980 43:2.038033 44:1.270444 45:0.249903 46:-0.264055 47:-0.259723 48:-0.031170 49:-1.763213 50:-0.179683 51:-0.676410 52:-0.161302 53:-1.862372 54:0.322719 55:2.084907
-1 1:-1.188685 2:-0.270285 3:0.823684 4:1.075280 5:-0.438617 6:-0.102052 7:-0.160930 8:-0.475618 9:0.152141 10:-0.360894 11:0.079898 12:0.386435 13:-0.188738 14:2.282048 15:-0.183170 16:-1.024648 17:0.657231 18:0.525066 19:-1.095165 20:-0.242791 21:0.014578 22:-0.226335 23:1.186925 24:0.400965 25:-0.440186 26:0.282622 27:1.044929 28:-0.494467 29:2.413481 30:2.492522 31:-0.993709 32:-2.476111 33:-0.563700 34:-0.449046 35:-1.524395 36:-1.256580 37:-1.150079 38:0.123570 39:1.746919 40:0.266888 41:-1.458391 42:-0.832854 43:1.441003 44:0.111521 45:0.411037 46:0.724570 47:-0.752510 48:-0.566699 49:0.140535 50:0.631764 51:0.823966 52:0.053393 53:0.615988 54:-1.019763 55:-1.171423
-1 1:-0.412729 2:-2.199674 3:0.596823 4:-0.176480 5:-0.134524 6:-1.055924 7:1.304585 8:0.395116 9:-1.250893 10:1.224712 11:-1.048268 12:-0.262946 13:-0.985065 14:0.147342 15:1.260644 16:-0.111607 17:1.440604 18:-0.353651 19:-0.607225 20:-0.732691 21:-1.172661 22:-1.395893 23:-0.343489 24:0.302540 25:-0.654160 26:-0.594684 27:0.546752 28:1.169902 29:0.972594 30:0.443023 31:1.130295 32:-1.072800 33:0.385855 34:-0.722809 35:0.728531 36:-1.423265 37:0.637771 38:0.883344 39:-0.437039 40:1.284289 41:-0.182111 42:0.748936 43:0.263030 44:1.731692 45:0.970351 46:1.714188 47:1.733802 48:-0.489825 49:0.355823 50:1.971917 51:1.158827 52:0.285980 53:-1.535095 54:-0.022065 55:-0.404459
-1 1:-1.387652 2:0.963064 3:-0.136196 4:-1.673439 5:-1.340415 6:0.403673 7:0.711097 8:-0.760991 9:2.031218 10:-1.472178 11:-0.379951 12:1.127153 13:-1.001099 14:-1.112273 15:0.559131 16:-1.125687 17:-0.170786 18:0.903815 19:-0.588657 20:0.006208 21:1.049990 22:0.668839 23:-1.348535 24:2.076641 25:-0.673696 26:0.147347 27:-1.100132 28:-0.109283 29:-0.432277 30:1.045294 31:1.149795 32:0.073540 33:1.295956 34:-0.073457 35:-0.171721 36:-1.442035 37:-1.318639 38:-0.580314 39:1.695281 40:-0.369417 41:-0.418513 42:-0.106266 43:-0.095729 44:-1.951214 45:-0.574641 46:1.586366 47:0.116231 48:0.171178 49:1.994364 50:-0.757443 51:-1.293675 52:-0.572974 53:-1.344062 54:0.179274 55:0.025747
-1 1:0.013441 2:1.505823 3:-0.143455 4:1.097434 5:-1.400819 6:0.419478 7:-0.583874 8:-2.054258 9:0.899153 10:-0.088816 11:-0.430484 12:0.471014 13:0.250587 14:-0.053972 15:-1.243499 16:0.809414 17:0.526992 18:0.503764 19:0.533387 20:-0.964718 21:0.402103 22:-1.438017 23:-1.447385 24:-1.490657 25:0.620324 26:2.169804 27:0.627053 28:-0.614998 29:-0.262127 30:-0.465351 31:-1.534268 32:-0.041779 33:0.638930 34:0.114555 35:0.140674 36:1.161923 37:0.229824 38:-0.555608 39:1.910388 40:1.570802 41:-1.431405 42:0.404787 43:-0.021656 44:-0.074767 45:1.051167 46:-0.862025 47:1.461385 48:-0.498237 49:-0.299472 50:0.721998 51:-0.564816 52:1.078181 53:0.829144 54:-1.107693 55:-0.946712
-1 1:1.084329 2:0.683098 3:0.261386 4:-1.040327 5:0.967466 6:-1.999350 7:0.038503 8:0.218984 9:0.281183 10:0.273003 11:0.340870 12:0.667465 13:0.898271 14:-0.795364 15:-0.097368 16:0.719584 17:-1.109997 18:0.688780 19:1.677703 20:0.352163 21:-1.259872 22:-1.227650 23:1.436066 24:0.709709 25:-1.316993 26:-0.581381 27:-0.274330 28:-1.011349 29:-1.895402 30:-1.349888 31:-0.079700 32:-1.469143 33:2.608147 34:-0.963732 35:-0.128998 36:0.065456 37:-0.597725 38:0.761493 39:-0.945280 40:0.036462 41:0.443553 42:0.459581 43:0.776519 44:0.833901 45:1.200712 46:2.076082 47:0.099229 48:0.567503 49:0.211044 50:0.207839 51:-0.270701 52:-1.144363 53:-1.170755 54:-0.424506 55:-1.477492
-1 1:-0.190991 2:-0.357772 3:2.385282 4:1.076791 5:0.234456 6:-1.030276 7:-0.073801 8:0.692946 9:0.103575 10:-1.361458 11:-0.176527 12:0.150529 13:0.018502 14:0.116888 15:-0.487567 16:-1.431322 17:-1.176127 18:0.119439 19:-0.697492 20:-1.462948 21:0.137872 22:0.631893 23:1.892362 24:-0.361102 25:0.190753 26:-0.798488 27:-0.127437 28:0.167397 29:0.642879 30:0.649952 31:0.812920 32:-0.993943 33:-0.730128 34:-1.162476 35:1.563306 36:-0.260208 37:-0.583956 38:1.259191 39:-0.732802 40:-0.397688 41:-0.697656 42:-0.916560 43:0.176789 44:0.938033 45:-0.491658 46:0.804615 47:-0.955716 48:-0.067814 49:-0.048995 50:-0.571038 51:0.284642 52:-1.381417 53:-2.460006 54:0.186338 55:-1.837808
-1 1:-0.422181 2:-1.142821 3:-0.593085 4:0.336406 5:-1.413022 6:-0.496683 7:2.106321 8:1.792934 9:-1.079533 10:0.383299 11:0.046781 12:-0.108507 13:-0.144928 14:-0.708619 15:0.773856 16:1.103417 17:0.537755 18:-2.002661 19:1.422220 20:0.249503 21:-1.530206 22:0.509669 23:-0.246539 24:-0.998232 25:-0.838639 26:-0.869251 27:1.290204 28:-1.399571 29:-1.065029 30:-0.636418 31:0.453508 32:0.754658 33:0.711280 34:0.712258 35:1.138481 36:-0.759097 37:-0.872883 38:-0.897807 39:-1.107410 40:1.175664 41:-1.499537 42:-0.181848 43:1.467890 44:0.239957 45:-0.696701 46:0.039871 47:0.644815 48:-0.098318 49:0.425954 50:-0.070062 51:-0.201440 52:1.594320 53:0.784040 54:0.823745 55:-0.513567
-1 1:0.835413 2:-0.693554 3:0.552714 4:-0.109778 5:1.133627 6:0.071776 7:-0.443670 8:1.488134 9:-0.323183 10:-0.137242 11:-1.504763 12:-0.687150 13:-0.502701 14:-1.479068 15:1.319227 16:-1.994402 17:1.031768 18:-1.363490 19:0.878507 20:0.431499 21:-0.103351 22:-0.231233 23:0.033750 24:-0.558906 25:-2.979003 26:-1.878550 27:1.478377 28:-2.661302 29:-1.103191 30:-0.300259 31:-0.070846 32:-1.148805 33:-2.087218 34:-1.015361 35:-0.669361 36:-1.533211 37:0.521428 38:-0.959491 39:-0.702980 40:-0.861111 41:-0.256442 42:-1.591946 43:-0.582033 44:0.006701 45:0.271338 46:0.077460 47:1.337048 48:-1.335233 49:-0.311652 50:-0.864555 51:0.785204 52:0.217816 53:0.646945 54:-0.378113 55:1.777764
-1 1:-0.438782 2:-0.914239 3:-1.283365 4:-0.822733 5:0.093862 6:0.706535 7:0.290764 8:0.519085 9:1.229163 10:0.303754 11:0.007966 12:0.404368 13:0.945254 14:1.541881 15:1.124914 16:-1.094765 17:-0.238592 18:0.173207 19:1.517255 20:0.324050 21:1.402953 22:0.686370 23:1.261150 24:1.461239 25:-1.070102 26:-0.926609 27:1.719448 28:-0.206887 29:1.089220 30:1.157193 31:0.138216 32:-0.083162 33:-0.711779 34:1.944030 35:-0.532442 36:0.212466 37:0.757421 38:-0.805069 39:-0.924779 40:0.209010 41:0.510964 42:0.974441 43:-0.107331 44:1.393082 45:0.742497 46:1.445830 47:-2.603730 48:-1.495246 49:-0.049887 50:-1.217044 51:0.113263 52:-0.584858 53:0.399858 54:-0.211440 55:0.104493
-1 1:-0.938007 2:-1.370342 3:0.835879 4:-0.312545 5:0.260950 6:-0.969968 7:-0.758597 8:1.699957 9:0.985669 10:1.297774 11:-2.717271 12:0.953840 13:-0.008848 14:0.046844 15:-1.450621 16:1.594790 17:0.752159 18:0.989689 19:-0.468520 20:1.535406 21:0.026234 22:-0.435364 23:-0.650358 24:-0.187260 25:-0.323951 26:-1.328339 27:-0.128099 28:1.007572 29:-0.140271 30:-1.944756 31:-3.626131 32:0.191253 33:-1.322462 34:-0.540151 35:-0.575622 36:1.045227 37:-1.557462 38:-0.971098 39:0.915548 40:1.515254 41:0.109854 42:-2.157245 43:-1.053460 44:1.037573 45:0.782876 46:1.041452 47:1.483869 48:-0.655853 49:0.442443 50:-0.877193 51:0.829233 52:-1.507034 53:-0.736996 54:0.031315 55:-0.968760
-1 1:-0.022695 2:0.468196 3:-0.971347 4:-1.083733 5:0.450183 6:0.171509 7:0.791062 8:0.790532 9:-1.509109 10:0.502485 11:-0.517305 12:0.723705 13:-0.836992 14:-0.224199 15:0.094846 16:-0.616964 17:-1.494962 18:-0.200063 19:0.296971 20:-2.007649 21:1.317004 22:0.126176 23:1.365060 24:0.821510 25:-0.026707 26:-0.346973 27:-1.032269 28:-0.636290 29:-0.815523 30:1.184288 31:0.464992 32:-0.383023 33:0.375318 34:0.131466 35:0.974861 36:1.904713 37:-1.190404 38:-1.563962 39:0.670653 40:-1.325178 41:0.623358 42:0.012319 43:-0.085485 44:1.747448 45:-0.722100 46:0.862301 47:1.396976 48:1.121943 49:-1.522051 50:-1.305328 51:1.804297 52:-1.049719 53:0.702610 54:-0.295680 55:-0.582734
-1 1:0.473471 2:-1.103166 3:-0.478386 4:-0.782070 5:-1.472164 6:-0.333099 7:-0.650675 8:-0.353540 9:0.391618 10:0.924526 11:-1.648379 12:-0.181248 13:0.960780 14:-0.808609 15:-0.134321 16:1.582846 17:-0.015364 18:0.285840 19:0.794767 20:-2.560777 21:0.858667 22:-0.204102 23:0.035069 24:-1.076848 25:1.481331 26:-1.938778 27:-0.551880 28:0.945860 29:-1.253538 30:0.268531 31:1.643312 32:1.233209 33:0.983318 34:0.156434 35:-1.529524 36:-0.499817 37:-0.972039 38:0.456708 39:0.298642 40:-0.990138 41:1.318997 42:-0.605618 43:-0.143375 44:-0.528634 45:-0.654554 46:1.361208 47:0.624947 48:0.486706 49:-0.092759 50:1.064836 51:0.983907 52:-2.243447 53:0.584035 54:2.172019 55:1.280587
-1 1:-1.179063 2:-1.172494 3:0.381139 4:0.691938 5:-0.289309 6:1.456450 7:0.576905 8:1.501216 9:-0.999577 10:-0.913731 11:-1.054866 12:2.149000 13:0.044738 14:-0.675312 15:2.057547 16:0.130575 17:-0.645921 18:-2.077005 19:0.996205 20:-0.324887 21:0.302424 22:0.790647 23:0.524448 24:1.146750 25:-1.001179 26:-2.200992 27:0.954500 28:-0.032354 29:0.094886 30:-0.023141 31:-0.954880 32:-0.927301 33:0.345279 34:0.725029 35:1.157953 36:0.511160 37:-0.904439 38:-0.809297 39:-1.273625 40:2.356912 41:0.104030 42:-0.119003 43:0.878196 44:1.124264 45:1.455750 46:0.515189 47:0.379996 48:0.188475 49:-0.507189 50:0.536259 51:0.683687 52:-0.741337 53:0.167540 54:-2.172500 55:0.461691
-1 1:2.251110 2:0.263169 3:-0.144909 4:0.198236 5:0.123783 6:-0.845220 7:0.349914 8:1.904304 9:1.455254 10:0.996255 11:-0.162779 12:-1.067873 13:0.779597 14:0.200035 15:-1.143569 16:-1.524864 17:0.015067 18:-2.991941 19:1.001918 20:2.617550 21:-1.347861 22:0.844363 23:-0.435746 24:-0.618757 25:0.083037 26:1.548464 27:0.712453 28:0.797608 29:0.272540 30:0.377276 31:-1.770336 32:-0.941615 33:-0.224457 34:1.238275 35:0.116868 36:-1.434495 37:-0.889435 38:-0.203293 39:0.361561 40:-0.338646 41:-1.784147 42:0.798609 43:0.648094 44:-0.132953 45:-0.780093 46:0.930824 47:0.672411 48:-0.865434 49:-0.492479 50:1.874667 51:-0.197948 52:1.123808 53:1.499100 54:1.673840 55:-0.266212
-1 1:-0.528981 2:-1.011574 3:0.388200 4:-1.337259 5:-0.905323 6:2.207353 7:0.414518 8:0.264015 9:0.052045 10:-1.594380 11:-1.152494 12:-0.253805 13:1.145068 14:0.855618 15:-0.219268 16:-1.286715 17:0.329730 18:0.551455 19:-0.179448 20:1.585874 21:0.228088 22:0.150975 23:1.465105 24:0.438225 25:-0.796945 26:2.504237 27:-0.221888 28:-1.637460 29:0.192380 30:-0.962708 31:0.361411 32:-0.490437 33:-0.047541 34:0.857612 35:-1.193009 36:-0.573012 37:-0.366630 38:0.065165 39:-1.740400 40:-2.338648 41:-0.398658 42:-1.751049 43:0.363609 44:0.512423 45:-1.200362 46:-0.226501 47:-0.278311 48:1.068844 49:-0.365009 50:-0.846067 51:-0.427537 52:0.635374 53:1.273519 54:-1.898099 55:-1.299178
-1 1:1.220921 2:0.174721 3:-0.701020 4:-0.695144 5:-2.121767 6:-1.473801 7:0.650130 8:-0.448678 9:-0.551511 10:-0.015226 11:0.303334 12:-0.632565 13:-1.239509 14:-1.323672 15:0.231704 16:-1.242057 17:1.160271 18:0.836805 19:0.197151 20:-0.037057 21:-1.198183 22:-0.225963 23:1.229239 24:0.035780 25:-1.844354 26:-0.832210 27:0.635489 28:0.468557 29:-0.473086 30:-0.214741 31:-1.191087 32:-1.987203 33:-1.021454 34:0.435923 35:0.205699 36:-2.368761 37:-0.808898 38:-1.378124 39:1.037991 40:-0.099818 41:0.311423 42:-0.161438 43:-1.812937 44:-0.037769 45:-0.379989 46:-0.832998 47:-0.334576 48:0.172715 49:-0.708382 50:-0.881673 51:-0.971916 52:0.472001 53:-0.818216 54:-0.058539 55:-0.675403
-1 1:1.242366 2:1.367284 3:1.240611 4:-0.142484 5:-1.827086 6:1.355228 7:-1.702717 8:-0.453906 9:0.685898 10:-0.221049 11:0.985463 12:-0.775709 13:0.498503 14:-0.494775 15:0.147861 16:0.962847 17:1.299992 18:-1.349028 19:-0.933867 20:-1.930361 21:-0.537265 22:-0.833525 23:-0.547073 24:1.311119 25:1.073382 26:-0.316630 27:-0.845248 28:0.245163 29:0.049791 30:-1.872923 31:-1.381393 32:0.371968 33:0.491538 34:-0.263257 35:1.857799 36:0.753035 37:-0.881288 38:0.085169 39:-2.016633 40:1.475584 41:-0.355058 42:-1.417416 43:0.465621 44:-1.514998 45:2.495171 46:-1.030881 47:0.207887 48:0.643987 49:-0.406185 50:-1.464787 51:-1.227436 52:0.492962 53:-1.387172 54:0.064172 55:0.028631
-1 1:1.031953 2:-0.112183 3:1.062490 4:0.801605 5:-0.381128 6:-1.127782 7:0.424717 8:0.464121 9:0.514603 10:-0.830158 11:-0.207288 12:-1.189956 13:2.499717 14:0.722921 15:-0.487479 16:-1.703351 17:1.372848 18:1.241419 19:1.240591 20:0.285669 21:-0.166235 22:-0.257047 23:-1.151669 24:0.364384 25:-0.427584 26:-0.028590 27:-1.174181 28:-0.271728 29:0.509085 30:1.352690 31:1.221461 32:0.224484 33:0.533771 34:-1.402631 35:0.476742 36:-0.511570 37:0.666023 38:0.728905 39:-1.443827 40:0.180797 41:0.011088 42:-0.085613 43:-0.759245 44:1.286458 45:-0.186546 46:-2.178525 47:1.048920 48:-0.350074 49:-1.441470 50:0.016328 51:-1.004033 52:-0.083220 53:1.303522 54:-0.408402 55:0.333979
-1 1:0.965123 2:1.796985 3:0.441482 4:0.851938 5:-0.451292 6:-1.456769 7:1.426603 8:0.628922 9:-1.564712 10:-1.678964 11:-1.224707 12:-1.441831 13:-1.872487 14:0.958932 15:0.025948 16:-0.874606 17:-1.542007 18:-0.371362 19:-0.803387 20:0.694165 21:1.489707 22:0.546622 23:0.930866 24:-0.359445 25:-0.398715 26:0.891999 27:1.856585 28:-1.038220 29:0.146837 30:-0.000609 31:-0.024873 32:-2.025111 33:-0.346091 34:-1.312421 35:0.563754 36:-0.171454 37:2.743365 38:1.025384 39:1.911851 40:-0.555541 41:0.676168 42:0.619657 43:1.193324 44:1.302751 45:0.856731 46:0.626596 47:0.273576 48:-0.311498 49:1.475491 50:-0.331289 51:-0.199584 52:-1.284471 53:-0.059515 54:0.090761 55:1.290741
-1 1:-0.845912 2:0.887222 3:-0.183966 4:0.195701 5:-1.196972 6:-0.484413 7:-0.862405 8:0.066548 9:-1.034566 10:0.799509 11:0.591581 12:-1.339523 13:0.679774 14:-0.252531 15:0.849015 16:-1.847215 17:0.137725 18:-0.295352 19:-0.012065 20:-0.396792 21:0.104750 22:-1.549322 23:0.474900 24:0.804583 25:0.260133 26:-1.731584 27:0.457036 28:0.493640 29:0.768738 30:-1.945176 31:-0.929817 32:-0.681119 33:-0.108561 34:0.819571 35:0.847243 36:-0.582246 37:-0.862563 38:0.342094 39:-0.137948 40:0.336538 41:1.588217 42:-0.593262 43:-0.349398 44:-1.006007 45:-0.460608 46:0.125147 47:-0.133472 48:2.348434 49:-0.390136 50:-1.065783 51:0.383552 52:0.166284 53:-1.213536 54:0.025341 55:0.883706
-1 1:1.010906 2:1.408729 3:0.859883 4:0.478558 5:-0.700396 6:-2.085230 7:-0.368872 8:0.246782 9:-0.125412 10:-0.430341 11:0.437294 12:-0.254625 13:-0.052699 14:-0.733056 15:-0.887826 16:0.101192 17:-0.032604 18:-1.987637 19:0.734291 20:1.031292 21:0.691157 22:0.103957 23:1.283170 24:0.325387 25:-0.779307 26:-1.117477 27:1.326483 28:-0.417299 29:0.123641 30:0.196642 31:0.073926 32:0.185728 33:1.452715 34:-0.573735 35:-0.231851 36:0.268785 37:0.494416 38:-0.197102 39:1.737439 40:2.137856 41:0.055797 42:-0.691880 43:-0.188801 44:-3.275800 45:1.010162 46:0.465044 47:-0.149826 48:-1.407188 49:-0.212736 50:-0.856621 51:-0.857264 52:-0.936707 53:-0.590519 54:-0.922539 55:0.970510
-1 1:0.145681 2:1.395996 3:0.052914 4:0.152435 5:-0.732542 6:-0.306142 7:-0.819896 8:0.224326 9:-0.829864 10:-1.690532 11:-1.357076 12:0.750600 13:0.078035 14:-0.494444 15:-1.162714 16:0.623134 17:0.470384 18:1.604056 19:0.614358 20:0.788498 21:-0.553890 22:0.663568 23:0.225242 24:0.670438 25:0.286133 26:0.049103 27:0.821736 28:0.349250 29:-0.643321 30:-0.637957 31:0.647187 32:0.187130 33:-0.113710 34:0.787818 35:0.532061 36:0.492809 37:-1.473448 38:0.433100 39:0.642680 40:0.731833 41:1.346396 42:-0.568670 43:-0.649486 44:-0.506846 45:-0.192345 46:-1.592975 47:-0.780926 48:0.037407 49:1.271190 50:0.609165 51:0.881063 52:0.099120 53:0.054258 54:-1.019479 55:0.136018
-1 1:0.219501 2:0.754431 3:0.829201 4:-1.238090 5:-0.525035 6:1.815518 7:-1.274944 8:-1.110216 9:0.361756 10:-0.872177 11:1.712871 12:-0.013704 13:-2.063511 14:-1.175417 15:-0.044439 16:-0.326829 17:0.041635 18:0.759417 19:0.882823 20:0.635534 21:-0.559888 22:0.257023 23:-0.543329 24:0.005542 25:1.442112 26:1.547808 27:0.327411 28:0.939799 29:1.629551 30:-0.851458 31:-0.335899 32:1.165966 33:-0.533289 34:0.114554 35:-0.061229 36:0.345028 37:1.367669 38:0.490913 39:0.919861 40:-2.136138 41:0.038812 42:2.496567 43:-0.742976 44:0.742971 45:-0.888737 46:-1.216106 47:-1.444867 48:-0.857837 49:0.587763 50:-1.340720 51:2.045773 52:0.544423 53:0.881954 54:1.174704 55:-1.105283
-1 1:0.495267 2:-1.256636 3:0.419523 4:-0.137415 5:2.608775 6:-0.306922 7:0.451894 8:-0.082562 9:0.695158 10:0.887356 11:0.611497 12:2.086326 13:-0.627179 14:0.735773 15:0.523160 16:0.815370 17:-0.961002 18:-0.139920 19:-0.193953 20:-0.574741 21:1.012134 22:0.064871 23:1.418617 24:-1.928155 25:1.504981 26:1.336530 27:-0.182486 28:-0.706226 29:-0.051501 30:0.494623 31:0.988514 32:-0.837109 33:-1.495743 34:-0.163497 35:0.830713 36:-0.831629 37:-0.882778 38:1.793942 39:0.005927 40:0.831195 41:1.350762 42:0.590208 43:-1.041614 44:-2.399280 45:-0.948340 46:0.179332 47:1.062843 48:1.460696 49:2.250703 50:0.126681 51:0.359289 52:-1.445137 53:-0.831782 54:0.889299 55:0.506825
-1 1:1.277097 2:-0.028577 3:0.774714 4:0.320198 5:0.742224 6:-0.835316 7:-0.663378 8:3.323676 9:1.037812 10:-0.335282 11:-0.308425 12:0.693169 13:1.643739 14:0.770115 15:0.400464 16:0.243963 17:-1.279741 18:0.787519 19:-0.074856 20:-0.083767 21:0.240790 22:-1.459849 23:0.287187 24:-1.159629 25:-1.541492 26:-0.329228 27:0.175016 28:1.399435 29:-0.421174 30:-0.691126 31:0.618566 32:0.364072 33:-1.831546 34:-0.937204 35:0.076652 36:1.359171 37:0.091534 38:0.920662 39:2.245414 40:-0.851565 41:-1.088736 42:-1.627046 43:-0.506406 44:-1.406912 45:-2.492085 46:-0.400121 47:-1.040987 48:0.934760 49:1.420365 50:0.689092 51:1.038706 52:-0.277743 53:-0.095033 54:0.330313 55:-0.519755
-1 1:0.305382 2:-0.535064 3:0.020023 4:0.108544 5:0.514412 6:0.088690 7:-1.833420 8:0.319896 9:-0.124164 10:-0.194320 11:0.574550 12:0.018452 13:-1.376016 14:0.844645 15:-0.592039 16:0.042437 17:1.340235 18:-1.637030 19:0.832879 20:-0.164555 21:1.592076 22:1.975036 23:-2.068244 24:-0.243885 25:0.680342 26:0.345317 27:-0.571638 28:-0.553357 29:1.195446 30:0.428504 31:-0.682756 32:-1.121931 33:-0.502701 34:0.452529 35:-1.374860 36:-0.264071 37:-0.497543 38:-0.116140 39:-0.304275 40:0.286751 41:1.388225 42:0.235574 43:0.570573 44:-1.041659 45:-0.199723 46:-0.632355 47:-0.569908 48:1.233155 49:-0.086294 50:0.837677 51:-0.185861 52:-1.048119 53:0.692754 54:0.755219 55:1.288561
-1 1:-1.125177 2:0.212047 3:0.266548 4:0.364248 5:0.968629 6:1.093056 7:-0.314756 8:1.168510 9:0.866674 10:-0.430089 11:-0.705137 12:-0.117664 13:0.510842 14:-0.099351 15:0.794607 16:0.954141 17:-1.370718 18:-0.419723 19:-0.177188 20:-1.943989 21:2.033567 22:-0.697414 23:-0.844459 24:-0.253277 25:-0.684466 26:-1.257954 27:-2.112322 28:0.080354 29:0.686660 30:-1.244033 31:0.217915 32:-0.452312 33:-0.555427 34:1.646652 35:-0.467718 36:1.408355 37:0.054316 38:-0.181680 39:0.137239 40:-0.521673 41:0.745498 42:0.553079 43:2.207338 44:1.423187 45:0.831987 46:-0.466743 47:-0.977763 48:-0.976960 49:-0.722522 50:-0.427013 51:0.470395 52:0.487614 53:-1.946877 54:0.995356 55:0.161819
-1 1:0.155551 2:-2.394484 3:-1.879804 4:0.167872 5:-0.355768 6:-0.785769 7:-0.807681 8:0.653791 9:-0.069965 10:0.529377 11:0.233464 12:-1.146683 13:0.452239 14:0.502420 15:-0.029642 16:0.173801 17:0.551055 18:-1.859607 19:0.217650 20:-0.617312 21:-0.675236 22:-0.737234 23:0.401565 24:-1.577008 25:0.923336 26:-0.015964 27:-1.760649 28:-0.660423 29:-0.316979 30:0.781768 31:0.504372 32:-0.062238 33:0.755898 34:0.531509 35:-0.569511 36:-0.615385 37:-0.034034 38:-0.176525 39:1.085429 40:0.071998 41:-1.304972 42:-0.911741 43:-0.062032 44:-1.584235 45:-0.843642 46:-0.370066 47:-0.082412 48:1.389976 49:0.266749 50:1.112140 51:-0.721198 52:-0.245348 53:-0.551516 54:-1.396084 55:0.861788
-1 1:0.005857 2:-0.790511 3:-0.882834 4:0.649768 5:0.400460 6:-0.958559 7:0.017757 8:0.261554 9:0.867577 10:-1.527584 11:0.884293 12:0.747707 13:0.597723 14:-1.005154 15:-0.478600 16:-0.083540 17:-0.282480 18:0.769996 19:0.247838 20:0.713163 21:0.385685 22:-1.450241 23:0.185542 24:0.543781 25:-0.174303 26:-0.523896 27:1.050533 28:1.849559 29:0.606395 30:-0.214275 31:0.066662 32:1.144181 33:1.493040 34:-0.891236 35:-1.788491 36:0.366778 37:0.401730 38:0.644665 39:2.361104 40:-0.091300 41:-0.237861 42:-0.985490 43:0.144307 44:0.673675 45:-0.186756 46:1.572645 47:1.285438 48:-0.462434 49:-0.040836 50:-0.756013 51:1.043622 52:-1.010618 53:-1.348183 54:0.197314 55:-0.379494
-1 1:0.628578 2:-0.327744 3:-0.334806 4:1.387696 5:-2.231442 6:-0.002059 7:-0.529012 8:0.036766 9:-1.233236 10:1.323475 11:-1.436808 12:0.228312 13:-0.322387 14:-0.875040 15:-0.453716 16:0.238700 17:1.018070 18:-1.173658 19:1.934556 20:-0.055356 21:-1.311252 22:-1.870551 23:-0.008459 24:0.124230 25:0.841180 26:-0.432880 27:0.893062 28:-0.380372 29:0.127124 30:-0.777634 31:2.120714 32:-0.619613 33:0.580514 34:-1.122362 35:0.362758 36:-2.126039 37:-0.596391 38:1.699785 39:-1.415109 40:-0.858486 41:-1.323526 42:0.824303 43:1.440018 44:0.878983 45:0.215930 46:-1.040875 47:-0.576244 48:0.263137 49:0.108589 50:0.808688 51:1.059368 52:-0.019758 53:1.126145 54:0.125138 55:-1.736918
-1 1:-0.543246 2:1.527728 3:0.653502 4:-1.614088 5:-0.968477 6:2.353974 7:-1.230634 8:2.106705 9:0.816020 10:-0.226732 11:0.023638 12:-0.774326 13:-1.007450 14:1.526343 15:0.767778 16:-0.488461 17:-0.937601 18:-0.154296 19:-0.797072 20:1.499837 21:-0.738369 22:-2.418435 23:-0.540128 24:0.428664 25:-0.293640 26:1.502870 27:2.145406 28:0.206662 29:-0.548812 30:-0.433044 31:-0.693699 32:-0.676415 33:-0.025477 34:1.213703 35:0.154766 36:-0.427590 37:-0.350464 38:1.393902 39:-0.620863 40:1.121797 41:2.152298 42:0.645457 43:-1.489179 44:0.494362 45:0.557886 46:-0.809978 47:-1.569801 48:-1.055590 49:0.038189 50:-1.690833 51:-1.471736 52:0.214969 53:-0.006173 54:-0.583079 55:-1.783969
-1 1:-1.672480 2:0.280595 3:1.155295 4:-0.316080 5:1.352755 6:-0.364298 7:-0.232792 8:0.976210 9:-0.075199 10:0.651402 11:0.469908 12:1.078314 13:-0.624419 14:0.950882 15:0.011775 16:1.746543 17:0.224015 18:0.719811 19:0.156988 20:-1.495203 21:-0.615766 22:0.022978 23:-1.309296 24:0.934878 25:-0.511183 26:-0.493828 27:2.031629 28:0.986276 29:-0.260026 30:0.468006 31:-0.183804 32:0.119322 33:-0.091277 34:-0.211146 35:0.099558 36:-2.817260 37:0.237342 38:-0.404716 39:-1.365634 40:0.016076 41:0.557237 42:-0.985986 43:1.014822 44:-1.636314 45:1.385216 46:0.074706 47:-0.864629 48:0.317934 49:1.695754 50:-0.962937 51:-1.530124 52:-0.769423 53:0.219545 54:1.673067 55:-0.482873
-1 1:0.233289 2:1.880338 3:-0.181533 4:-1.238460 5:-1.354701 6:-0.066064 7:-0.485823 8:-1.879199 9:2.124140 10:-0.236741 11:0.445314 12:-0.673517 13:-2.201712 14:0.049396 15:-0.956994 16:-0.245708 17:0.970168 18:-1.313139 19:0.312667 20:-1.197989 21:0.385367 22:0.125695 23:-1.104383 24:0.362714 25:-1.482774 26:0.351154 27:2.193976 28:-1.771068 29:-1.211360 30:-0.036521 31:0.032706 32:-0.111307 33:0.784159 34:-0.717837 35:0.716542 36:-2.013997 37:-1.023783 38:1.373235 39:0.294051 40:0.513995 41:-0.670265 42:-1.121893 43:0.509317 44:-1.764406 45:0.953229 46:1.835363 47:0.534005 48:-0.711347 49:-0.376002 50:-1.008313 51:0.248109 52:0.764966 53:1.050721 54:0.268301 55:0.054470
-1 1:0.841768 2:-2.924314 3:0.741898 4:-0.314900 5:0.783610 6:0.466617 7:0.459676 8:0.097471 9:-0.199451 10:1.427695 11:0.536716 12:-0.977712 13:0.789416 14:-0.203271 15:-0.040343 16:-0.825229 17:-0.984559 18:-1.388209 19:-1.008256 20:-1.359109 21:1.509103 22:0.745831 23:-1.441545 24:0.031525 25:-0.333510 26:-1.864213 27:2.238016 28:-0.416213 29:0.737164 30:0.205277 31:2.349680 32:0.318679 33:0.650203 34:-0.170694 35:0.492438 36:-0.581858 37:0.283094 38:1.892613 39:-0.048257 40:2.168092 41:0.739673 42:0.007969 43:0.019969 44:-0.701657 45:0.829911 46:-0.187676 47:-1.143244 48:2.441891 49:0.428413 50:-0.492307 51:0.258425 52:0.840410 53:0.042008 54:-1.318491 55:0.369298
-1 1:-0.856972 2:-1.036218 3:1.138365 4:0.605412 5:0.259761 6:-1.440576 7:-2.042879 8:0.843566 9:0.933412 10:1.627021 11:-1.079678 12:1.601271 13:-2.151860 14:1.059860 15:0.405244 16:-0.832545 17:-0.192230 18:-0.361211 19:-1.939465 20:0.815489 21:-0.827703 22:0.482184 23:0.779153 24:0.176034 25:-1.527253 26:-0.184377 27:0.545981 28:1.415139 29:-0.896987 30:0.114322 31:0.727695 32:-0.092801 33:1.959855 34:1.177290 35:-1.259664 36:-0.554347 37:-1.818927 38:-0.367636 39:-0.636629 40:0.947434 41:0.023800 42:-0.386709 43:-1.011056 44:0.772979 45:1.376348 46:2.339918 47:0.052619 48:-0.916295 49:-0.759739 50:0.202104 51:-1.235062 52:-0.428327 53:-1.739077 54:0.598484 55:0.846321
-1 1:-2.351735 2:0.331459 3:-0.784265 4:-1.312753 5:0.447086 6:-0.278489 7:0.735235 8:-0.648631 9:0.038681 10:-0.525907 11:0.100304 12:0.175819 13:0.426112 14:2.127668 15:1.141424 16:0.194591 17:-0.082870 18:1.154164 19:-1.614320 20:1.878260 21:-1.722791 22:0.138085 23:-0.967517 24:-1.409839 25:0.096795 26:1.190890 27:2.467140 28:0.187797 29:-0.755414 30:0.965414 31:-0.111826 32:0.230559 33:-1.789930 34:1.356103 35:0.231631 36:1.537256 37:0.022249 38:1.253795 39:1.347141 40:-0.997718 41:3.463481 42:-0.016593 43:-1.095802 44:0.147022 45:-1.630245 46:-0.378751 47:0.776232 48:-0.496216 49:-0.331371 50:0.385117 51:2.202984 52:1.345728 53:0.426403 54:0.311824 55:0.088982
-1 1:-0.238689 2:1.148457 3:1.331199 4:0.233574 5:0.679164 6:1.385638 7:-0.363091 8:-0.478042 9:-0.312278 10:2.003128 11:-2.342503 12:-0.419596 13:0.209483 14:0.559158 15:-0.336281 16:-0.526448 17:-0.971477 18:0.328493 19:0.795747 20:3.524342 21:0.783143 22:0.021636 23:0.584813 24:0.969034 25:1.147942 26:0.766627 27:2.975611 28:0.403529 29:0.560052 30:1.304063 31:0.965826 32:-0.384336 33:-0.903565 34:0.730161 35:-0.295942 36:0.636731 37:1.035221 38:0.234024 39:-0.217418 40:1.418787 41:-0.206685 42:0.244039 43:-1.091198 44:-1.292315 45:0.295000 46:1.245182 47:1.043972 48:1.227319 49:1.001135 50:2.313000 51:-0.721274 52:0.203762 53:0.358478 54:-0.081010 55:0.180634
-1 1:1.851610 2:1.211416 3:-0.769473 4:-0.117340 5:1.028115 6:0.011582 7:0.401755 8:0.983505 9:0.113753 10:-0.824200 11:-0.037230 12:0.373156 13:1.866406 14:0.502130 15:-1.886214 16:-1.277327 17:-0.956242 18:-0.615604 19:-0.714951 20:0.773091 21:0.217628 22:0.278259 23:-1.096817 24:0.317215 25:0.241475 26:1.456838 27:-1.808041 28:0.765135 29:1.731089 30:0.291149 31:1.339257 32:-0.851056 33:0.754785 34:-0.597358 35:-0.005924 36:0.024778 37:1.735108 38:0.534464 39:-1.519291 40:-1.270205 41:1.412737 42:-1.483526 43:1.242415 44:-0.951535 45:1.198990 46:-1.175437 47:1.297947 48:0.294747 49:-0.503439 50:-0.768713 51:-0.225559 52:-0.483350 53:-0.658126 54:-1.953601 55:-2.110883
-1 1:0.829195 2:1.329786 3:-1.667618 4:1.341293 5:0.721469 6:1.511171 7:0.869627 8:-0.291604 9:-0.197818 10:0.336159 11:-1.145647 12:-0.925987 13:0.637745 14:0.405425 15:-0.576916 16:1.279206 17:1.269770 18:-1.305059 19:1.777193 20:-0.200656 21:0.000387 22:-0.834210 23:0.192436 24:-0.090065 25:1.937872 26:-0.119143 27:-1.811276 28:-0.420800 29:-0.737962 30:0.695831 31:-0.727810 32:0.562159 33:-0.053141 34:-1.273661 35:0.164373 36:-0.188206 37:0.847032 38:-0.887115 39:-1.241707 40:-1.215411 41:0.223819 42:0.343636 43:2.279570 44:-0.234898 45:1.272118 46:0.817140 47:0.339789 48:0.515632 49:0.121968 50:0.749858 51:0.952267 52:1.018127 53:-1.784304 54:-0.099004 55:1.392494
-1 1:1.529687 2:-1.284843 3:-1.592881 4:-1.172386 5:0.428264 6:0.215319 7:-1.598986 8:-2.438324 9:0.256717 10:1.007268 11:-0.955120 12:0.726393 13:0.656011 14:-0.575537 15:-1.607146 16:-0.211797 17:0.098203 18:0.623296 19:1.249215 20:0.609724 21:-0.749840 22:-0.734368 23:0.099164 24:-0.434766 25:0.179171 26:0.093850 27:0.298394 28:-0.010251 29:-1.868560 30:-1.644964 31:-1.069978 32:1.402468 33:0.373020 34:-1.098430 35:-0.121388 36:-0.714877 37:2.203856 38:-0.351426 39:0.595724 40:1.581363 41:0.434348 42:-1.052958 43:0.284195 44:-0.187465 45:-1.656374 46:0.714346 47:0.002647 48:0.206474 49:-0.072436 50:0.664953 51:-0.661728 52:-0.816957 53:1.281331 54:-0.412315 55:-1.176727
-1 1:-0.018573 2:-0.080440 3:0.012617 4:1.247618 5:-0.212345 6:0.507439 7:1.014487 8:0.830925 9:0.260770 10:1.227144 11:0.596035 12:-0.374848 13:0.552302 14:1.198578 15:0.556763 16:-0.300860 17:1.233545 18:-0.253799 19:0.065667 20:-1.483689 21:-0.102508 22:0.238088 23:-0.857153 24:0.652509 25:1.130014 26:0.549236 27:0.270043 28:0.098370 29:-0.598031 30:-1.171184 31:0.056747 32:-1.060555 33:1.307593 34:-0.693864 35:0.343641 36:1.613189 37:0.259730 38:-2.824644 39:-0.693174 40:0.011697 41:0.903296 42:2.415160 43:-0.498339 44:0.680295 45:-0.430792 46:-1.060799 47:-0.174879 48:-1.174660 49:1.161791 50:-0.050413 51:-0.887711 52:1.877785 53:-1.105219 54:-0.606899 55:-0.476706
-1 1:0.104586 2:0.554465 3:-0.015761 4:2.056447 5:-0.811160 6:1.570523 7:-0.514201 8:-0.759974 9:-0.711667 10:-0.190716 11:1.265118 12:-3.542527 13:0.915680 14:1.786218 15:0.437464 16:1.748939 17:-0.529314 18:0.022800 19:1.839060 20:1.116717 21:0.351591 22:0.349109 23:1.954963 24:0.523928 25:-1.634940 26:-0.476515 27:1.664239 28:-0.557975 29:-0.804116 30:-0.557089 31:-0.831318 32:-1.400540 33:0.730697 34:0.468160 35:-1.010550 36:-1.183180 37:-0.378384 38:-1.086123 39:0.289525 40:-0.132742 41:0.584501 42:0.709495 43:-0.848432 44:0.469083 45:-0.133553 46:0.437391 47:-0.432395 48:-1.584858 49:0.444966 50:-0.292861 51:0.931944 52:-0.541833 53:1.054867 54:1.106163 55:0.660553
-1 1:-0.332345 2:-1.339434 3:-0.021612 4:-0.362707 5:2.848665 6:0.670987 7:-1.416819 8:0.954031 9:2.037723 10:0.570360 11:-0.091054 12:0.285281 13:-1.694565 14:-0.384486 15:0.907293 16:0.227334 17:0.146562 18:-1.798585 19:-1.399923 20:-1.522710 21:1.016691 22:-0.025779 23:-0.278854 24:1.929860 25:-0.675633 26:0.475008 27:0.867416 28:0.468471 29:0.023360 30:0.790812 31:1.645878 32:0.046138 33:-0.540851 34:2.086554 35:0.735026 36:0.572705 37:-1.659965 38:0.104385 39:-0.401316 40:-1.320894 41:0.346164 42:0.211105 43:0.211150 44:-0.541248 45:0.168345 46:-0.737206 47:-0.917813 48:-1.610198 49:0.776366 50:-0.613519 51:0.634093 52:-0.848788 53:0.072441 54:-0.309310 55:-1.129279
-1 1:0.153263 2:0.333957 3:0.394598 4:-0.613742 5:-1.342310 6:0.830996 7:0.327645 8:1.684538 9:-0.401949 10:-1.136252 11:0.726636 12:2.999700 13:0.996600 14:1.606540 15:0.413444 16:-0.876938 17:-0.981581 18:-0.998449 19:0.904407 20:-0.989911 21:-0.938711 22:-0.619932 23:1.498197 24:1.660970 25:-1.110144 26:1.788018 27:-1.208277 28:-0.211259 29:-1.676114 30:-0.449159 31:0.850612 32:-2.474005 33:-0.234478 34:-1.448608 35:0.762049 36:0.226069 37:0.174026 38:-0.697839 39:0.538623 40:-0.781615 41:-0.961192 42:-2.014522 43:-1.031294 44:-0.184885 45:0.169518 46:-0.099966 47:-0.025669 48:-0.878162 49:-0.126931 50:-0.732889 51:-0.385410 52:-0.961760 53:-0.767184 54:-1.317555 55:-0.194331
-1 1:-0.360964 2:0.020640 3:0.556796 4:0.785392 5:2.092142 6:-0.528454 7:-0.027685 8:0.266906 9:1.671127 10:-0.277862 11:0.303977 12:0.410304 13:-1.113202 14:0.059957 15:0.512581 16:-3.238048 17:-1.357927 18:0.548658 19:0.019239 20:2.076051 21:-0.654994 22:-0.897595 23:-0.483226 24:-1.172434 25:0.152841 26:0.548397 27:-0.200716 28:0.047572 29:-0.192420 30:0.010173 31:-0.899133 32:0.688609 33:0.980350 34:-0.481605 35:0.569026 36:1.977803 37:1.330235 38:0.365006 39:-0.947939 40:-0.281808 41:1.507870 42:0.780063 43:0.139348 44:0.628902 45:0.449984 46:-1.739413 47:0.251156 48:0.119027 49:0.022248 50:-0.021730 51:-0.608222 52:-2.081359 53:0.110484 54:-1.287800 55:-0.034603
-1 1:-0.337701 2:0.005465 3:-0.631033 4:0.651012 5:0.395997 6:0.544923 7:0.926067 8:-0.017114 9:-1.212191 10:-0.175507 11:-0.678077 12:-1.413421 13:-0.201068 14:0.071099 15:0.805210 16:-0.244739 17:0.133581 18:0.433631 19:1.007809 20:-1.281616 21:-1.359025 22:-0.775826 23:-1.097323 24:0.388326 25:-0.103394 26:0.749959 27:-0.311019 28:-1.488719 29:0.429809 30:-0.001637 31:-1.579423 32:1.511504 33:-1.382069 34:1.016753 35:-1.419329 36:1.177924 37:-0.716989 38:-0.800019 39:-1.202432 40:-0.250788 41:1.380720 42:-1.732404 43:1.478471 44:-0.063616 45:1.295864 46:1.554868 47:0.032596 48:-0.611530 49:0.682627 50:-0.950952 51:0.809170 52:2.090429 53:-1.612897 54:-0.359870 55:0.434638
-1 1:-1.047218 2:0.329705 3:-1.486907 4:1.542940 5:-0.835864 6:1.034751 7:-0.205555 8:-1.366063 9:0.168740 10:-0.391194 11:1.979480 12:-0.494243 13:0.485077 14:-0.391709 15:1.009252 16:0.695255 17:0.087370 18:-1.421050 19:-0.404144 20:-1.735038 21:-0.313258 22:-1.024808 23:1.384798 24:-0.877808 25:-0.621816 26:0.090531 27:0.176720 28:-1.028989 29:-0.926581 30:-1.226283 31:-0.578983 32:0.361519 33:-1.615712 34:-2.268716 35:0.959891 36:1.059352 37:-1.502035 38:-0.359440 39:0.255918 40:1.254942 41:-0.629050 42:0.798599 43:0.964543 44:-1.253509 45:0.415414 46:1.636938 47:0.485786 48:-0.214339 49:0.794120 50:0.199539 51:0.224187 52:1.726546 53:0.621814 54:-0.120108 55:-0.110595
-1 1:-0.106819 2:-2.355445 3:-1.338187 4:0.865903 5:-0.304873 6:-1.942877 7:-1.863663 8:-0.726346 9:-2.481971 10:1.029112 11:1.063341 12:0.085245 13:0.780486 14:1.155757 15:2.682252 16:1.219215 17:0.820596 18:0.694623 19:-1.475069 20:-0.145748 21:0.888372 22:-1.050461 23:1.439589 24:-1.272695 25:0.002228 26:-0.915134 27:-1.204692 28:-0.527324 29:0.985602 30:-0.943070 31:1.373436 32:0.717611 33:0.703197 34:1.085929 35:-0.935180 36:0.338787 37:0.811289 38:-1.219421 39:-1.025032 40:-0.759875 41:-1.105758 42:0.440121 43:-1.276503 44:0.568813 45:-1.258460 46:0.291821 47:-0.650872 48:-0.587227 49:-0.244964 50:-0.499308 51:-0.552670 52:-1.170597 53:-0.397534 54:-1.674635 55:1.499501
-1 1:2.184049 2:1.071798 3:-1.545509 4:0.592644 5:0.771824 6:0.271586 7:0.755080 8:-1.524996 9:-0.654207 10:-0.346944 11:0.198104 12:0.044302 13:0.853045 14:-1.012369 15:0.443044 16:-1.072924 17:0.806697 18:-0.970183 19:0.227377 20:0.751826 21:3.275401 22:0.257029 23:-2.697005 24:-0.031125 25:-0.055629 26:1.893383 27:-0.286680 28:-1.841221 29:-1.045110 30:1.489038 31:-0.769719 32:2.025246 33:0.058734 34:-0.610174 35:-0.464003 36:-2.616582 37:0.582784 38:0.692208 39:-0.701301 40:-0.030022 41:1.056108 42:-1.722255 43:-0.260737 44:-0.293298 45:-0.921304 46:0.020631 47:-0.772535 48:0.011083 49:0.876397 50:0.063311 51:1.301731 52:0.316933 53:0.912838 54:-0.941752 55:-0.502391
-1 1:-0.768821 2:-0.174819 3:1.249615 4:0.305914 5:1.621951 6:0.537203 7:1.402485 8:-1.814787 9:-0.092924 10:1.721684 11:-0.371031 12:-1.572577 13:-0.330320 14:-0.959042 15:-1.018617 16:-1.034688 17:-0.333884 18:0.217088 19:1.144908 20:-0.641180 21:-0.155720 22:-0.431181 23:-0.219261 24:1.211764 25:0.230964 26:0.885210 27:-0.342542 28:1.203043 29:-1.029097 30:0.814680 31:-1.159244 32:-0.501813 33:-0.731556 34:1.326864 35:2.451417 36:0.026191 37:-1.769232 38:-1.600170 39:-0.902590 40:-0.611370 41:0.000084 42:0.103300 43:-0.626734 44:1.111893 45:-2.156367 46:-1.194175 47:0.139665 48:-0.529264 49:-1.050226 50:1.108820 51:0.365921 52:-0.032161 53:0.445992 54:-1.623375 55:-1.667374
-1 1:1.055499 2:0.693831 3:1.412376 4:-0.847973 5:-1.687848 6:0.709958 7:-1.920266 8:0.538420 9:0.416132 10:0.497814 11:-1.668409 12:-0.430904 13:-0.124696 14:1.613036 15:1.638710 16:-1.429563 17:0.726589 18:1.470728 19:1.610609 20:-0.607474 21:-0.373353 22:1.476825 23:1.537805 24:-1.018398 25:0.367398 26:0.011571 27:1.086190 28:0.751771 29:0.159104 30:1.052365 31:-0.423443 32:0.623993 33:0.896520 34:1.409529 35:0.784136 36:-2.234036 37:0.002759 38:0.104937 39:0.714059 40:0.471570 41:-0.250402 42:-0.924975 43:-1.476434 44:-0.600236 45:-1.640717 46:0.111539 47:-0.244445 48:0.268905 49:0.309656 50:0.321463 51:-0.583499 52:1.435303 53:1.458813 54:-0.223156 55:0.707939
-1 1:-0.638130 2:0.151789 3:-0.068525 4:-0.357946 5:-1.009462 6:-1.540100 7:0.585167 8:0.552388 9:-0.132946 10:-1.227958 11:-0.198905 12:0.650259 13:1.297402 14:0.011218 15:-0.595586 16:-0.058786 17:-0.257142 18:-1.871158 19:1.439106 20:0.396779 21:-2.738180 22:-0.974418 23:0.033473 24:-0.299377 25:0.336383 26:1.131179 27:0.100894 28:-0.670030 29:1.471104 30:-0.172086 31:0.023719 32:1.456316 33:-1.766285 34:-0.375507 35:0.116617 36:0.249594 37:-0.880175 38:-0.338041 39:0.361419 40:1.560556 41:-2.041870 42:-0.040260 43:-0.181388 44:0.184040 45:0.151081 46:0.032823 47:0.408985 48:-0.912840 49:-0.347900 50:-1.247764 51:-1.003612 52:1.657595 53:1.876453 54:-1.997475 55:-0.549228
-1 1:-0.214914 2:0.657990 3:-0.976932 4:-0.267189 5:-0.065635 6:0.536320 7:0.220473 8:-0.413539 9:0.341398 10:0.100403 11:-2.889308 12:1.526429 13:1.031174 14:-0.675792 15:-0.572798 16:-1.157871 17:-1.459990 18:-0.142640 19:0.636542 20:0.235864 21:0.002679 22:-1.449191 23:-0.950880 24:-1.085869 25:-0.654484 26:-1.071199 27:-0.114285 28:-2.952956 29:-0.931994 30:0.322624 31:-0.992584 32:0.844967 33:-1.580635 34:1.370115 35:0.749414 36:0.204197 37:0.974705 38:-1.918618 39:1.624012 40:0.620953 41:0.511566 42:1.015263 43:0.542032 44:-0.145745 45:-0.642947 46:0.547356 47:0.828953 48:0.718284 49:-0.467015 50:0.266009 51:-0.198910 52:-0.198444 53:0.716350 54:-0.631473 55:0.902313
-1 1:0.174567 2:-0.239932 3:1.681848 4:0.279566 5:0.307701 6:0.424958 7:0.516606 8:0.267517 9:-1.690106 10:0.022201 11:1.398821 12:0.443097 13:0.714617 14:-0.296166 15:0.250514 16:0.384207 17:2.360970 18:-0.738998 19:2.331547 20:-0.420425 21:-0.094871 22:-0.982696 23:-0.991574 24:1.655633 25:-0.609606 26:1.493194 27:0.600025 28:0.446016 29:2.207607 30:-2.174118 31:-1.063080 32:0.829429 33:-0.153987 34:-0.774032 35:2.013596 36:-2.155311 37:-0.498236 38:-0.754085 39:0.777390 40:0.964236 41:-1.425708 42:0.373853 43:0.607335 44:1.290108 45:0.661404 46:-1.046177 47:1.246587 48:0.804637 49:-0.929523 50:1.630953 51:0.261209 52:-0.323944 53:2.009793 54:-1.477962 55:-1.823753
-1 1:1.483228 2:-0.897637 3:-2.031523 4:3.124933 5:0.980172 6:0.077985 7:0.590823 8:0.240826 9:0.495801 10:-0.946006 11:1.665998 12:0.484681 13:2.363025 14:-0.020355 15:-0.325167 16:-1.349470 17:-2.593459 18:1.032316 19:0.089164 20:0.455052 21:1.597247 22:-0.362653 23:-1.742363 24:-0.005594 25:1.451481 26:1.642466 27:-0.937061 28:-0.469457 29:0.783515 30:-0.343235 31:0.202193 32:0.835511 33:1.311367 34:1.147893 35:0.055030 36:1.438034 37:-0.610202 38:-0.705933 39:-0.000654 40:0.618070 41:0.859933 42:-1.164089 43:-1.756065 44:0.020915 45:-0.555104 46:-1.750021 47:0.821795 48:0.545225 49:0.794080 50:0.701244 51:0.474207 52:-0.212375 53:-0.869034 54:-1.625488 55:-0.222865
-1 1:0.964233 2:-0.686938 3:-1.595707 4:-0.040131 5:0.196944 6:1.756221 7:0.166402 8:0.260406 9:-1.506056 10:1.623677 11:0.233242 12:0.268883 13:-1.523111 14:1.501735 15:-0.137638 16:0.062430 17:-0.631563 18:0.429694 19:-0.103201 20:0.668074 21:1.086644 22:0.577424 23:0.566736 24:-0.835367 25:1.338328 26:-0.510394 27:0.728896 28:-1.206584 29:0.032994 30:0.024605 31:0.642299 32:-1.336120 33:0.049717 34:-1.282840 35:0.219368 36:0.014814 37:0.475365 38:0.064606 39:1.582263 40:0.723426 41:-0.452738 42:-0.795962 43:0.304869 44:-0.190867 45:0.104923 46:0.500079 47:-0.735945 48:-1.001540 49:0.958460 50:-1.618166 51:0.320816 52:-1.518125 53:0.450998 54:-0.132572 55:-0.624662
-1 1:-0.254590 2:-0.184456 3:-0.446151 4:-0.170727 5:0.825983 6:-0.106895 7:-0.569212 8:-0.906794 9:-1.668388 10:-1.074789 11:1.058714 12:-0.923887 13:-1.448537 14:-0.083468 15:-0.586025 16:-1.002130 17:0.296971 18:-0.083216 19:-1.124852 20:1.724412 21:-1.014490 22:0.302466 23:-0.275798 24:-1.419686 25:-1.960129 26:-0.049079 27:1.461253 28:-0.547739 29:0.731274 30:0.702620 31:1.077381 32:1.071559 33:0.691764 34:-0.006383 35:0.800031 36:-2.515317 37:1.686318 38:-2.434958 39:-1.672485 40:0.341085 41:0.390131 42:-1.207614 43:-0.986728 44:0.723202 45:0.567769 46:-0.902747 47:-1.692266 48:-0.644571 49:0.873523 50:-1.643242 51:0.920980 52:-1.421290 53:-1.827273 54:0.310161 55:-1.520778
-1 1:-1.102712 2:1.863231 3:-0.297628 4:0.661646 5:-0.634301 6:1.132052 7:-0.582372 8:-1.242384 9:-0.759307 10:-0.667357 11:1.080271 12:-0.235138 13:0.357962 14:-1.011531 15:0.885086 16:-0.272857 17:-0.303092 18:0.209391 19:0.105488 20:0.261793 21:0.728100 22:0.167218 23:-0.830674 24:-0.829663 25:0.343675 26:-0.412196 27:0.644963 28:-0.820192 29:0.424064 30:-1.508122 31:0.434791 32:0.151210 33:-0.482028 34:1.594523 35:0.987821 36:-0.559462 37:-0.952447 38:1.025626 39:-0.414992 40:0.019763 41:-0.082845 42:0.559000 43:1.436940 44:-1.090520 45:-0.318763 46:0.556037 47:-0.098661 48:1.159395 49:0.386574 50:0.636880 51:0.570296 52:-1.482938 53:1.046086 54:1.062724 55:-0.543174
-1 1:1.775936 2:-1.206262 3:0.183788 4:0.217531 5:0.160937 6:-1.673802 7:-0.489052 8:-0.751824 9:-0.468774 10:0.374357 11:0.833785 12:0.502573 13:0.964689 14:0.189457 15:-1.128911 16:0.032266 17:1.928887 18:2.202574 19:1.100699 20:-0.009045 21:1.288004 22:-0.220155 23:-0.464647 24:-1.688035 25:0.048916 26:-0.664430 27:0.842099 28:-1.195868 29:0.458066 30:1.315780 31:-0.966369 32:-0.042942 33:-1.047278 34:-1.121245 35:-0.051747 36:1.366350 37:-1.396005 38:0.014805 39:1.192071 40:-0.851692 41:0.379768 42:-1.030435 43:-0.398106 44:0.274318 45:0.949810 46:2.030398 47:-1.127730 48:0.340213 49:1.903190 50:0.098319 51:-0.641120 52:0.038596 53:1.498289 54:-0.292344 55:-0.618483
-1 1:0.156314 2:-1.126536 3:-0.788100 4:-1.913103 5:2.678278 6:-0.218733 7:-0.459966 8:-0.928945 9:0.480408 10:-0.719468 11:0.606862 12:-0.995657 13:0.741098 14:-0.086867 15:0.257268 16:0.697564 17:0.394515 18:-0.262219 19:-1.060442 20:1.737024 21:0.527990 22:-0.243628 23:0.291285 24:0.329726 25:-0.066738 26:1.611192 27:-1.648212 28:-0.203429 29:-2.325499 30:1.573589 31:-2.326453 32:-0.145575 33:-0.487387 34:2.068499 35:1.312228 36:0.137554 37:-0.296612 38:2.159963 39:-0.069260 40:-0.021965 41:0.125411 42:2.177032 43:3.499356 44:1.217714 45:0.594260 46:0.522408 47:1.085866 48:-0.099503 49:-1.312878 50:-0.316916 51:-0.599201 52:-0.800886 53:-0.506576 54:-0.613886 55:0.848507
-1 1:-1.099348 2:0.933663 3:-0.155178 4:-0.631453 5:1.068414 6:-1.624170 7:0.021214 8:-0.108491 9:-0.696150 10:2.138464 11:-0.661806 12:0.438651 13:0.424775 14:0.871067 15:-1.758402 16:-2.809128 17:0.314677 18:0.447115 19:0.149759 20:1.741591 21:1.593520 22:0.537496 23:-0.913319 24:1.026584 25:0.956479 26:1.216460 27:-0.618852 28:1.083436 29:-1.204682 30:0.042356 31:0.864014 32:-0.621365 33:-0.282716 34:1.103455 35:-1.188208 36:1.290958 37:0.634810 38:0.364243 39:0.099987 40:0.196805 41:-2.037220 42:0.280940 43:0.829166 44:0.798162 45:-0.778458 46:0.451510 47:0.063419 48:-0.099771 49:1.183082 50:-0.143650 51:2.068910 52:1.093755 53:-1.049616 54:0.700246 55:0.655813
-1 1:2.709724 2:0.663498 3:0.051738 4:-0.047000 5:0.792284 6:0.503192 7:-1.003178 8:0.969836 9:0.161413 10:0.003930 11:-1.088402 12:1.905169 13:0.395145 14:1.898892 15:1.528596 16:-0.840182 17:0.731764 18:-0.985996 19:2.559627 20:1.488452 21:-0.319587 22:-1.449728 23:1.013452 24:-1.924927 25:0.308422 26:0.278387 27:-0.818993 28:-0.788616 29:0.696760 30:-1.586323 31:-1.543393 32:1.622044 33:1.026995 34:-0.783055 35:-0.798868 36:1.341710 37:0.014695 38:-0.872482 39:1.442874 40:-0.698746 41:0.467558 42:0.674777 43:-0.385629 44:-0.791302 45:2.654156 46:-1.138798 47:0.934500 48:0.910248 49:1.017558 50:0.794493 51:-0.719481 52:0.649272 53:-0.405867 54:-1.009402 55:-0.408486
-1 1:0.296164 2:1.095144 3:-1.536914 4:-0.463826 5:-0.456453 6:0.100863 7:-1.455815 8:0.934499 9:1.342617 10:0.215860 11:-0.886813 12:-0.694187 13:1.211711 14:-0.456914 15:-0.228514 16:-0.074037 17:-0.743431 18:2.249536 19:0.059337 20:0.071585 21:-1.500657 22:-1.317572 23:-1.224359 24:1.325381 25:-1.423373 26:0.923637 27:-1.145646 28:1.041682 29:0.718928 30:-0.761780 31:0.233508 32:0.046064 33:1.585969 34:0.342473 35:0.551930 36:-0.277335 37:-1.551871 38:0.107661 39:-0.666963 40:-0.066520 41:2.378530 42:-1.453232 43:0.147156 44:-0.657125 45:1.651298 46:-0.532651 47:0.603786 48:0.012214 49:0.863520 50:-1.445084 51:0.960480 52:1.036302 53:-1.940150 54:0.760616 55:1.059006
-1 1:-0.392517 2:-1.650248 3:0.770822 4:-0.241831 5:-0.489259 6:0.123066 7:0.191022 8:-1.842666 9:-0.910325 10:0.292473 11:0.408810 12:-0.157690 13:-0.396290 14:-1.510488 15:0.968391 16:-0.454340 17:0.187710 18:1.667304 19:0.336908 20:-0.294787 21:0.231255 22:-0.743880 23:1.338963 24:0.285142 25:-0.413511 26:0.084013 27:0.805188 28:-0.168373 29:-0.803784 30:0.624870 31:0.572444 32:0.708883 33:1.506194 34:1.750176 35:0.666191 36:-2.285265 37:-1.262253 38:-0.631846 39:-1.262777 40:-0.641227 41:-0.608428 42:-0.945633 43:0.727190 44:1.884457 45:-1.345578 46:-0.297310 47:0.392703 48:0.155697 49:-0.829387 50:0.173924 51:-0.511417 52:0.319222 53:-0.078688 54:1.517252 55:0.654490
-1 1:-0.221510 2:0.366583 3:0.830310 4:-0.174720 5:0.915613 6:0.224819 7:0.155108 8:-2.141718 9:0.437028 10:0.914242 11:-2.338557 12:0.781802 13:-0.270748 14:-1.796812 15:-0.373333 16:0.068024 17:0.873378 18:-0.294007 19:0.129835 20:-0.427618 21:-0.227474 22:0.517933 23:-1.055608 24:-0.703640 25:0.351065 26:0.929774 27:0.581881 28:1.192852 29:2.481027 30:0.625571 31:-0.146161 32:-0.741662 33:-0.704972 34:-0.139420 35:-1.415456 36:0.192710 37:2.064268 38:0.873282 39:-0.102047 40:1.687845 41:0.139038 42:-0.582647 43:1.250892 44:-0.057382 45:0.231536 46:-1.154568 47:1.709767 48:-0.430124 49:-1.404286 50:0.325701 51:-1.815562 52:0.180597 53:-0.354217 54:1.605961 55:-0.834884
-1 1:0.504257 2:-0.071627 3:-0.438530 4:0.850851 5:1.187352 6:-1.318769 7:0.137464 8:-0.065512 9:0.278035 10:1.077114 11:1.634057 12:-1.971103 13:1.071703 14:0.949434 15:0.383572 16:-0.011011 17:1.087291 18:-1.828624 19:0.848826 20:0.628373 21:-0.558459 22:-0.288399 23:0.595685 24:-0.321175 25:-0.587063 26:-0.814670 27:1.459416 28:0.232252 29:2.006487 30:0.412676 31:-1.602803 32:0.034719 33:-0.153236 34:-1.822740 35:-0.575611 36:0.819415 37:-0.691308 38:-0.923735 39:1.082299 40:0.495489 41:0.703181 42:-0.742263 43:0.374468 44:-1.910596 45:-0.718247 46:-0.442998 47:0.484293 48:1.003138 49:0.549657 50:1.680277 51:-0.034939 52:-0.070389 53:-1.445577 54:-0.423027 55:-0.877411
-1 1:1.065791 2:-1.660452 3:-1.434435 4:-0.704221 5:-0.252192 6:1.260609 7:-0.302217 8:0.179196 9:0.079656 10:0.619282 11:-0.515593 12:-0.366536 13:-0.831662 14:-0.739451 15:-0.259501 16:0.287359 17:-0.449800 18:-2.165675 19:-1.929957 20:-0.014346 21:-0.127994 22:1.203756 23:-0.258582 24:-0.331433 25:1.579603 26:-0.488492 27:-0.873768 28:1.106545 29:0.245639 30:-0.423274 31:1.115315 32:0.669935 33:-0.257639 34:-1.546754 35:0.801838 36:-1.177181 37:-0.147698 38:0.812027 39:-0.475132 40:1.493582 41:1.099130 42:0.524599 43:0.722473 44:-1.101042 45:-1.116179 46:3.769592 47:-0.266440 48:-0.634698 49:-0.429528 50:0.094053 51:1.296284 52:-1.324475 53:1.622372 54:-0.517187 55:0.513470
-1 1:0.584938 2:-1.875077 3:-1.242515 4:-1.038216 5:0.779191 6:0.292441 7:0.898545 8:-0.069741 9:0.538132 10:0.675072 11:0.412591 12:-0.549239 13:-0.433166 14:1.210729 15:-0.050200 16:-1.267004 17:-1.007030 18:-0.957775 19:0.036914 20:-1.935751 21:-0.431332 22:-0.867849 23:0.350224 24:0.481300 25:1.278776 26:0.193005 27:-0.045672 28:-1.102648 29:-0.110045 30:-0.853755 31:-0.006151 32:-0.392820 33:1.014383 34:0.667579 35:1.954082 36:0.314575 37:-1.803862 38:-0.129089 39:-1.073800 40:-0.391923 41:-0.823227 42:0.117216 43:0.395335 44:1.149916 45:-1.029766 46:-1.211173 47:-1.753652 48:0.317881 49:0.011727 50:0.722995 51:0.072037 52:0.747912 53:-0.573224 54:0.396746 55:-0.220472
-1 1:0.997971 2:0.244950 3:-1.541626 4:0.387143 5:0.626212 6:0.562189 7:1.331763 8:0.055717 9:0.260396 10:0.906554 11:-1.615665 12:0.924381 13:-1.149096 14:0.979995 15:-0.231877 16:0.687881 17:-0.812590 18:-0.708077 19:1.081165 20:2.183557 21:-1.058996 22:-1.000237 23:-0.427119 24:-0.552214 25:0.430669 26:-0.321358 27:1.266180 28:1.531378 29:0.132522 30:-0.649608 31:-2.350904 32:1.491043 33:0.709788 34:-0.154266 35:-0.036657 36:0.758349 37:1.516028 38:1.020385 39:-0.629560 40:0.387648 41:1.760790 42:0.924949 43:0.182098 44:0.160438 45:0.430003 46:0.066402 47:1.542103 48:-0.213169 49:0.511610 50:-0.663541 51:-1.720627 52:-1.101777 53:-1.476821 54:-1.405436 55:0.558554
-1 1:1.226472 2:-0.783871 3:0.747727 4:0.988228 5:-2.029267 6:0.852868 7:-1.590362 8:1.160747 9:-1.277908 10:0.672640 11:-0.439501 12:0.201791 13:-0.453992 14:0.426599 15:-0.321692 16:-2.203051 17:0.491822 18:-0.263604 19:-1.206618 20:-0.759162 21:0.675563 22:-0.243886 23:-2.334097 24:-0.720357 25:0.083651 26:-0.041126 27:0.671663 28:-0.010834 29:0.691661 30:0.171164 31:2.806003 32:-0.599017 33:2.377506 34:-0.897330 35:0.974293 36:-0.731095 37:-1.241583 38:0.462589 39:0.463543 40:0.862992 41:0.746392 42:-0.318724 43:0.442138 44:0.305570 45:0.183172 46:1.890863 47:0.308119 48:0.394445 49:-3.025021 50:0.841414 51:1.032283 52:0.836675 53:0.736725 54:1.413062 55:-1.940977
-1 1:-1.722160 2:1.218649 3:-1.913681 4:-1.339687 5:0.932675 6:-0.776462 7:-0.164037 8:-0.043109 9:-0.665662 10:-0.228884 11:-0.340600 12:-2.306194 13:0.650101 14:-1.435265 15:-1.491113 16:-1.297838 17:1.647956 18:0.346211 19:0.535045 20:-1.120267 21:-0.111737 22:1.574003 23:-2.000580 24:-0.579315 25:-1.010593 26:-0.125918 27:-0.365805 28:1.101352 29:0.329837 30:0.212155 31:0.934761 32:0.319214 33:-0.481855 34:-0.302851 35:-0.529876 36:0.821370 37:1.121173 38:1.568135 39:-1.142065 40:-0.075825 41:0.282584 42:0.453724 43:-1.170115 44:0.796445 45:-1.002677 46:-1.494828 47:1.085105 48:-0.593734 49:0.972214 50:-0.562423 51:-0.226629 52:-0.601210 53:-0.168246 54:1.376821 55:2.352748
-1 1:-1.313586 2:-0.074225 3:1.592438 4:-0.767441 5:-2.023918 6:-0.780674 7:0.641616 8:-0.583946 9:-1.263757 10:-0.599091 11:-1.348470 12:0.144240 13:0.917039 14:-0.899875 15:1.164273 16:-0.241609 17:-0.746914 18:2.579757 19:1.814978 20:-0.055851 21:0.216759 22:1.812560 23:1.507807 24:1.594465 25:1.089830 26:1.369486 27:0.717114 28:0.560785 29:-0.474004 30:-0.041574 31:0.904113 32:-1.698281 33:-1.083028 34:0.330644 35:1.169559 36:0.783158 37:1.289162 38:0.477421 39:0.837202 40:-0.936907 41:-1.296595 42:1.439596 43:1.761346 44:-0.387714 45:-1.597305 46:0.772342 47:-1.525593 48:-0.957506 49:-0.806613 50:-0.436751 51:-0.654584 52:-0.759869 53:-2.129639 54:1.516674 55:0.596355
-1 1:-0.235675 2:0.415969 3:-0.373899 4:0.694939 5:-0.140460 6:0.329076 7:-0.908624 8:-0.857137 9:0.194761 10:-0.257685 11:-1.237989 12:2.130802 13:1.011639 14:-0.647295 15:-0.155141 16:1.025412 17:-0.125662 18:1.003252 19:0.925177 20:2.111825 21:1.328760 22:-0.020044 23:-0.013127 24:2.245201 25:-2.237522 26:-0.730960 27:1.728070 28:0.768382 29:-0.344303 30:-0.456328 31:0.888921 32:0.134653 33:-0.178949 34:-0.568736 35:-0.728483 36:-2.019834 37:0.728403 38:0.309532 39:0.785230 40:0.292970 41:0.681825 42:0.671001 43:-1.078046 44:-0.265923 45:-0.112081 46:-0.214664 47:1.290561 48:0.848673 49:0.000262 50:0.145626 51:1.115905 52:0.429502 53:0.863003 54:-1.801788 55:1.666560
-1 1:-0.787824 2:-0.694241 3:-0.114447 4:0.479654 5:0.059344 6:0.693495 7:0.542676 8:0.191999 9:0.856670 10:0.432232 11:2.528799 12:-0.560430 13:-2.576994 14:0.254744 15:-0.210502 16:1.025744 17:-0.414116 18:-0.495507 19:-2.183162 20:-0.434520 21:-1.143591 22:-0.020476 23:-0.596388 24:-0.191231 25:0.625226 26:-1.987669 27:-1.391976 28:-0.104654 29:0.840649 30:-0.213269 31:0.426506 32:-0.203954 33:-0.666527 34:-0.010130 35:0.709828 36:2.488848 37:-0.051968 38:-1.043460 39:-0.517741 40:-0.162190 41:0.227151 42:-0.030681 43:-0.029071 44:0.025476 45:2.082973 46:2.187825 47:-0.319794 48:-0.687488 49:1.786255 50:-0.924028 51:-1.599294 52:0.216966 53:0.127446 54:3.637561 55:0.425239
-1 1:-0.585696 2:-2.475575 3:-1.450376 4:-0.861090 5:1.613334 6:0.307372 7:1.876564 8:-1.256793 9:0.084450 10:0.773295 11:0.071977 12:0.102671 13:0.169522 14:-0.546765 15:-0.713059 16:-1.053728 17:2.266219 18:0.972899 19:-0.942910 20:1.914187 21:0.265892 22:-0.306026 23:-0.169455 24:0.927541 25:-2.179033 26:-1.373044 27:0.115914 28:0.991774 29:1.478888 30:0.433184 31:0.659893 32:1.463867 33:-0.513100 34:1.554870 35:-1.767357 36:0.009326 37:0.924012 38:-0.266616 39:0.963706 40:0.190195 41:-0.364935 42:-2.014504 43:0.596182 44:0.372851 45:0.630955 46:0.898434 47:-0.484601 48:0.605596 49:-0.556212 50:0.163963 51:0.377747 52:1.213988 53:-0.648300 54:-0.643095 55:1.385338
-1 1:-0.119520 2:-0.700187 3:-0.228619 4:0.033664 5:-0.429237 6:0.102557 7:-0.269487 8:-0.171687 9:-0.399547 10:1.186670 11:-0.433807 12:0.229124 13:0.909504 14:2.614874 15:0.096529 16:-1.751070 17:-0.751665 18:-0.741283 19:1.741837 20:0.777972 21:-0.688797 22:-0.924640 23:-1.273729 24:-1.055957 25:0.650038 26:2.326299 27:-0.928813 28:1.664827 29:-1.934429 30:0.988390 31:0.435117 32:-1.487092 33:0.902108 34:-0.632013 35:-0.058414 36:1.046108 37:0.250056 38:-0.060223 39:-1.515952 40:-1.396564 41:-0.373293 42:0.738257 43:0.433776 44:0.817139 45:0.581594 46:1.022973 47:-0.415630 48:-1.748279 49:0.208318 50:-0.461581 51:-1.425280 52:0.523722 53:1.477740 54:0.636087 55:0.515917
-1 1:-2.544288 2:-0.363000 3:0.294653 4:-0.529624 5:1.105820 6:-0.323135 7:1.058957 8:0.123709 9:0.463200 10:-0.278404 11:-0.616775 12:0.191465 13:0.299294 14:-0.670017 15:0.508712 16:0.879859 17:0.957058 18:-1.073046 19:-1.408694 20:-0.452234 21:-1.167831 22:-1.035848 23:-0.482283 24:-1.154597 25:1.299368 26:1.426882 27:-1.258476 28:-1.002916 29:-0.396125 30:-0.342343 31:0.999101 32:1.010996 33:-1.636034 34:0.747377 35:0.310562 36:-0.146597 37:-0.837859 38:0.826688 39:0.374196 40:0.416864 41:0.050241 42:-0.287485 43:-0.284486 44:-1.251873 45:0.010450 46:0.463053 47:-0.932347 48:1.111223 49:-1.349662 50:0.804118 51:1.069490 52:1.158194 53:-1.221954 54:-0.347819 55:1.441245
-1 1:0.313939 2:-0.019053 3:0.400860 4:0.372223 5:-0.106929 6:1.019977 7:-0.589874 8:0.575638 9:0.992647 10:1.893691 11:0.467454 12:0.947596 13:-0.353064 14:-0.017662 15:-0.824492 16:1.420892 17:-0.044057 18:0.881581 19:1.287672 20:1.964320 21:1.711549 22:-1.095365 23:0.695766 24:0.088308 25:-0.791083 26:0.806272 27:0.742782 28:-0.696158 29:0.759381 30:-1.120467 31:0.670982 32:1.948433 33:-0.793667 34:1.716597 35:1.414280 36:-1.615884 37:-1.672402 38:1.060679 39:0.539936 40:2.289513 41:-0.418867 42:-0.844407 43:0.505119 44:0.597850 45:0.112256 46:0.233152 47:0.972804 48:-2.450751 49:-1.179070 50:-0.539587 51:-0.601048 52:0.035189 53:-0.052791 54:0.272013 55:-1.622094
-1 1:-0.149102 2:-1.525777 3:0.750357 4:-0.099306 5:0.461807 6:-0.465247 7:-0.825738 8:0.431992 9:-0.625108 10:0.127734 11:1.361795 12:0.219296 13:0.315680 14:0.353447 15:-0.590177 16:-0.362659 17:-1.486737 18:0.969904 19:-0.318770 20:0.688303 21:0.024142 22:0.458691 23:-0.122658 24:1.296118 25:1.243142 26:2.111293 27:-2.207280 28:-0.658206 29:0.155543 30:0.051745 31:-1.858805 32:-0.976330 33:-0.435890 34:0.330995 35:0.419260 36:-0.184462 37:-0.271108 38:0.609104 39:-0.406569 40:1.617567 41:-0.089244 42:0.699179 43:-0.374143 44:0.782378 45:1.620524 46:0.961388 47:-0.049521 48:0.765169 49:-0.991910 50:0.822109 51:-0.664502 52:-0.458230 53:-0.253486 54:-1.559350 55:-2.054252
-1 1:0.936989 2:0.411717 3:-1.392868 4:-0.356045 5:0.012265 6:-2.433101 7:-0.138788 8:3.089148 9:-1.209424 10:-0.941983 11:0.206256 12:-1.513969 13:-0.374694 14:0.109262 15:0.186643 16:-1.833454 17:-1.106483 18:0.917874 19:-1.271532 20:-1.078450 21:0.677679 22:-0.642377 23:0.705403 24:0.651252 25:0.118680 26:-0.343008 27:-0.098805 28:-0.613021 29:0.651515 30:1.009856 31:2.115841 32:-0.496839 33:0.433421 34:2.611716 35:-0.208627 36:0.557743 37:-0.067100 38:0.882146 39:1.070015 40:1.126707 41:-0.443559 42:-1.653799 43:-0.830228 44:-0.036843 45:-1.214974 46:0.134992 47:-2.655589 48:2.164047 49:0.481637 50:0.662073 51:-0.007620 52:0.521753 53:-0.362056 54:1.222710 55:-0.873126
-1 1:0.878797 2:0.483385 3:1.259959 4:-0.488764 5:0.302347 6:-0.829413 7:2.323931 8:-0.714561 9:-0.988341 10:1.426776 11:-0.756338 12:1.270208 13:-0.738233 14:0.018488 15:-0.338694 16:0.557641 17:0.214085 18:-1.522434 19:-0.657051 20:1.419336 21:1.556144 22:-2.542396 23:-1.045509 24:-0.710505 25:-0.806296 26:-0.184832 27:1.934147 28:-1.185018 29:1.618073 30:-0.353021 31:-1.382768 32:0.212922 33:-0.740668 34:0.454730 35:0.704017 36:0.160012 37:1.321310 38:1.663382 39:-2.028152 40:0.359302 41:1.953341 42:0.912520 43:2.476388 44:-0.649382 45:0.814300 46:0.775361 47:-0.097364 48:1.101270 49:-0.094532 50:0.174209 51:0.571237 52:-0.128325 53:-0.569578 54:0.332400 55:-0.965126
-1 1:0.354505 2:-1.086873 3:-0.612161 4:1.820569 5:-0.559506 6:0.204649 7:-0.972740 8:-0.380976 9:-0.227866 10:0.842241 11:1.372316 12:-0.027298 13:-1.287321 14:0.922651 15:-1.970160 16:1.845158 17:-0.192293 18:-0.717377 19:-0.277103 20:0.382547 21:1.157482 22:-0.915468 23:0.819823 24:0.731689 25:0.012295 26:-0.164949 27:-0.103069 28:0.550346 29:0.832085 30:0.884362 31:1.142868 32:1.008879 33:-1.143822 34:0.649304 35:0.032882 36:0.598384 37:1.018350 38:-0.762672 39:-0.065633 40:-0.787694 41:0.756830 42:0.262917 43:-0.993103 44:0.571038 45:-1.146256 46:-1.530725 47:0.327904 48:0.970917 49:0.691553 50:0.716226 51:-1.577909 52:-1.093636 53:-0.070084 54:-0.275084 55:-0.280714
-1 1:0.817828 2:-0.967773 3:1.599150 4:0.266782 5:-1.571752 6:0.177632 7:0.778432 8:0.387054 9:0.103654 10:0.648736 11:0.547525 12:-1.671756 13:1.341139 14:0.481332 15:0.547111 16:1.346018 17:0.631589 18:0.750961 19:0.368628 20:0.920901 21:-1.296456 22:1.288666 23:-0.522093 24:0.537920 25:0.675677 26:1.229490 27:-1.453941 28:-0.004334 29:0.100666 30:0.222255 31:-0.157378 32:-1.000145 33:-1.214210 34:-2.240708 35:0.151767 36:-0.360156 37:0.014512 38:0.556398 39:1.018741 40:-0.682108 41:-1.363959 42:0.903273 43:0.579018 44:-0.316866 45:-0.333412 46:-0.954188 47:0.026391 48:2.975250 49:-0.669348 50:-0.583694 51:-0.821910 52:-1.990566 53:-1.026156 54:-1.600034 55:-1.395413
-1 1:-0.936997 2:-0.385630 3:-0.998798 4:-1.453045 5:-1.074841 6:-1.251108 7:-0.421228 8:0.672492 9:-0.466154 10:1.145908 11:0.223672 12:2.101342 13:-2.203339 14:0.522911 15:-0.793767 16:0.847774 17:0.870028 18:0.292874 19:0.854834 20:1.326499 21:1.240335 22:-2.264188 23:-0.756842 24:-0.249360 25:-1.417481 26:2.099734 27:1.369591 28:-0.253713 29:-1.477981 30:0.286788 31:-0.248560 32:1.542484 33:1.131456 34:0.439732 35:0.052306 36:-0.867947 37:-0.294622 38:0.906285 39:-1.058029 40:-1.661768 41:-1.013577 42:-1.333465 43:1.265719 44:-0.714681 45:0.631290 46:1.248116 47:0.047106 48:1.084298 49:-1.255394 50:1.220219 51:-0.608792 52:-0.547181 53:0.084281 54:0.148278 55:-0.070849
-1 1:0.233832 2:2.076920 3:-0.426433 4:0.669092 5:0.712273 6:-0.850341 7:0.055312 8:-0.461355 9:1.371360 10:-0.524148 11:0.160055 12:-0.153571 13:0.261394 14:-1.098330 15:-0.838244 16:-0.390310 17:-0.471071 18:0.473508 19:-1.886635 20:1.878584 21:0.234611 22:-0.910711 23:-0.641632 24:-1.100149 25:0.382312 26:0.467306 27:-0.071253 28:-0.451803 29:1.635860 30:0.015550 31:0.330981 32:-0.914536 33:0.895678 34:-0.729576 35:1.013205 36:0.691268 37:-0.022957 38:-0.249444 39:1.099334 40:-0.360239 41:1.383669 42:0.886311 43:0.846369 44:-0.144959 45:0.116587 46:3.242150 47:-0.908456 48:0.278303 49:0.390480 50:0.618916 51:-0.344002 52:-0.061116 53:0.382200 54:-0.612709 55:0.845001
-1 1:0.420576 2:-1.041946 3:-0.173590 4:-0.526363 5:0.179121 6:-0.918572 7:-0.760704 8:-0.078321 9:-0.659620 10:0.450337 11:1.337419 12:-0.342499 13:-0.050146 14:0.657600 15:0.658129 16:-0.778179 17:-0.733113 18:-0.777485 19:-0.806800 20:0.068441 21:-0.777622 22:-1.148770 23:0.429304 24:-0.023744 25:0.864886 26:-0.961976 27:0.334075 28:-0.553557 29:-0.124193 30:-1.997217 31:0.787191 32:0.140684 33:0.469375 34:-1.316887 35:0.199973 36:0.391309 37:-0.593980 38:-0.263332 39:-1.349694 40:0.376516 41:0.075449 42:-1.454669 43:2.058216 44:0.984590 45:-1.376383 46:-1.836504 47:-0.456571 48:0.694366 49:-0.862661 50:0.236699 51:0.750987 52:-0.229166 53:-1.351451 54:0.321548 55:0.193909
-1 1:-1.888055 2:0.310654 3:-0.802880 4:-1.535096 5:1.476860 6:-0.283022 7:-1.777195 8:1.538404 9:0.023984 10:-0.264191 11:0.258820 12:0.943906 13:-1.452339 14:1.486927 15:1.198422 16:0.074800 17:1.407166 18:1.909628 19:0.647030 20:-0.405632 21:-0.255658 22:-0.923145 23:0.814433 24:0.257246 25:2.096366 26:0.347490 27:0.227227 28:0.225822 29:-1.374235 30:-0.470857 31:0.250482 32:0.616621 33:0.260851 34:-0.459605 35:-0.297260 36:-0.414965 37:-1.160669 38:-0.905921 39:0.036532 40:-0.154707 41:-0.292903 42:0.165529 43:-0.279010 44:1.639741 45:-0.507235 46:0.013838 47:-2.735097 48:-0.034256 49:0.198502 50:-0.558123 51:0.654215 52:-0.745317 53:0.063970 54:-1.127048 55:-0.632890
-1 1:1.622948 2:0.497949 3:0.815045 4:-0.547250 5:0.377101 6:0.190936 7:-0.780715 8:0.716718 9:0.679117 10:1.462574 11:-0.552821 12:1.618037 13:0.566651 14:-0.116450 15:-1.501063 16:0.132971 17:0.304260 18:0.521934 19:-0.491903 20:-1.464679 21:0.670848 22:0.179637 23:-0.005565 24:0.950260 25:-0.854970 26:0.353228 27:-0.121351 28:-0.330130 29:0.477490 30:-0.678079 31:0.838059 32:-1.714412 33:-0.476619 34:0.277619 35:-0.354903 36:1.355362 37:0.209341 38:-0.196292 39:-0.012438 40:-1.713877 41:-1.236347 42:0.495028 43:-1.630060 44:-0.624659 45:-0.235288 46:-0.167363 47:0.414791 48:0.565015 49:0.400528 50:-1.137047 51:-0.237714 52:-3.326879 53:0.014304 54:1.816659 55:0.426714
-1 1:-0.923370 2:1.336706 3:0.159404 4:-1.936713 5:1.443834 6:0.991869 7:-1.057168 8:-0.140504 9:0.668634 10:0.676541 11:0.515095 12:0.811191 13:0.774303 14:1.156565 15:0.000539 16:-1.378024 17:0.579079 18:1.641627 19:1.548687 20:0.517945 21:0.987535 22:2.295599 23:-2.417880 24:1.965141 25:-0.677479 26:0.690919 27:1.605208 28:-1.646064 29:0.719410 30:0.890166 31:1.888700 32:0.467099 33:-0.615426 34:1.929069 35:-1.239077 36:-1.363869 37:0.149435 38:1.519145 39:-0.667180 40:-1.988294 41:-0.614163 42:0.577214 43:2.353765 44:-0.581875 45:0.419926 46:-0.555243 47:-0.811582 48:-0.962804 49:0.116718 50:-0.389346 51:0.513299 52:0.477639 53:1.180376 54:-0.681348 55:1.288743
-1 1:-0.181179 2:0.968757 3:-1.788341 4:0.091332 5:0.698468 6:0.757032 7:1.142136 8:-0.578130 9:-0.596868 10:0.379569 11:-1.205017 12:0.169318 13:-1.014110 14:1.790954 15:-0.376094 16:-1.051318 17:-0.545947 18:-0.759713 19:0.413249 20:0.166085 21:0.834626 22:-1.644616 23:-0.657477 24:1.556865 25:-1.016146 26:0.451330 27:-1.199865 28:0.578211 29:-0.741054 30:0.415294 31:0.197036 32:-0.338929 33:-0.895233 34:0.382732 35:-0.884222 36:-0.444159 37:-1.899828 38:0.139097 39:0.194024 40:0.968807 41:-1.727324 42:-1.011158 43:0.124123 44:0.349392 45:0.517049 46:-1.726439 47:1.414142 48:1.591299 49:1.503361 50:0.523444 51:-0.248447 52:-0.008991 53:0.342379 54:1.113844 55:-0.664955
-1 1:-0.165623 2:0.634825 3:0.191670 4:-0.205838 5:0.902345 6:-2.137578 7:-1.522715 8:0.159212 9:-1.760072 10:0.049974 11:0.699519 12:1.430868 13:0.282421 14:-0.536557 15:-0.196985 16:-0.596705 17:-0.410101 18:0.728189 19:0.244514 20:0.299920 21:0.519743 22:-0.121472 23:-0.285580 24:0.771209 25:0.740063 26:0.481258 27:0.032001 28:-0.045012 29:0.519146 30:0.724830 31:-0.204217 32:-0.794844 33:0.897476 34:-0.644649 35:1.067853 36:0.045385 37:1.628230 38:-0.081993 39:1.194484 40:1.413899 41:-0.625195 42:-0.279502 43:-0.568875 44:1.492535 45:1.594375 46:1.433558 47:0.594738 48:-0.869542 49:-0.656012 50:1.187616 51:-0.264610 52:1.726982 53:-1.473267 54:0.939751 55:-0.675637
-1 1:-1.017257 2:-1.313455 3:-0.170339 4:-0.584016 5:0.464706 6:0.042709 7:1.315279 8:-0.113400 9:0.210406 10:0.366948 11:-0.119565 12:-0.709951 13:-1.193641 14:-0.099701 15:-1.457961 16:1.103753 17:0.945667 18:1.700141 19:-1.498074 20:-0.418748 21:-1.451992 22:-0.684213 23:0.589479 24:-0.682440 25:1.723456 26:1.004553 27:-0.422660 28:-0.636048 29:2.733790 30:1.027926 31:0.157267 32:1.563820 33:0.979961 34:-0.407382 35:0.345229 36:1.168294 37:-1.412852 38:1.024646 39:0.203756 40:1.666148 41:0.502108 42:0.261009 43:0.582004 44:0.725107 45:0.310404 46:-1.283848 47:-0.682767 48:-0.783446 49:0.091822 50:-0.726912 51:-1.458765 52:-0.092835 53:2.656630 54:0.866278 55:-1.353613
-1 1:1.108157 2:-0.269607 3:-0.031765 4:-0.865560 5:1.023692 6:-1.176301 7:-0.849374 8:-1.601933 9:0.713235 10:-0.711293 11:0.508651 12:-2.081632 13:-0.503325 14:-0.390877 15:-1.116868 16:0.349922 17:-0.855313 18:-0.743913 19:-0.111627 20:-0.188945 21:-0.037489 22:-0.925603 23:-0.309375 24:1.270529 25:-1.646176 26:2.385410 27:0.077765 28:1.808290 29:0.628179 30:-2.639241 31:0.797496 32:1.111377 33:0.477318 34:0.091620 35:0.927248 36:0.912951 37:-0.206475 38:-0.836072 39:-1.256411 40:-0.909146 41:0.531287 42:0.513818 43:-0.474358 44:-1.491502 45:-0.213453 46:-0.586154 47:0.147933 48:1.171307 49:-0.589889 50:-0.196707 51:-0.156753 52:0.769294 53:-0.168610 54:-0.542975 55:-0.215071
-1 1:-0.944033 2:1.044591 3:0.534871 4:-0.703699 5:2.394140 6:1.845816 7:-0.047599 8:-0.497473 9:-0.529709 10:1.215826 11:1.663486 12:-1.007487 13:0.319028 14:0.586037 15:1.672912 16:0.648748 17:0.633157 18:0.424273 19:0.073803 20:0.640448 21:1.182020 22:0.052046 23:-0.311010 24:-2.378339 25:-0.940734 26:-1.774892 27:-0.659556 28:1.190548 29:-0.611792 30:0.424820 31:-0.286841 32:0.299061 33:0.387306 34:0.401894 35:1.563007 36:-0.886668 37:-0.994136 38:1.803672 39:0.485934 40:-0.745557 41:-1.405536 42:-0.573068 43:0.151172 44:-0.116089 45:-0.159337 46:1.165652 47:-1.853498 48:0.597617 49:-1.775534 50:1.776347 51:0.317585 52:-0.263676 53:0.321833 54:-1.234637 55:-1.167211
-1 1:-0.126327 2:-0.329822 3:-0.082434 4:-1.301656 5:-0.859552 6:-1.476571 7:-1.988112 8:0.929669 9:-0.288638 10:0.825293 11:-1.296401 12:1.336830 13:0.532009 14:0.868730 15:0.135899 16:0.035961 17:-1.335056 18:-0.834083 19:0.919286 20:-0.894582 21:-0.336700 22:0.000775 23:-0.503855 24:1.018578 25:0.541029 26:-0.411023 27:0.862671 28:-0.811041 29:0.347662 30:-0.782743 31:-0.079190 32:1.557086 33:-0.886089 34:0.211919 35:-1.485508 36:1.460823 37:-0.053651 38:-0.670385 39:-0.640997 40:1.189366 41:0.619579 42:0.380642 43:0.779829 44:-0.035307 45:-1.418186 46:0.210251 47:1.543997 48:-0.017263 49:-2.476304 50:0.764560 51:-1.050962 52:0.602691 53:1.108378 54:0.237979 55:0.391249
-1 1:0.005510 2:-0.418020 3:0.465130 4:-1.197043 5:-1.142008 6:-0.407417 7:-1.131084 8:-0.552208 9:-0.227303 10:2.130925 11:0.695046 12:-0.889415 13:-1.842801 14:-1.094430 15:0.835117 16:-1.084643 17:0.038499 18:0.708478 19:-1.359469 20:1.062192 21:-1.412144 22:-0.298202 23:-0.580002 24:-1.458181 25:-0.284414 26:-0.547871 27:0.968852 28:-2.299058 29:0.800338 30:1.496963 31:-0.148408 32:1.248408 33:0.215229 34:-0.418155 35:0.335412 36:1.180109 37:1.870737 38:-0.655151 39:0.537075 40:-0.445686 41:-0.603187 42:-1.956633 43:0.866335 44:-1.832963 45:-0.952811 46:-1.901949 47:0.383982 48:-1.338320 49:2.862794 50:-0.262110 51:1.247449 52:1.343856 53:-0.049076 54:-0.843080 55:-1.151273
-1 1:-0.672230 2:-0.473421 3:-0.815384 4:0.495144 5:0.042425 6:0.595564 7:0.098016 8:0.935119 9:-0.316762 10:0.952854 11:-0.349017 12:-0.880754 13:-0.429986 14:0.076978 15:-0.236146 16:-0.055019 17:0.774274 18:-0.501778 19:-1.609521 20:0.025740 21:-1.271021 22:0.344694 23:-0.506804 24:-0.691843 25:-0.208259 26:0.064184 27:0.609887 28:0.553780 29:0.089761 30:0.601849 31:-0.740436 32:-1.971142 33:-0.406694 34:-0.636190 35:0.443867 36:1.767303 37:-0.187430 38:-1.194026 39:0.295188 40:0.085616 41:-0.144899 42:-1.198727 43:0.856715 44:-0.925810 45:-0.499179 46:1.426962 47:0.399233 48:-0.052292 49:-0.054542 50:-0.836878 51:0.511157 52:1.251423 53:-0.261833 54:0.040708 55:0.181623
-1 1:-0.087290 2:0.490418 3:0.948838 4:-0.297416 5:-0.404047 6:0.841126 7:0.075174 8:0.781692 9:0.013056 10:0.672764 11:0.467667 12:0.389440 13:-1.029814 14:-1.229458 15:-0.535317 16:1.923054 17:-0.889659 18:-1.089235 19:-1.615724 20:0.852044 21:0.576932 22:1.588303 23:0.723262 24:0.024577 25:0.777581 26:-0.392098 27:0.289456 28:-0.575509 29:-0.851109 30:-2.055642 31:-0.178490 32:-0.573143 33:-0.809664 34:-0.287659 35:-1.406908 36:-0.392892 37:0.506203 38:-1.018188 39:0.036492 40:-0.677663 41:0.191262 42:-0.777324 43:-1.342522 44:0.253095 45:-2.176238 46:-0.218704 47:0.015950 48:-1.352215 49:1.478888 50:-1.133401 51:-0.890402 52:0.373622 53:0.726434 54:-0.097229 55:0.028325
-1 1:-0.438920 2:-0.442039 3:0.722651 4:-0.302880 5:1.033173 6:1.829753 7:0.760153 8:-0.065716 9:-1.614573 10:-0.292840 11:0.358735 12:2.015085 13:-0.178634 14:1.501616 15:0.064763 16:1.957879 17:0.497453 18:-0.193774 19:-0.825658 20:0.958513 21:2.076280 22:0.480470 23:1.431331 24:-1.100856 25:0.187314 26:-1.584570 27:-0.985042 28:0.217254 29:0.337135 30:-1.714064 31:-1.267196 32:0.286002 33:-0.736416 34:-1.680632 35:-0.619167 36:-0.645325 37:1.078640 38:-0.241437 39:0.009119 40:-0.087444 41:1.359273 42:-0.501084 43:-0.680843 44:-0.319388 45:-0.961001 46:1.497945 47:-0.587680 48:-0.214914 49:0.932853 50:2.260043 51:1.274149 52:-0.143211 53:-0.941165 54:-0.697946 55:0.620618
-1 1:0.118230 2:-0.732426 3:-0.743948 4:-1.912181 5:0.550888 6:-0.045033 7:-0.326338 8:-0.256569 9:0.375232 10:-1.102808 11:-2.310997 12:-0.896628 13:0.468489 14:0.317927 15:1.495159 16:0.996663 17:-2.299696 18:1.264930 19:-1.116049 20:-2.686864 21:0.715518 22:-1.818136 23:0.888117 24:-0.626509 25:0.365287 26:-0.769693 27:0.082711 28:-0.237289 29:0.514636 30:0.252334 31:0.478381 32:0.185512 33:0.950505 34:-1.360101 35:-1.171648 36:0.973969 37:-1.094770 38:0.908312 39:-0.153895 40:-0.388669 41:2.065651 42:0.289920 43:-1.128212 44:-0.239703 45:-0.934904 46:-1.326901 47:-0.745072 48:-1.814599 49:0.365262 50:1.114806 51:-0.190739 52:1.599707 53:-0.435697 54:-0.895150 55:1.255170
-1 1:0.161018 2:0.008304 3:0.881321 4:0.212516 5:-0.462035 6:-0.253134 7:-0.564611 8:0.580957 9:-0.460985 10:0.242702 11:-0.552640 12:0.575460 13:0.774953 14:0.251930 15:0.310285 16:-0.372520 17:0.357063 18:1.995638 19:1.536764 20:-0.940372 21:0.423536 22:-1.086100 23:-1.157233 24:-0.480543 25:0.280301 26:-0.841679 27:1.337405 28:0.572288 29:-0.320707 30:-0.992791 31:-0.574674 32:-0.044445 33:-0.383774 34:-0.363115 35:-1.247349 36:-1.114666 37:-0.272351 38:1.541791 39:-0.106853 40:1.247141 41:-0.233954 42:1.493229 43:0.874873 44:-0.844456 45:-0.502652 46:-0.649927 47:-1.044189 48:0.445772 49:0.213290 50:-0.713162 51:1.482150 52:1.897996 53:-3.412878 54:1.180637 55:0.915082
-1 1:0.756951 2:-0.195266 3:-0.611955 4:-0.479291 5:-0.022419 6:0.169705 7:0.682701 8:-0.088748 9:-1.489306 10:-0.839075 11:-0.861342 12:-0.839662 13:0.950174 14:0.258249 15:0.158164 16:1.300768 17:0.607657 18:-0.676629 19:-0.456440 20:1.992678 21:-0.501878 22:-0.498106 23:-0.625062 24:-0.290029 25:0.559806 26:-1.212762 27:-1.330523 28:1.358950 29:-0.365639 30:-0.969653 31:0.165828 32:2.988863 33:0.743669 34:-0.167700 35:-1.462643 36:-0.576158 37:0.172314 38:-0.162982 39:3.663239 40:-2.502726 41:-0.271027 42:-0.332571 43:-0.121730 44:0.011085 45:0.245877 46:-0.460736 47:-1.595978 48:0.714764 49:-0.303726 50:-1.475849 51:-0.316412 52:0.559437 53:0.711411 54:-1.782874 55:-1.714212
-1 1:0.951644 2:1.001324 3:0.822411 4:0.027742 5:-0.969134 6:-1.385642 7:-1.180098 8:-1.137700 9:-0.122292 10:1.087308 11:-0.475497 12:0.304201 13:2.206536 14:0.485103 15:-0.716094 16:-0.621406 17:-0.373760 18:-0.332620 19:0.014364 20:-2.169376 21:1.711423 22:-0.353129 23:1.890076 24:0.758386 25:0.491702 26:0.251056 27:1.267672 28:0.139494 29:-0.224474 30:0.385375 31:-0.600932 32:0.546901 33:-0.505358 34:-0.268828 35:-0.454218 36:0.695718 37:0.728542 38:0.613315 39:0.072091 40:0.059890 41:-0.334575 42:0.631157 43:-4.149861 44:1.112532 45:-1.163689 46:-0.383190 47:-0.098524 48:2.261197 49:0.381211 50:-0.017853 51:-1.027494 52:0.740016 53:0.823450 54:2.735870 55:-0.484540
-1 1:-0.006046 2:0.236632 3:1.252150 4:1.411673 5:-0.715453 6:-0.298274 7:-2.763774 8:0.456363 9:-0.149557 10:-0.683046 11:-0.286798 12:-0.300543 13:-0.970536 14:1.213155 15:0.807776 16:-0.445464 17:1.329640 18:0.221367 19:-1.269803 20:-0.539306 21:0.819103 22:-0.479962 23:3.144034 24:-1.696006 25:0.021465 26:-0.789364 27:-0.166443 28:0.576815 29:0.768522 30:-0.343594 31:-0.531093 32:-0.613107 33:-0.809364 34:0.188060 35:-0.290587 36:-0.898811 37:1.108244 38:-0.816431 39:0.585672 40:-0.264004 41:0.612837 42:1.617190 43:-0.475514 44:-0.589754 45:0.598270 46:0.897214 47:-0.318602 48:-1.482815 49:0.291304 50:-0.685789 51:-1.302602 52:0.205334 53:-0.117603 54:-0.333846 55:1.862130
-1 1:-0.910435 2:-0.289354 3:1.946356 4:0.875631 5:1.711895 6:0.406184 7:-1.320911 8:-0.894505 9:0.376354 10:-0.941163 11:1.014971 12:-0.817945 13:-1.978720 14:0.159760 15:0.409120 16:-0.861926 17:-1.397241 18:-0.705089 19:1.468918 20:-0.356826 21:-1.664525 22:0.184205 23:-0.356281 24:-2.085855 25:2.126642 26:-0.189096 27:0.310277 28:1.384896 29:1.014268 30:-0.065501 31:1.618356 32:-1.328689 33:-0.779390 34:-0.182029 35:-1.381217 36:-1.235714 37:-0.876218 38:-0.983236 39:0.843583 40:0.761577 41:-0.719521 42:-0.388417 43:-0.070228 44:-0.572086 45:-0.730069 46:-0.372654 47:-0.716351 48:0.028829 49:0.531745 50:0.617771 51:-0.490341 52:0.511715 53:0.510365 54:-0.531208 55:0.062976
-1 1:-1.173129 2:1.121907 3:-0.177270 4:-1.106201 5:-0.467921 6:0.871797 7:0.763807 8:1.206251 9:1.091805 10:-0.132005 11:-0.522353 12:0.078268 13:0.845579 14:-1.446380 15:-0.334282 16:0.156525 17:-0.590517 18:-0.904972 19:-1.599652 20:-1.431313 21:-0.298821 22:-0.809017 23:0.939841 24:0.299002 25:-0.605908 26:0.814696 27:-0.505587 28:-0.358539 29:-0.336194 30:-0.019342 31:-0.980709 32:2.511820 33:-0.428461 34:-0.203234 35:0.624787 36:0.758175 37:-1.151189 38:1.212734 39:-1.177687 40:-2.018772 41:-0.355604 42:-0.898979 43:1.198002 44:0.202269 45:-0.669465 46:1.416575 47:0.136129 48:0.600723 49:-0.325014 50:0.318114 51:0.619433 52:0.547988 53:-0.456546 54:-1.065240 55:0.654005
-1 1:-0.927224 2:0.410785 3:-0.988627 4:0.066988 5:1.379895 6:-0.246349 7:0.027228 8:-1.780172 9:0.410481 10:0.161425 11:-0.540666 12:-0.520991 13:-0.093680 14:-0.043600 15:-1.421836 16:1.769873 17:-1.119712 18:-0.241138 19:0.158024 20:-0.616806 21:0.787941 22:0.315400 23:-0.918678 24:-0.091381 25:1.399357 26:-0.097016 27:1.118884 28:0.266306 29:-0.009061 30:0.202865 31:-0.224978 32:0.612713 33:0.464127 34:-0.075481 35:0.044376 36:-0.429957 37:1.233506 38:-1.683289 39:-0.321422 40:-0.413829 41:0.550433 42:-0.626872 43:-1.016948 44:1.279928 45:0.021469 46:0.736088 47:2.356891 48:0.558219 49:1.305990 50:0.208588 51:-0.338966 52:1.339152 53:1.447403 54:0.095594 55:-0.984220
-1 1:-2.025242 2:0.530810 3:-0.165727 4:-0.566048 5:-0.050238 6:-0.147263 7:0.621514 8:-2.076775 9:-0.363003 10:-1.706634 11:0.389589 12:-0.340284 13:0.537631 14:1.319552 15:-0.205254 16:1.871638 17:-0.760695 18:0.782659 19:0.674584 20:-0.730453 21:0.845080 22:-0.051970 23:1.360817 24:1.664833 25:-0.410664 26:0.562881 27:0.725641 28:-0.354908 29:0.778467 30:0.940497 31:-1.757359 32:-0.982341 33:1.156112 34:-1.344174 35:-0.245073 36:-1.960904 37:-1.274215 38:2.476861 39:-0.221639 40:-0.301664 41:0.056466 42:-0.825916 43:-0.308776 44:1.112557 45:0.825025 46:0.373635 47:0.649497 48:-0.595616 49:1.397792 50:-2.164297 51:1.719306 52:-0.647918 53:0.529859 54:-0.855035 55:0.384128
-1 1:3.141012 2:-0.806567 3:0.691184 4:-0.730222 5:-0.273751 6:-0.042413 7:0.120502 8:-0.807435 9:0.822543 10:1.458880 11:0.308513 12:1.436755 13:-0.486500 14:-0.469973 15:0.367903 16:0.547325 17:0.230016 18:0.866326 19:-0.514437 20:0.074836 21:-0.317454 22:-1.035397 23:0.676125 24:-0.985814 25:1.233439 26:-0.293288 27:-0.777009 28:-0.235200 29:0.229614 30:2.137191 31:-0.767642 32:-0.417763 33:-0.247068 34:-0.321413 35:0.835377 36:1.120741 37:1.139032 38:0.851673 39:0.426515 40:-0.671953 41:-0.440377 42:1.458837 43:0.450040 44:0.183670 45:1.054111 46:2.834879 47:0.279879 48:0.798697 49:0.595543 50:0.217656 51:2.149663 52:-0.692070 53:-1.535126 54:0.589538 55:-0.822034
-1 1:0.563660 2:-1.180499 3:1.026017 4:-0.651812 5:-0.866984 6:-0.095857 7:-0.167602 8:1.612411 9:0.675788 10:1.136792 11:1.312443 12:0.261200 13:-0.294558 14:1.263165 15:1.900785 16:1.584521 17:0.984618 18:-0.871779 19:1.112501 20:1.545647 21:0.048281 22:-0.317936 23:1.003778 24:-0.519083 25:-1.504727 26:0.743662 27:0.019981 28:0.253083 29:0.652478 30:-1.136991 31:2.147425 32:0.349281 33:0.734116 34:1.864767 35:-0.881453 36:0.319433 37:-0.855114 38:-0.628080 39:0.417582 40:1.840593 41:-0.336754 42:-1.071775 43:-0.574594 44:1.358727 45:0.669917 46:-1.167479 47:1.342323 48:0.455666 49:0.520665 50:0.916552 51:-0.178663 52:-0.764071 53:0.025880 54:-1.175277 55:-0.214616
-1 1:0.539086 2:-0.541701 3:0.908212 4:1.962693 5:0.421347 6:0.737451 7:-0.021820 8:-0.684649 9:-1.341963 10:0.649365 11:1.140574 12:1.431476 13:-0.790545 14:0.990828 15:1.869929 16:-0.984353 17:0.246217 18:2.165476 19:-0.136167 20:0.420432 21:0.150858 22:-0.587449 23:0.884050 24:-1.234312 25:0.708669 26:-0.725533 27:-1.419237 28:-1.057301 29:-0.184717 30:1.082621 31:-1.036085 32:-0.624481 33:-2.124057 34:0.777373 35:0.910345 36:1.719906 37:1.294151 38:-0.892904 39:0.849795 40:0.039431 41:1.118706 42:-0.314930 43:0.975728 44:-0.273637 45:-0.455956 46:-1.181555 47:-2.217608 48:1.189554 49:0.721614 50:-1.542190 51:-0.418545 52:1.064692 53:-2.001441 54:0.078161 55:0.795880
-1 1:0.023524 2:0.370141 3:0.223268 4:2.473829 5:-0.218405 6:2.161779 7:-0.230816 8:-0.767915 9:0.856463 10:0.005034 11:-1.511059 12:-0.215678 13:0.134498 14:1.019122 15:-0.843755 16:-0.099274 17:0.479551 18:-0.291134 19:-1.596723 20:0.876047 21:-0.050171 22:0.310126 23:1.001717 24:-1.270618 25:1.607122 26:-1.162782 27:1.222377 28:-0.441832 29:1.086929 30:0.301697 31:3.007387 32:-0.072074 33:-0.503640 34:0.758327 35:-1.283468 36:0.004800 37:1.197751 38:-1.492566 39:0.023735 40:-1.845705 41:0.992784 42:-1.339499 43:-0.736764 44:-0.652921 45:-0.542987 46:1.091545 47:0.460937 48:0.843856 49:-2.709945 50:-1.320937 51:0.669215 52:-1.378342 53:-0.182665 54:2.037990 55:1.298823
-1 1:-0.697227 2:0.382083 3:-0.169281 4:0.333646 5:2.013382 6:1.401961 7:-0.443298 8:1.025907 9:0.917820 10:-0.813057 11:-0.491483 12:-0.075271 13:-0.026364 14:0.317272 15:-0.603704 16:-1.783915 17:0.101306 18:1.586686 19:-0.676227 20:-0.892204 21:0.127652 22:2.902302 23:-0.280086 24:-0.570167 25:-0.183220 26:-0.065996 27:-0.506528 28:-0.760931 29:0.009728 30:0.253527 31:-0.117022 32:-0.611864 33:-0.804844 34:1.833257 35:0.076437 36:1.293189 37:-0.787620 38:-1.437346 39:0.909157 40:-0.171891 41:-0.117596 42:-1.666259 43:-0.027248 44:0.434980 45:-1.434399 46:-1.311508 47:2.644927 48:-1.388612 49:-0.028971 50:-1.065789 51:1.622987 52:-0.072409 53:0.473695 54:0.935020 55:0.448024
-1 1:-0.309748 2:2.890475 3:-2.231919 4:-0.487840 5:1.198705 6:-0.718736 7:-0.351261 8:-0.493860 9:0.073556 10:-0.684710 11:-0.277271 12:-0.858651 13:1.367063 14:0.053651 15:0.223099 16:0.122543 17:0.247450 18:-0.032580 19:0.062367 20:-2.026414 21:1.260501 22:-1.372502 23:0.022562 24:0.437552 25:-2.082323 26:-1.117914 27:-0.222473 28:0.518012 29:-0.746641 30:-0.007516 31:1.192167 32:0.663626 33:-0.416929 34:-0.858888 35:-0.078666 36:-0.663989 37:0.305482 38:-0.679333 39:-0.359486 40:-0.322732 41:-1.358090 42:0.834208 43:1.355377 44:1.298448 45:-1.097814 46:0.206472 47:-0.853528 48:-1.210283 49:0.326841 50:2.269989 51:-1.042569 52:-0.075382 53:-1.360436 54:0.423423 55:-0.001663
-1 1:-1.258258 2:-0.670709 3:0.542604 4:0.094807 5:-0.394716 6:0.849256 7:0.402729 8:-0.289037 9:-0.473918 10:-0.128892 11:-0.517008 12:-0.003086 13:-1.038223 14:-0.931824 15:-1.271317 16:1.132861 17:-1.591833 18:-1.584619 19:-0.420783 20:-0.405104 21:-1.442615 22:-1.231662 23:-0.395284 24:-1.604230 25:0.578748 26:0.599838 27:-0.666677 28:0.217812 29:0.655805 30:-1.443972 31:0.073128 32:-0.506307 33:-2.230423 34:1.674487 35:-0.172763 36:-0.974851 37:-0.751529 38:-1.380812 39:-1.667382 40:0.690975 41:0.245139 42:0.495215 43:-0.422976 44:0.126200 45:0.646382 46:-1.038230 47:-1.560204 48:1.098454 49:0.828476 50:-0.893963 51:0.611710 52:-0.687224 53:-0.764875 54:-1.206988 55:0.206404
-1 1:-0.786835 2:0.890839 3:-0.204882 4:-1.126447 5:0.273882 6:-1.570371 7:-0.663637 8:-0.210783 9:-0.342513 10:0.346914 11:0.433897 12:1.144742 13:-1.142961 14:-0.535342 15:1.341267 16:0.186466 17:-1.885647 18:-0.272048 19:-2.872793 20:0.520750 21:1.492260 22:-0.176593 23:0.599674 24:-1.248524 25:0.380194 26:1.100453 27:1.856760 28:-1.072212 29:-0.150568 30:0.307212 31:-0.382299 32:-1.444855 33:0.816173 34:0.495835 35:-0.766160 36:-1.274038 37:0.244156 38:-2.211051 39:1.018870 40:-1.068445 41:-0.965752 42:0.228257 43:0.617411 44:0.909583 45:0.546384 46:-0.572798 47:1.318728 48:0.085909 49:-0.399020 50:-0.542997 51:-1.253723 52:0.081139 53:-0.200816 54:-0.475160 55:1.022793
-1 1:-1.151117 2:0.649388 3:0.067054 4:-1.270498 5:2.438396 6:1.137673 7:0.791791 8:0.217210 9:2.298536 10:-0.907630 11:1.544869 12:1.083459 13:-0.908014 14:0.570260 15:0.508266 16:-1.672283 17:-0.176254 18:-1.415599 19:-1.052522 20:-0.692523 21:0.544276 22:0.038487 23:-2.129867 24:-0.030972 25:-0.402140 26:1.129692 27:0.323531 28:0.289427 29:0.227926 30:0.344177 31:-0.306418 32:1.677996 33:-0.180458 34:0.264496 35:0.427174 36:0.356500 37:0.292427 38:0.590388 39:1.751426 40:1.317723 41:-0.263680 42:-0.383528 43:1.347522 44:-0.023198 45:1.232149 46:-0.086288 47:1.997603 48:-0.273832 49:-0.447435 50:-1.300328 51:1.323016 52:1.122232 53:0.743534 54:-0.967271 55:-1.562312
-1 1:-0.147352 2:0.504892 3:1.485601 4:-0.758646 5:-1.107899 6:2.976357 7:1.621928 8:1.216725 9:-1.005733 10:-0.499634 11:-2.917898 12:0.248049 13:0.750512 14:-1.355100 15:-0.427249 16:0.133654 17:-1.245020 18:-0.663110 19:0.735629 20:2.018650 21:0.465961 22:1.246744 23:-1.901008 24:1.361733 25:-0.073027 26:-0.463771 27:-1.482054 28:0.593147 29:-1.139478 30:-1.686661 31:0.201303 32:-1.495711 33:0.134186 34:-1.050441 35:0.145600 36:-2.309222 37:0.161100 38:-0.548493 39:0.911192 40:1.762980 41:0.021371 42:0.414358 43:0.607092 44:0.303108 45:-0.744459 46:1.793563 47:0.377059 48:-0.415813 49:-0.323768 50:-1.456343 51:-0.257784 52:0.951947 53:0.371010 54:-0.857051 55:-0.260775
-1 1:0.111441 2:0.228306 3:-0.052628 4:-0.893200 5:-0.752939 6:0.035991 7:-0.069035 8:0.029387 9:-0.372076 10:-1.461601 11:1.334294 12:1.239932 13:-0.000675 14:-0.031903 15:-0.371207 16:-1.458998 17:-1.059523 18:-1.468738 19:1.348457 20:0.484576 21:2.382286 22:0.438540 23:2.025633 24:0.482596 25:-1.155507 26:0.703611 27:-0.216825 28:0.882456 29:0.779168 30:0.690753 31:0.935837 32:-0.820889 33:-1.473902 34:-1.627591 35:0.236219 36:-0.266377 37:1.605808 38:0.607574 39:1.673113 40:-1.041981 41:0.013961 42:0.055412 43:-0.188715 44:0.151852 45:-1.580202 46:-0.745862 47:-0.568322 48:-0.769806 49:0.611705 50:-0.193670 51:0.802621 52:-0.150473 53:-0.348168 54:0.317252 55:0.928157
-1 1:0.278615 2:1.099955 3:-1.122237 4:0.541698 5:0.695480 6:0.833422 7:-0.347535 8:-0.056448 9:0.702647 10:-0.090023 11:1.085170 12:-1.601276 13:-0.940083 14:-0.889313 15:-0.957560 16:-2.625395 17:-1.546536 18:1.351674 19:-0.601217 20:0.249959 21:0.928287 22:-0.737298 23:-0.818663 24:1.189337 25:-0.095717 26:0.947595 27:0.925962 28:-0.474135 29:-1.353016 30:-0.254253 31:0.498367 32:1.063899 33:0.835636 34:1.021214 35:-0.036944 36:-0.298809 37:0.043833 38:-1.262497 39:-0.617264 40:-0.358249 41:-0.558885 42:0.743377 43:-1.947744 44:0.456262 45:0.697597 46:-1.292682 47:-1.002342 48:1.707640 49:-1.049450 50:0.987110 51:-0.807419 52:2.055786 53:-1.150814 54:-1.264269 55:1.225978
-1 1:0.788897 2:0.263974 3:0.103966 4:0.286831 5:0.535203 6:0.522480 7:0.828863 8:-1.536454 9:0.826232 10:-0.505524 11:-0.717319 12:-1.375916 13:-1.741890 14:-0.389554 15:-0.339221 16:1.260006 17:-0.693526 18:-1.526550 19:0.247110 20:-0.299241 21:-1.690487 22:0.016203 23:0.429758 24:-0.966040 25:0.002747 26:-0.260748 27:-1.422303 28:-0.249236 29:0.786077 30:-0.301219 31:-0.886530 32:0.213625 33:0.409091 34:-0.552514 35:-0.579077 36:1.886753 37:-0.231703 38:1.016975 39:1.569158 40:0.088070 41:1.698118 42:-2.571123 43:0.250316 44:1.191941 45:0.073613 46:0.099996 47:0.661125 48:-0.055737 49:0.222054 50:1.091884 51:-0.147362 52:0.096864 53:-0.992376 54:-1.046270 55:1.370183
-1 1:0.134631 2:0.382969 3:1.041063 4:-1.576169 5:-0.005797 6:2.148985 7:-0.771592 8:-0.193780 9:0.655071 10:-0.840907 11:-0.490572 12:-0.594666 13:0.491784 14:0.393419 15:1.012253 16:0.349596 17:0.173241 18:-1.079583 19:0.066838 20:-1.370404 21:-0.108641 22:0.464730 23:-0.793515 24:-0.461057 25:0.246215 26:0.858880 27:0.381982 28:1.575728 29:-1.401859 30:0.474253 31:-0.002815 32:-0.683785 33:-1.107733 34:0.544303 35:0.045188 36:0.659627 37:0.135899 38:0.095388 39:-0.819024 40:0.695417 41:-0.321666 42:1.922274 43:0.302712 44:-0.502899 45:-0.458454 46:0.435262 47:-0.480362 48:0.621721 49:-0.865999 50:-1.621313 51:1.267366 52:-0.426076 53:-1.456976 54:0.260941 55:-0.390762
-1 1:1.127078 2:-0.433892 3:2.535916 4:0.640848 5:-0.171904 6:-1.706831 7:-0.411929 8:1.290168 9:2.688450 10:1.966968 11:-1.147530 12:1.295972 13:-2.194358 14:1.357613 15:-0.438454 16:2.421461 17:1.515374 18:0.031105 19:-0.275850 20:1.017803 21:2.170327 22:-0.886289 23:0.155006 24:0.516079 25:-0.050271 26:0.361313 27:-0.381647 28:-0.724906 29:1.080562 30:1.206797 31:-0.937459 32:0.281882 33:1.588452 34:1.022370 35:1.771216 36:-0.173716 37:0.921222 38:0.506057 39:-0.999350 40:-0.857494 41:-0.257345 42:-0.186797 43:0.298614 44:0.178364 45:0.209734 46:-0.097894 47:0.363276 48:0.511306 49:-0.287450 50:1.935965 51:-0.634242 52:-0.515699 53:-0.449736 54:-0.485897 55:-0.462922
-1 1:-0.646324 2:-0.972900 3:1.573243 4:-0.865216 5:-0.797448 6:-0.215723 7:1.009573 8:-0.094399 9:1.037522 10:0.222361 11:0.128483 12:0.977050 13:1.207810 14:-1.287564 15:-0.710278 16:0.107061 17:0.594568 18:-0.107292 19:0.212981 20:-0.555520 21:0.386280 22:0.798958 23:-1.501341 24:-1.654427 25:-0.762103 26:1.558707 27:-0.352891 28:0.276660 29:-0.310082 30:-0.140425 31:-0.991979 32:-1.173736 33:-1.093300 34:-0.867401 35:0.713816 36:0.601639 37:-1.061374 38:0.670125 39:1.155546 40:-0.106204 41:-0.188772 42:0.468626 43:-0.228516 44:1.427589 45:0.855604 46:-0.239906 47:-0.266688 48:-0.175602 49:0.029785 50:-0.745390 51:0.646067 52:1.535400 53:1.135260 54:0.734002 55:0.977120
-1 1:-0.640181 2:0.933069 3:0.786569 4:0.483885 5:-0.209708 6:-1.366158 7:0.146521 8:0.843450 9:0.979357 10:0.975072 11:1.101511 12:-0.034834 13:0.915619 14:-1.213988 15:0.914728 16:0.332164 17:-0.795105 18:1.215547 19:1.067867 20:-0.552627 21:1.444210 22:-0.811258 23:0.137370 24:-0.363724 25:-0.359559 26:0.315908 27:1.278313 28:0.172102 29:0.727417 30:-0.332918 31:0.029104 32:0.600443 33:-0.565707 34:-0.358029 35:0.829126 36:-0.468733 37:0.694959 38:-0.533333 39:0.507429 40:-1.253010 41:-1.701958 42:0.483902 43:1.109673 44:-0.295085 45:0.029724 46:0.384430 47:1.050061 48:0.918533 49:1.007827 50:1.978181 51:0.318892 52:-0.076954 53:0.429930 54:-0.300081 55:1.070424
-1 1:-0.559646 2:-0.575884 3:0.313370 4:-0.086341 5:-0.602802 6:-2.247072 7:0.976842 8:0.827629 9:0.562874 10:0.212195 11:0.501235 12:-1.140216 13:-2.340896 14:-0.498584 15:1.187069 16:1.937964 17:0.068556 18:-0.161466 19:0.234085 20:-0.838838 21:-0.971796 22:0.438633 23:0.935234 24:0.642069 25:1.564035 26:0.411696 27:0.018154 28:2.293545 29:0.125458 30:1.394428 31:0.435905 32:0.815196 33:-1.188660 34:0.690344 35:0.833151 36:-1.156295 37:-0.723299 38:-0.154060 39:0.737299 40:-0.665150 41:1.321419 42:-1.419290 43:0.742720 44:-0.671048 45:0.631641 46:-0.620893 47:-0.259720 48:0.996882 49:-1.228241 50:0.528973 51:-0.287526 52:-0.240540 53:1.355561 54:-1.768002 55:-0.303287
-1 1:0.986066 2:-2.402435 3:-0.706187 4:-1.177935 5:-0.084879 6:-0.388246 7:1.271308 8:-1.181408 9:1.263325 10:1.634203 11:-0.147899 12:-0.942542 13:-1.206822 14:-0.995627 15:-1.551048 16:-1.483786 17:-0.106323 18:-1.584682 19:0.990193 20:-1.064713 21:0.340238 22:2.375079 23:-1.194942 24:-0.072899 25:1.467995 26:2.682760 27:-0.286526 28:-0.758132 29:0.356451 30:1.337103 31:0.470756 32:-0.933141 33:1.501624 34:-0.220419 35:0.711324 36:1.154677 37:0.835023 38:0.511358 39:0.875742 40:0.072729 41:-1.569144 42:0.445207 43:1.708239 44:1.158513 45:1.239330 46:-0.727609 47:-1.137461 48:-0.114249 49:-1.023886 50:-2.219852 51:-1.122902 52:0.081085 53:0.224951 54:1.659971 55:0.767029
-1 1:-2.227416 2:-0.499571 3:0.874861 4:-1.622855 5:-2.574395 6:0.704374 7:-0.735859 8:0.654542 9:0.297404 10:-0.943281 11:0.120776 12:0.489206 13:-1.315333 14:0.016049 15:-0.618998 16:-0.790397 17:-0.832437 18:-1.772748 19:1.215889 20:1.201910 21:0.310175 22:-0.684692 23:0.035350 24:0.355622 25:-0.650161 26:0.816012 27:-1.118607 28:0.861211 29:0.757929 30:0.962810 31:0.536734 32:0.546246 33:-0.189286 34:0.568843 35:-1.525054 36:-0.317374 37:1.292710 38:-0.854628 39:0.877307 40:0.564637 41:0.647058 42:-0.431862 43:0.689290 44:1.645107 45:0.197650 46:-0.116243 47:1.828336 48:-0.295596 49:0.488973 50:1.251650 51:-2.433707 52:1.838813 53:-1.199020 54:-0.217939 55:2.698307
-1 1:-1.139775 2:0.964138 3:-1.024536 4:-0.250886 5:-0.231617 6:-0.814801 7:-0.003668 8:1.400323 9:1.291315 10:-0.610445 11:-1.165253 12:0.029425 13:0.244386 14:0.766740 15:-1.328954 16:0.143976 17:0.348894 18:0.135299 19:0.577826 20:-1.677244 21:-0.755842 22:-0.094430 23:-0.669353 24:0.250157 25:-1.684654 26:0.968085 27:-0.814075 28:1.618269 29:-0.013855 30:-1.542846 31:1.286007 32:0.821798 33:-0.412075 34:1.342689 35:-0.197753 36:2.173413 37:0.451984 38:0.113264 39:-1.242004 40:0.509418 41:1.626888 42:1.099649 43:-0.338815 44:-0.240013 45:0.738080 46:-0.028967 47:0.694548 48:-0.608533 49:0.526182 50:0.562795 51:0.283005 52:-1.042978 53:1.119979 54:-1.207657 55:0.272943
-1 1:1.844647 2:-0.928098 3:1.322504 4:0.983162 5:-0.023240 6:0.729118 7:1.146689 8:-1.487181 9:0.418328 10:0.819041 11:-0.143770 12:0.802223 13:-0.933158 14:2.187403 15:-1.684190 16:-1.855438 17:-0.491713 18:-0.054948 19:-0.987376 20:0.161767 21:0.300566 22:-1.451737 23:0.113030 24:-1.311554 25:1.445426 26:0.519282 27:-0.640315 28:1.953573 29:-0.187816 30:-1.918792 31:-1.019644 32:-1.472797 33:-1.944698 34:-0.797637 35:0.090129 36:-0.601140 37:-0.103138 38:-0.730811 39:-0.421334 40:-0.058588 41:0.188481 42:0.084302 43:-0.588938 44:0.025882 45:0.649187 46:-1.501356 47:0.982179 48:-0.360007 49:-0.413410 50:0.541165 51:2.930259 52:1.011081 53:0.412911 54:-0.280571 55:-0.933877
-1 1:0.411152 2:-1.341741 3:-0.472195 4:-2.437503 5:-1.164920 6:-1.239390 7:0.413978 8:0.559743 9:-0.673973 10:0.881064 11:-0.128348 12:0.685362 13:1.185513 14:-0.693676 15:1.420571 16:0.596121 17:-0.778465 18:1.664182 19:0.839482 20:2.494311 21:-0.382220 22:-1.015496 23:-0.491124 24:-1.085894 25:-0.147442 26:0.491297 27:0.675942 28:-0.160383 29:1.142717 30:-0.020999 31:1.097445 32:0.380477 33:0.436642 34:-0.874268 35:0.324334 36:0.369363 37:0.655488 38:0.081276 39:1.877156 40:1.279193 41:1.985588 42:0.264698 43:0.639776 44:1.296096 45:-0.390767 46:-0.071060 47:0.125636 48:-0.826860 49:-0.619546 50:-0.886548 51:0.641158 52:-1.550447 53:0.033409 54:0.222283 55:-0.534485
-1 1:-0.656896 2:0.282726 3:0.158715 4:0.187892 5:0.445449 6:-0.761779 7:1.709826 8:0.628493 9:1.500354 10:0.495613 11:1.266232 12:-1.009261 13:-1.788570 14:0.393074 15:-0.122958 16:0.683179 17:-0.269483 18:0.840743 19:0.416085 20:-0.688509 21:0.002377 22:0.748939 23:-1.304937 24:0.558539 25:-1.194335 26:1.292908 27:0.166533 28:2.312129 29:-0.361524 30:-0.001887 31:-0.552195 32:1.936589 33:-0.478939 34:0.031921 35:1.891183 36:0.604344 37:0.311939 38:-0.934865 39:0.999667 40:0.993244 41:0.296344 42:1.088959 43:-0.508530 44:-0.708151 45:0.345632 46:0.688522 47:0.460439 48:-0.834641 49:0.048625 50:-0.907363 51:0.938955 52:-0.406363 53:0.035753 54:1.370054 55:0.740779
-1 1:-0.894727 2:1.276576 3:0.173612 4:1.821026 5:0.390400 6:0.762657 7:-1.494019 8:-0.499870 9:0.562633 10:0.689401 11:-1.171506 12:0.353137 13:-0.604199 14:0.189762 15:-0.080211 16:0.792440 17:-0.447603 18:-0.259103 19:0.736862 20:-0.436372 21:0.319074 22:0.179397 23:0.058648 24:0.737458 25:-0.887241 26:-0.139329 27:-0.435532 28:-0.901694 29:-2.261999 30:0.755894 31:0.190216 32:-0.327268 33:-0.273319 34:0.392475 35:-0.496660 36:-0.231063 37:-0.568985 38:1.158821 39:0.591905 40:-0.651466 41:1.464789 42:-0.780346 43:0.291182 44:-0.156186 45:-0.917769 46:-0.980273 47:-0.693031 48:-0.936545 49:1.719445 50:-1.259835 51:-1.196600 52:1.169629 53:-0.079073 54:-0.947180 55:-0.765883
-1 1:0.418854 2:-0.759504 3:0.245718 4:0.620163 5:-0.771664 6:0.865898 7:1.267012 8:-1.243654 9:-0.601918 10:1.535263 11:-0.607745 12:-0.366219 13:0.612670 14:0.523489 15:0.032558 16:0.893611 17:-0.508526 18:-0.533918 19:-0.768016 20:-0.056033 21:-1.150241 22:0.964015 23:-0.885073 24:-0.390954 25:1.259178 26:0.566205 27:-1.155685 28:0.613454 29:-0.377160 30:0.855643 31:-0.016082 32:2.267641 33:0.723552 34:-1.485301 35:2.198598 36:0.044598 37:0.167890 38:0.159310 39:0.717769 40:0.360050 41:-0.981160 42:1.666898 43:0.351616 44:-1.527831 45:1.270709 46:0.470071 47:-0.349205 48:-0.487697 49:-1.122454 50:-0.564103 51:0.360929 52:0.455699 53:-0.302852 54:0.590340 55:-0.946471
-1 1:0.022729 2:-0.305866 3:-1.592017 4:1.120977 5:0.564693 6:0.018905 7:-0.517017 8:-1.585146 9:-0.649397 10:0.286893 11:-0.944226 12:0.103731 13:-1.474368 14:-0.612014 15:0.616035 16:0.878234 17:-1.557727 18:-0.282982 19:-1.040495 20:1.730230 21:-0.294710 22:1.661164 23:-0.212769 24:2.169150 25:1.495449 26:-1.025380 27:0.025095 28:-0.927941 29:0.682595 30:1.573120 31:-1.244134 32:0.014516 33:0.234122 34:-0.741226 35:0.080759 36:-0.519648 37:-0.391176 38:0.667732 39:-0.122274 40:0.502223 41:0.541926 42:-1.159856 43:-0.766660 44:-0.579497 45:0.282253 46:-0.197375 47:-1.855215 48:0.289883 49:1.193269 50:-0.221539 51:-0.295459 52:-0.713777 53:-1.345947 54:0.251502 55:0.525558
-1 1:-0.404338 2:0.653277 3:0.019276 4:-0.310765 5:0.280338 6:1.695201 7:0.108796 8:-1.927836 9:-0.842768 10:1.267606 11:-0.032122 12:0.804690 13:-1.809097 14:1.142809 15:0.838381 16:-0.251517 17:0.549056 18:0.679629 19:1.340919 20:-0.475313 21:1.625545 22:-1.611057 23:-0.765280 24:0.532831 25:-0.736564 26:-0.578193 27:0.803216 28:0.084627 29:-1.729025 30:1.285900 31:-0.239945 32:-0.154840 33:-0.450386 34:0.064547 35:-1.522800 36:-0.569856 37:-0.796614 38:1.886711 39:0.899341 40:-0.480050 41:1.181080 42:1.236793 43:-0.484273 44:0.995043 45:-1.559170 46:-0.470537 47:0.060854 48:0.185503 49:-1.254084 50:1.569951 51:0.054531 52:1.806909 53:1.301429 54:0.301013 55:1.977355
-1 1:1.347148 2:-0.600904 3:0.276841 4:0.795252 5:1.093167 6:-1.432235 7:1.593600 8:0.236385 9:-0.666984 10:-0.840407 11:-1.043851 12:-0.932870 13:-0.263145 14:-1.425655 15:-2.368151 16:1.858019 17:-1.054265 18:-1.709785 19:-1.024957 20:-0.370142 21:-1.585262 22:-0.626831 23:1.655506 24:-0.150194 25:0.896046 26:-1.269663 27:1.532707 28:-0.339706 29:-0.903548 30:-0.497298 31:2.659982 32:-0.330873 33:0.686506 34:0.293153 35:0.709010 36:0.432277 37:-0.596554 38:-0.580005 39:-0.231087 40:0.768043 41:-1.745399 42:0.412507 43:-0.848424 44:1.718960 45:-0.732045 46:0.205625 47:1.074146 48:0.549663 49:0.401385 50:0.188579 51:0.905989 52:0.489029 53:-0.884281 54:0.598022 55:0.595574
-1 1:-0.031504 2:2.543097 3:-0.132661 4:-0.459990 5:0.868220 6:-0.103451 7:0.332527 8:-0.654795 9:-1.237120 10:0.002838 11:-0.309800 12:-0.089454 13:-1.998686 14:0.238055 15:-0.843798 16:1.999325 17:0.476688 18:0.531283 19:0.312626 20:-0.136069 21:2.119928 22:1.193661 23:1.447501 24:-0.543264 25:-0.041172 26:1.437362 27:-1.557792 28:0.853521 29:1.013399 30:-1.983490 31:0.619874 32:1.383418 33:1.351022 34:0.003679 35:0.994527 36:1.067225 37:-1.027837 38:-0.989408 39:0.246404 40:-2.618863 41:-0.264126 42:0.343585 43:-0.816127 44:1.249643 45:1.909523 46:1.491510 47:0.510354 48:-0.183169 49:0.788014 50:0.709002 51:0.121818 52:1.079345 53:-0.209464 54:0.023579 55:0.639013
-1 1:-1.921603 2:-0.067425 3:0.627140 4:-1.780004 5:0.117124 6:-0.745591 7:-0.306391 8:0.373129 9:0.574979 10:-0.525017 11:-0.491319 12:0.712489 13:1.012939 14:2.806335 15:0.885696 16:-1.526120 17:-0.375487 18:1.467566 19:-0.414636 20:-0.110204 21:0.495227 22:0.583553 23:0.854680 24:1.963998 25:0.104812 26:-1.630386 27:-0.295824 28:-1.033634 29:0.990722 30:0.722408 31:2.101203 32:0.849951 33:-0.621322 34:0.875873 35:0.004927 36:0.595565 37:1.338603 38:-3.833583 39:-0.231785 40:0.087020 41:-0.789754 42:-0.036230 43:-0.817610 44:-1.902540 45:1.587496 46:1.813034 47:-1.131497 48:1.686991 49:0.353291 50:0.763741 51:0.681987 52:-0.363914 53:0.525536 54:-1.131306 55:1.350562
-1 1:-0.908970 2:-0.111113 3:1.052986 4:0.261746 5:-1.714581 6:0.902951 7:0.176136 8:1.315113 9:0.295089 10:-0.364820 11:1.631269 12:0.426035 13:-0.763279 14:-0.376308 15:-0.378294 16:-1.188551 17:0.062268 18:-0.843666 19:-0.310961 20:-1.029629 21:0.103388 22:-0.699994 23:-1.095501 24:0.296303 25:-1.524443 26:-1.678336 27:1.925574 28:-0.330265 29:-1.742501 30:-0.726407 31:-1.100401 32:1.270245 33:0.021589 34:1.068285 35:0.645992 36:-1.574096 37:0.899964 38:0.399406 39:0.076550 40:-0.868696 41:2.028192 42:-2.000517 43:0.109966 44:0.487609 45:0.316464 46:0.915974 47:-0.354338 48:0.174278 49:-0.879667 50:0.531712 51:-0.397283 52:2.929440 53:0.380993 54:0.283754 55:-1.202518
-1 1:0.634021 2:1.199358 3:-0.697485 4:-0.591778 5:2.064409 6:1.248042 7:0.441823 8:-0.851060 9:-0.629203 10:-0.713294 11:0.069972 12:1.090035 13:0.489185 14:-0.033755 15:0.615492 16:0.010103 17:1.735522 18:0.001986 19:-0.877234 20:0.442030 21:-0.920518 22:-0.851314 23:-0.889240 24:-0.197022 25:-0.182577 26:1.253740 27:-1.110444 28:-0.707042 29:-2.116867 30:-0.779626 31:0.464347 32:-0.843885 33:2.555568 34:0.102296 35:-0.196948 36:0.303446 37:1.570994 38:-0.185942 39:0.114382 40:-2.087110 41:-0.220971 42:-0.837122 43:1.019934 44:-0.490621 45:-0.202887 46:1.779852 47:0.918422 48:0.665137 49:0.090670 50:0.176898 51:-1.128800 52:0.443910 53:0.328483 54:-0.546840 55:0.155192
-1 1:1.958610 2:-0.410245 3:-0.256878 4:-0.230823 5:-0.238638 6:2.128012 7:0.620518 8:-2.809687 9:0.603089 10:-0.580771 11:-0.358800 12:-0.765757 13:0.748555 14:-0.723234 15:-1.422030 16:2.148240 17:-0.709766 18:0.427705 19:0.524949 20:0.803681 21:-0.867347 22:0.322174 23:-0.610607 24:-1.769339 25:-1.356819 26:0.990077 27:0.225807 28:-0.091439 29:-0.969546 30:0.314676 31:1.793349 32:0.140111 33:-1.151242 34:1.173469 35:-0.146016 36:-0.350330 37:0.180453 38:0.494821 39:1.157603 40:-0.603086 41:-0.875966 42:1.038683 43:0.885456 44:-0.890412 45:1.112991 46:-0.405452 47:1.356149 48:-1.290645 49:1.979559 50:0.628430 51:-1.664075 52:-0.351803 53:-0.786034 54:0.627875 55:0.043521
-1 1:0.086064 2:2.350606 3:0.137750 4:0.943692 5:0.318713 6:1.479345 7:0.874441 8:-0.544532 9:1.366204 10:1.459382 11:1.466507 12:1.353688 13:0.482528 14:-0.576809 15:0.316985 16:0.832124 17:-0.800310 18:-0.080429 19:-0.247198 20:-0.693144 21:0.796209 22:2.124649 23:1.511741 24:-1.353029 25:0.545978 26:0.470456 27:-0.660350 28:-0.151959 29:-0.403633 30:0.570378 31:0.764918 32:0.798681 33:0.995800 34:0.537443 35:-0.718852 36:-0.712650 37:-0.690405 38:-0.740032 39:-0.089945 40:-1.532859 41:0.391660 42:1.173636 43:1.122610 44:-0.077445 45:0.771464 46:-0.011445 47:-0.790548 48:-1.423019 49:1.128460 50:0.948739 51:0.801891 52:-0.072352 53:0.226154 54:1.292176 55:-1.046101
-1 1:-2.919090 2:0.767861 3:0.962797 4:0.111593 5:0.415257 6:-1.481369 7:0.759732 8:2.387795 9:0.599441 10:0.062971 11:0.683868 12:0.003332 13:0.744845 14:-1.319314 15:1.332358 16:0.230952 17:1.057492 18:-0.383797 19:-0.835066 20:-1.567126 21:-1.095777 22:0.609665 23:0.291197 24:0.093122 25:-0.253570 26:0.231483 27:0.232297 28:-1.313695 29:0.019048 30:-2.208205 31:0.159054 32:1.241531 33:0.273613 34:-0.022856 35:1.329014 36:-0.742451 37:0.656607 38:-0.597142 39:0.865133 40:0.353187 41:2.007211 42:-0.378619 43:-0.796672 44:0.249960 45:1.267925 46:-0.256990 47:2.004357 48:1.332233 49:1.010909 50:-0.532292 51:-1.259353 52:1.938505 53:-0.474337 54:-2.271215 55:0.526807
-1 1:0.852349 2:0.832153 3:-1.327989 4:1.107093 5:-0.344091 6:-0.512600 7:-0.206269 8:1.050523 9:-0.355625 10:1.472181 11:-3.347478 12:0.958276 13:-0.530483 14:-1.026314 15:2.844260 16:0.393077 17:-0.724381 18:1.347218 19:-0.902893 20:1.648660 21:0.411462 22:-0.422444 23:2.085157 24:-0.457760 25:2.226300 26:0.382048 27:-0.696449 28:-1.232852 29:-0.155207 30:-1.322034 31:0.946418 32:0.828064 33:-1.438423 34:0.081794 35:-0.759770 36:0.344996 37:-1.044356 38:2.780664 39:0.544275 40:0.390072 41:1.424370 42:-0.358049 43:-0.535141 44:1.248078 45:0.630784 46:0.167130 47:1.224348 48:1.171052 49:0.706920 50:0.971833 51:1.283839 52:0.596096 53:2.042508 54:1.766525 55:-0.346620
-1 1:-0.038561 2:-1.507030 3:-0.404909 4:-0.268464 5:0.854661 6:1.977199 7:0.560895 8:1.112986 9:-0.533578 10:0.443803 11:-1.220736 12:0.814584 13:0.205526 14:0.714476 15:-0.586564 16:0.428088 17:-1.435383 18:-1.161236 19:-0.839769 20:1.385074 21:-0.560077 22:-0.769789 23:-1.558421 24:0.950190 25:0.888727 26:-0.888703 27:0.061980 28:0.210947 29:-0.636770 30:1.271600 31:0.694956 32:0.757946 33:0.525543 34:-0.705044 35:-0.846138 36:0.406338 37:0.492821 38:-0.728032 39:-0.130506 40:1.043630 41:0.387471 42:-0.107944 43:-0.434666 44:-0.593744 45:-0.604534 46:1.573609 47:0.433366 48:-1.726367 49:-0.280489 50:0.292887 51:0.208987 52:-0.981231 53:1.647457 54:1.378117 55:0.878238
-1 1:-0.053760 2:1.125041 3:-1.569956 4:0.211171 5:-1.675640 6:-1.748771 7:2.204425 8:0.877198 9:-0.735776 10:0.463507 11:0.301421 12:0.335609 13:1.327017 14:0.187993 15:-0.330272 16:1.763287 17:1.708166 18:1.078639 19:0.675367 20:1.220205 21:0.726394 22:-1.783213 23:-1.466043 24:0.806208 25:-0.884864 26:-0.203866 27:1.161248 28:0.342827 29:-0.140165 30:0.773187 31:-0.016458 32:0.348808 33:0.579091 34:0.531502 35:-0.354494 36:0.953609 37:-0.846048 38:3.068051 39:-1.819266 40:-0.281591 41:0.775282 42:-0.283747 43:-0.829775 44:-1.449003 45:-0.473998 46:2.295626 47:-0.053356 48:0.759683 49:0.931981 50:-0.829435 51:-0.388499 52:-1.713088 53:-0.196067 54:-0.038484 55:2.145503
-1 1:1.266177 2:-1.368878 3:1.341328 4:0.088515 5:-2.135808 6:0.941596 7:1.568863 8:1.671941 9:-0.842727 10:0.446294 11:-0.500259 12:-0.774860 13:0.008224 14:0.960353 15:-1.317107 16:0.690300 17:0.508309 18:-1.478959 19:0.519467 20:-0.439407 21:1.686140 22:0.752991 23:-0.072548 24:-0.000727 25:0.840005 26:-0.250798 27:1.213417 28:-0.424413 29:1.040197 30:-0.213813 31:-0.777760 32:-1.563765 33:0.414524 34:-0.394400 35:-1.793748 36:0.402867 37:-0.436933 38:-0.025449 39:1.297092 40:1.491556 41:0.981623 42:-0.346258 43:-0.621777 44:-0.712610 45:-0.054130 46:1.256905 47:0.470554 48:-1.859219 49:0.869753 50:-0.167293 51:-0.291063 52:-1.311430 53:0.718879 54:2.039566 55:0.436247
-1 1:-0.457147 2:-0.131397 3:-0.033101 4:0.384356 5:0.985964 6:0.684456 7:-0.125936 8:-0.389526 9:-1.452090 10:-0.465906 11:1.047179 12:0.341221 13:0.856867 14:-0.556566 15:0.963559 16:-2.210369 17:-2.252652 18:0.442583 19:-1.576031 20:-0.591706 21:0.189209 22:0.119295 23:-1.432887 24:0.423664 25:0.093293 26:-0.420870 27:-0.199947 28:-0.987230 29:1.051835 30:0.977540 31:0.857133 32:0.033370 33:0.528429 34:0.024296 35:0.870405 36:0.118969 37:-1.428142 38:0.963536 39:-0.805927 40:1.330265 41:-0.940149 42:-0.388453 43:1.019515 44:1.370632 45:0.901824 46:-0.275568 47:0.318086 48:0.017315 49:-0.161337 50:-2.271983 51:1.045417 52:1.841496 53:-1.003351 54:-2.522185 55:-1.312619
-1 1:-0.177368 2:-0.375325 3:1.117395 4:0.107579 5:0.511665 6:1.357197 7:-0.686153 8:-0.785781 9:0.082131 10:-0.158583 11:-0.394328 12:-1.118848 13:0.650998 14:-0.953541 15:-0.659703 16:0.670662 17:-0.028310 18:-0.901936 19:-0.218732 20:-0.904963 21:0.213590 22:0.202187 23:-0.645959 24:-0.444595 25:-0.331785 26:-0.007388 27:-0.453887 28:-0.446455 29:-0.697638 30:0.552829 31:0.910119 32:0.178292 33:-0.379468 34:-1.386441 35:-0.713703 36:1.331560 37:-0.930786 38:-0.882650 39:0.182572 40:1.375446 41:-0.084832 42:-1.701416 43:0.005025 44:0.939870 45:-0.468184 46:1.787571 47:1.213077 48:-0.410256 49:2.107052 50:0.841645 51:-0.660459 52:-0.737537 53:-0.309041 54:2.004839 55:0.432158
-1 1:-0.947649 2:1.690881 3:-0.125338 4:2.827483 5:0.087055 6:2.382033 7:0.859811 8:-0.417093 9:1.705857 10:0.132239 11:-0.095691 12:1.685704 13:-0.684257 14:1.322442 15:-0.501975 16:-0.401172 17:0.269499 18:-1.450646 19:0.699414 20:3.616614 21:-1.177664 22:-0.898247 23:-0.199830 24:-0.662634 25:0.141946 26:-0.941963 27:1.046301 28:-0.976853 29:-0.901354 30:0.839619 31:-0.411499 32:0.014000 33:-2.705857 34:-1.256827 35:1.541275 36:1.625262 37:-1.289010 38:-0.169463 39:-0.209323 40:-1.974677 41:0.148850 42:0.324005 43:-0.518089 44:-0.116663 45:0.160936 46:0.668487 47:0.554351 48:-0.012406 49:0.707122 50:-0.882783 51:1.454610 52:0.169257 53:-0.747723 54:1.998004 55:0.415603
-1 1:-2.590379 2:0.681655 3:0.460131 4:-2.064619 5:-0.012612 6:-0.099369 7:-0.790384 8:1.321197 9:-0.180075 10:1.436552 11:0.239890 12:0.087515 13:-0.915671 14:-0.041160 15:-1.510106 16:-0.509794 17:1.130136 18:0.730702 19:-0.478980 20:0.215372 21:1.531147 22:1.469744 23:2.194824 24:0.742168 25:-2.010869 26:1.005906 27:-0.839932 28:0.388620 29:-0.572695 30:-0.312432 31:-0.197176 32:-1.099726 33:0.326581 34:0.576776 35:1.818782 36:1.657519 37:-1.733519 38:2.810203 39:0.077873 40:1.006451 41:-1.608775 42:1.657652 43:-0.057868 44:0.958659 45:1.568588 46:0.083301 47:-0.401411 48:-0.008936 49:0.477388 50:1.044154 51:0.332803 52:-1.531198 53:0.602647 54:0.542080 55:-0.209398
-1 1:1.934772 2:0.987269 3:-0.131390 4:-0.781467 5:0.827803 6:0.664838 7:-0.595472 8:0.281163 9:0.548691 10:2.178058 11:0.279761 12:-0.385486 13:1.919035 14:-0.666962 15:-1.371351 16:0.178583 17:-0.817038 18:-0.989122 19:1.187733 20:-2.291147 21:0.873344 22:-0.728550 23:0.760601 24:-0.766176 25:1.223358 26:-0.070485 27:0.613117 28:1.264196 29:1.165234 30:0.055236 31:0.536011 32:-1.548337 33:0.809366 34:1.349071 35:1.332130 36:0.947783 37:2.572096 38:0.663332 39:1.068302 40:-0.937950 41:-0.259102 42:-1.031566 43:0.428417 44:-0.716013 45:-1.170958 46:2.442335 47:-0.826102 48:-0.335600 49:0.248843 50:0.357790 51:-0.564460 52:-0.409344 53:-0.988420 54:-0.255984 55:1.483679
-1 1:0.720283 2:-0.463344 3:-1.879779 4:0.766156 5:-1.491335 6:0.127262 7:-1.932427 8:-0.067364 9:0.611397 10:-0.963719 11:0.220576 12:0.185312 13:-1.422390 14:-0.306875 15:0.899124 16:0.768626 17:0.426866 18:1.091795 19:-0.145177 20:0.770063 21:-0.519132 22:2.160212 23:-1.356119 24:1.438012 25:0.424991 26:0.436011 27:0.824823 28:-0.541800 29:0.009070 30:0.476185 31:-0.606306 32:-0.327869 33:-0.251525 34:-0.485449 35:0.372686 36:-1.544959 37:0.120742 38:1.543949 39:-0.081745 40:-0.602220 41:-1.476677 42:-0.927387 43:-1.495123 44:1.218060 45:2.196101 46:0.940609 47:-1.279321 48:-0.768524 49:0.770432 50:-0.853205 51:-0.987904 52:0.221969 53:-0.294317 54:0.250465 55:0.593094
-1 1:1.298685 2:-0.614929 3:1.132211 4:0.530435 5:-0.689961 6:-0.318669 7:0.737746 8:0.768816 9:1.111713 10:1.049984 11:1.127536 12:-3.188993 13:0.225672 14:0.049046 15:0.141714 16:0.472926 17:-0.195869 18:-0.812441 19:1.152861 20:-1.321578 21:-0.905397 22:0.785807 23:0.667225 24:-0.495037 25:1.538633 26:-0.230863 27:-0.947330 28:-0.113236 29:-2.464303 30:2.976111 31:-0.612211 32:-0.150225 33:1.276607 34:0.301701 35:1.122105 36:-1.107162 37:-1.453538 38:0.426220 39:0.177149 40:0.633649 41:-0.046372 42:-0.622440 43:0.612176 44:-0.568974 45:0.228675 46:-0.319524 47:1.263933 48:-0.469118 49:0.001513 50:0.611203 51:0.668099 52:-0.102994 53:1.333077 54:-0.443477 55:-2.151019
-1 1:-1.755523 2:-0.865094 3:-0.179310 4:0.866075 5:0.647536 6:0.525671 7:1.129505 8:0.330943 9:1.035325 10:1.047833 11:0.072010 12:-1.301863 13:-0.391895 14:-0.989685 15:0.296556 16:0.388186 17:-0.554689 18:-0.735761 19:0.089207 20:-1.300011 21:-0.220912 22:1.187906 23:1.003022 24:-0.981927 25:-0.484090 26:1.400155 27:-2.312657 28:-1.116654 29:1.290058 30:-0.593170 31:0.227272 32:-0.796680 33:0.520356 34:-0.332086 35:0.423469 36:-0.855935 37:0.248398 38:0.623406 39:-0.152149 40:-0.484493 41:-0.922787 42:0.046419 43:1.141261 44:-0.462293 45:-0.463211 46:0.017646 47:-0.817544 48:2.126491 49:-0.814662 50:-1.830856 51:-0.390061 52:-0.452888 53:1.644048 54:0.215149 55:0.093268
-1 1:1.567389 2:-0.408578 3:0.306887 4:-2.126444 5:1.707402 6:0.889330 7:0.934586 8:1.541369 9:0.255226 10:1.378340 11:0.084009 12:-0.155599 13:-0.067566 14:-1.250577 15:0.129880 16:-2.723729 17:0.459528 18:0.903593 19:0.617458 20:-1.560604 21:1.350988 22:1.518119 23:0.168566 24:0.015908 25:-1.288195 26:1.281232 27:-0.054062 28:-0.432196 29:-0.944566 30:-0.880903 31:0.671361 32:0.877539 33:0.330585 34:0.636854 35:1.847732 36:-0.462902 37:1.086199 38:1.614696 39:-1.106489 40:0.160218 41:-0.177267 42:0.701242 43:-0.777994 44:-0.383841 45:-0.039936 46:-2.044197 47:1.154513 48:-0.830297 49:0.031029 50:-0.408972 51:0.986581 52:-0.397735 53:-0.902804 54:1.201830 55:-0.397675
-1 1:-0.079090 2:-1.508257 3:1.787895 4:-0.373757 5:-0.162997 6:1.990207 7:-1.090016 8:-0.265637 9:0.923985 10:0.670271 11:-0.340741 12:0.650121 13:-1.294658 14:-1.109104 15:0.161831 16:-0.803123 17:-2.146381 18:0.612779 19:0.945248 20:-1.504476 21:0.387071 22:0.753770 23:-0.629045 24:0.074053 25:0.045286 26:-0.506776 27:-1.575177 28:-0.116574 29:-1.597185 30:0.456896 31:0.518899 32:-0.685507 33:-2.021277 34:-1.024687 35:1.243002 36:-0.618913 37:-0.520810 38:1.744602 39:-0.829602 40:0.220928 41:0.789552 42:-0.360201 43:-1.713346 44:0.146404 45:-2.375566 46:-0.322276 47:0.361953 48:-0.388971 49:0.060695 50:-0.039639 51:-0.504549 52:0.618514 53:0.248755 54:0.514166 55:-1.902087
-1 1:1.867649 2:1.240646 3:-0.133920 4:-1.143995 5:0.378563 6:-0.614059 7:0.716691 8:0.658162 9:-0.206505 10:0.474634 11:0.314869 12:0.743968 13:0.295523 14:1.736596 15:0.303015 16:1.115883 17:-0.362682 18:0.767364 19:0.547468 20:-0.299319 21:0.342878 22:0.064360 23:0.335563 24:1.375136 25:-1.619591 26:-1.433263 27:1.145658 28:0.628050 29:-1.319221 30:-0.140446 31:-2.332018 32:-2.703179 33:0.777719 34:1.777703 35:-1.004665 36:0.512203 37:-0.316931 38:-0.070750 39:1.695217 40:-0.302282 41:1.151850 42:0.874561 43:-0.325622 44:-2.752542 45:-0.508215 46:-0.910403 47:-1.390529 48:-0.453053 49:0.345043 50:0.170123 51:-0.668656 52:0.650197 53:-1.309944 54:-0.085080 55:0.090410
-1 1:-1.519526 2:-0.372773 3:0.544257 4:0.748416 5:0.222380 6:-0.472712 7:0.560209 8:1.179335 9:-0.782638 10:-1.177075 11:-0.717567 12:-0.426949 13:0.879414 14:-0.592712 15:0.608065 16:1.337464 17:-0.655034 18:-0.263270 19:0.874317 20:0.960598 21:-0.455747 22:-2.068224 23:-1.387879 24:0.391572 25:0.213439 26:-0.814273 27:-1.566959 28:2.216978 29:0.165893 30:1.969148 31:0.339688 32:-0.451800 33:1.007911 34:0.035611 35:0.929675 36:0.483499 37:0.063934 38:0.276614 39:0.382621 40:-0.670757 41:-0.241694 42:0.512339 43:1.051303 44:-1.092762 45:0.777348 46:-0.324212 47:0.046769 48:1.860550 49:0.801148 50:1.823528 51:-0.077347 52:1.717321 53:-0.360163 54:1.017105 55:-0.572040
-1 1:-0.137492 2:-1.161463 3:-1.466770 4:-1.561870 5:0.650920 6:-0.919602 7:0.899691 8:0.514832 9:0.089774 10:1.346261 11:-0.213553 12:1.105668 13:0.506414 14:-1.020145 15:-1.441342 16:1.468359 17:0.531809 18:0.077619 19:-0.808422 20:-0.708532 21:-0.586128 22:-0.800234 23:-0.389250 24:-1.298892 25:0.108611 26:1.544598 27:-0.674002 28:0.473511 29:1.578666 30:-0.010310 31:-0.044596 32:0.829114 33:0.099652 34:0.035385 35:-0.233280 36:0.865419 37:0.258195 38:0.791746 39:-0.551960 40:-0.235147 41:0.841794 42:-0.089969 43:1.086909 44:-0.392867 45:0.580137 46:-0.689028 47:1.719415 48:0.390613 49:-2.775494 50:-0.742814 51:-0.180475 52:-0.298274 53:-1.513899 54:1.370772 55:0.700004
-1 1:0.154562 2:-0.490558 3:-0.449770 4:1.194865 5:0.205181 6:-1.313646 7:-0.546401 8:-0.521007 9:1.337930 10:-1.158746 11:0.910412 12:0.759944 13:-0.241426 14:0.199806 15:-1.263555 16:-0.486555 17:-1.861876 18:-0.576514 19:-2.217261 20:-0.817298 21:-0.635628 22:1.318606 23:-1.457475 24:0.469015 25:-0.824724 26:1.133410 27:1.520166 28:-1.557830 29:-0.451955 30:0.370653 31:-0.967823 32:0.803602 33:0.701110 34:0.373991 35:0.935087 36:-0.430238 37:-0.028604 38:1.680195 39:0.493455 40:-0.596511 41:-1.472100 42:-0.809269 43:0.751051 44:0.353923 45:-0.162124 46:0.791798 47:0.339718 48:1.817220 49:-0.408390 50:0.118746 51:-0.942867 52:2.049859 53:0.937576 54:-0.429694 55:1.422705
-1 1:0.388490 2:-0.053506 3:-0.686404 4:0.888878 5:-0.002977 6:-0.008927 7:-0.614535 8:-0.251038 9:-0.517541 10:-2.280595 11:0.625157 12:-0.739816 13:0.439885 14:-0.646414 15:0.050470 16:-0.478191 17:-0.881278 18:0.760305 19:-0.778048 20:-0.292618 21:-0.228944 22:-1.164906 23:0.009991 24:0.926921 25:0.601457 26:-1.343821 27:-1.265053 28:0.491719 29:1.273481 30:2.210349 31:-2.442554 32:0.005427 33:-0.941774 34:0.856922 35:0.436014 36:0.387191 37:0.924869 38:0.768253 39:-1.802398 40:-0.277427 41:-0.164851 42:-0.474558 43:0.471125 44:-0.252600 45:-1.058757 46:0.776897 47:0.289895 48:2.481789 49:2.207408 50:0.783024 51:0.194610 52:-0.415805 53:-0.382661 54:1.721685 55:-0.974413
-1 1:-0.188774 2:1.018432 3:-0.570604 4:0.970312 5:0.336659 6:0.224734 7:-0.461671 8:-1.201633 9:-0.072123 10:-0.576566 11:-1.772892 12:0.001895 13:-0.617832 14:0.532284 15:-0.146311 16:0.703085 17:-0.234834 18:-0.612862 19:-0.578318 20:0.805142 21:-0.749571 22:0.024874 23:2.616443 24:1.715544 25:-0.822653 26:0.499452 27:-0.220332 28:-0.541112 29:0.743547 30:0.838542 31:0.262896 32:-0.085868 33:0.588397 34:-0.615657 35:0.096290 36:-1.543736 37:-1.248230 38:0.589547 39:-0.572787 40:-2.375188 41:0.415762 42:0.334404 43:0.112810 44:-1.595193 45:0.388019 46:0.538217 47:-0.790473 48:-1.377702 49:0.518623 50:-0.348544 51:1.287091 52:0.530438 53:0.859234 54:-1.526631 55:-0.615158
-1 1:1.297666 2:1.097344 3:-2.686502 4:-1.288555 5:0.842206 6:-1.033142 7:-0.103074 8:-1.492762 9:-1.161529 10:-0.007772 11:-0.478411 12:-1.996236 13:0.915973 14:0.088032 15:0.163755 16:-1.693431 17:0.797610 18:1.145752 19:2.042292 20:0.366723 21:-0.066628 22:0.075952 23:-0.493611 24:-0.491874 25:1.344581 26:-0.562809 27:-0.200166 28:0.062645 29:-0.646486 30:-1.526228 31:-1.312511 32:0.858823 33:0.466841 34:0.586002 35:-0.468578 36:0.626576 37:1.127089 38:-0.582255 39:2.833719 40:0.690898 41:2.039673 42:-1.225128 43:0.114599 44:-0.082413 45:0.432775 46:0.088494 47:-0.110353 48:3.384298 49:0.645093 50:0.518360 51:0.849116 52:-2.302329 53:-0.266479 54:0.363161 55:-1.905896
-1 1:-0.371235 2:0.840699 3:-0.758433 4:-1.120537 5:0.736030 6:1.132779 7:-0.836702 8:-1.173241 9:-0.850349 10:0.950784 11:0.197089 12:0.278349 13:-0.951596 14:0.160024 15:-0.828058 16:1.320168 17:-0.062890 18:-0.067972 19:-1.038188 20:-0.493778 21:-1.768037 22:0.162122 23:-0.337922 24:-0.911947 25:-0.362136 26:1.207886 27:1.256455 28:-0.437279 29:-0.006667 30:-1.107408 31:-1.507084 32:0.287690 33:-0.041095 34:0.222181 35:0.446949 36:-0.895710 37:0.477923 38:0.074538 39:0.209694 40:0.607703 41:0.767048 42:0.458146 43:1.597972 44:-1.063204 45:-0.774826 46:0.850007 47:0.275279 48:0.319821 49:0.244718 50:0.380152 51:0.785029 52:0.364181 53:2.146240 54:-0.067671 55:0.526902
-1 1:-0.380531 2:-1.380890 3:-0.724768 4:-0.275075 5:0.183406 6:0.147383 7:0.221978 8:-0.097037 9:-0.334433 10:-0.887193 11:-0.936849 12:1.723282 13:0.712903 14:-1.223383 15:-0.308788 16:0.580821 17:-0.673339 18:1.066824 19:0.929654 20:0.794575 21:-1.041663 22:0.678340 23:0.367291 24:0.676253 25:-0.753268 26:0.413126 27:1.387675 28:0.852942 29:1.038305 30:-0.950882 31:1.276046 32:-1.014150 33:-0.148371 34:0.018679 35:0.473912 36:-0.293698 37:-0.639793 38:-0.152143 39:-0.564590 40:0.158351 41:1.133091 42:-1.442339 43:0.230413 44:1.546361 45:-1.908875 46:-1.935906 47:0.822596 48:-1.831040 49:-0.419268 50:-2.217453 51:-2.654897 52:0.988168 53:1.228909 54:-0.550637 55:0.485284
-1 1:-0.249781 2:0.466499 3:-0.718659 4:-0.732832 5:0.940200 6:-0.793175 7:-0.072487 8:0.715729 9:1.926313 10:-2.237478 11:0.166596 12:-0.841916 13:-0.281840 14:-0.733999 15:-0.486477 16:0.258160 17:2.102306 18:-0.281389 19:-1.471026 20:-1.298412 21:-0.648402 22:2.226662 23:0.437212 24:-0.232279 25:-0.164145 26:-0.382543 27:0.212293 28:-0.750703 29:-1.072589 30:0.814781 31:-0.973477 32:-0.155516 33:0.423786 34:1.245971 35:2.749851 36:0.678480 37:-2.091713 38:1.166480 39:0.517524 40:-0.134220 41:-0.581491 42:0.190944 43:-0.521401 44:0.530754 45:0.781226 46:0.581493 47:0.180046 48:-0.762431 49:2.194104 50:0.486208 51:0.029073 52:-1.039253 53:-0.822498 54:1.262029 55:-0.285213
-1 1:-2.058089 2:0.891172 3:-0.767946 4:0.344436 5:0.589755 6:0.256178 7:0.896170 8:0.546126 9:-0.628855 10:-0.116194 11:-0.800805 12:-0.049500 13:1.483568 14:-0.477584 15:0.050992 16:-0.474985 17:-0.372997 18:0.815779 19:0.174427 20:1.062283 21:0.484896 22:-0.403268 23:-0.293061 24:-0.285420 25:-0.895907 26:-0.635774 27:-0.069782 28:0.911960 29:1.273996 30:0.297912 31:1.152661 32:-1.036821 33:-0.643180 34:-0.318626 35:-0.756159 36:-0.893235 37:-1.683478 38:0.953327 39:0.414290 40:0.164643 41:-0.169923 42:-1.013192 43:0.608037 44:0.111155 45:0.666663 46:0.295467 47:0.501478 48:-0.240881 49:-0.584143 50:0.263228 51:0.626647 52:0.066926 53:1.318134 54:0.715064 55:1.636689
-1 1:0.952092 2:1.042518 3:0.658333 4:-0.081249 5:-0.226536 6:-0.688340 7:-0.495196 8:-0.515011 9:-1.717050 10:-2.311800 11:-2.216708 12:0.353731 13:0.435209 14:0.828633 15:-1.568507 16:-2.449500 17:-0.404395 18:0.147340 19:0.250447 20:-0.052375 21:1.528613 22:-1.579255 23:-0.535514 24:2.892168 25:-0.319876 26:1.105996 27:0.255294 28:0.573688 29:-0.495849 30:-1.297677 31:0.485997 32:0.298357 33:0.885111 34:-0.504835 35:-0.334857 36:-0.451816 37:0.599749 38:1.046559 39:0.126572 40:0.315979 41:-0.069548 42:-0.080385 43:2.932139 44:-0.133120 45:0.083162 46:0.256686 47:-0.974086 48:-0.852138 49:-0.525819 50:-0.269977 51:-1.671355 52:-0.515316 53:0.660649 54:-0.654825 55:-0.444569
-1 1:-1.858262 2:-0.631306 3:0.225527 4:1.189463 5:-0.405805 6:-0.092889 7:-0.121900 8:2.170879 9:-2.389409 10:-0.042793 11:2.111069 12:-0.199236 13:-0.079804 14:0.897972 15:-0.365801 16:0.333815 17:0.297099 18:0.007663 19:-0.184985 20:1.632154 21:-0.714034 22:-1.944488 23:0.979204 24:-1.374491 25:1.812877 26:0.320519 27:0.178378 28:-0.276947 29:-1.052569 30:0.285609 31:-0.408462 32:-0.722392 33:-1.218108 34:1.650024 35:-0.229265 36:-0.158031 37:0.357335 38:1.666261 39:1.929042 40:1.085298 41:-1.317062 42:0.153165 43:-0.005741 44:-1.123548 45:-1.785836 46:-1.546845 47:-0.327389 48:1.429218 49:-0.282157 50:-0.038550 51:-0.928053 52:0.525067 53:0.367120 54:0.234316 55:0.564908
-1 1:-0.137102 2:-0.279909 3:0.542782 4:0.327106 5:0.818852 6:0.808816 7:-0.117983 8:-1.369728 9:1.133387 10:1.770228 11:3.094295 12:-0.370686 13:0.412954 14:0.812205 15:-0.080102 16:0.582923 17:-0.796928 18:-0.743486 19:-2.617896 20:-0.161417 21:1.008749 22:-1.633617 23:-0.320654 24:-1.814451 25:-0.416299 26:-0.116954 27:0.639924 28:1.165264 29:0.471117 30:-0.025538 31:1.706155 32:0.565401 33:2.391994 34:1.358897 35:1.433476 36:1.485637 37:-1.560141 38:-1.209223 39:1.326523 40:1.572157 41:-0.042317 42:0.702454 43:0.930335 44:0.812942 45:-0.849284 46:-0.299006 47:0.091333 48:0.784086 49:1.043757 50:1.712127 51:-0.482760 52:-0.424994 53:1.167210 54:0.894485 55:0.860190
-1 1:-0.923723 2:1.025579 3:0.845623 4:-1.195553 5:1.598581 6:0.933127 7:0.794619 8:1.072837 9:-0.117536 10:1.502149 11:-1.210122 12:0.290349 13:0.616947 14:-0.688242 15:-0.972542 16:0.464109 17:1.020028 18:1.026763 19:0.233992 20:0.224774 21:1.849891 22:0.813194 23:0.081662 24:-0.370435 25:-0.548820 26:0.020065 27:-0.206789 28:-0.339475 29:0.623427 30:1.661623 31:0.462282 32:1.664707 33:-0.590914 34:0.754401 35:-0.328430 36:-0.030745 37:2.319458 38:-0.861027 39:0.532376 40:0.349394 41:-0.886780 42:1.014460 43:-1.488537 44:-1.776094 45:0.990791 46:-2.174557 47:-1.187611 48:0.586973 49:-0.658182 50:0.153785 51:-0.910157 52:0.855103 53:-0.462898 54:-1.563938 55:-1.069771
-1 1:-1.193223 2:1.984485 3:-1.348706 4:0.814710 5:2.680630 6:-0.724425 7:0.327040 8:-1.604902 9:-1.259184 10:0.980965 11:-1.256251 12:0.190244 13:-1.517656 14:-0.092331 15:-0.598394 16:-1.511697 17:0.979733 18:-1.840672 19:-1.737666 20:0.396745 21:-0.062959 22:-2.573007 23:0.804161 24:-1.279533 25:-0.409060 26:0.683008 27:-1.637453 28:0.090620 29:-0.189997 30:0.471539 31:0.274673 32:1.030408 33:0.370505 34:-1.199920 35:-0.458776 36:0.450006 37:0.915387 38:-1.207085 39:0.002864 40:-1.597998 41:0.463211 42:-0.098498 43:0.671094 44:-3.096461 45:0.450040 46:-0.033421 47:0.160728 48:0.184730 49:-0.199076 50:-0.102993 51:1.003584 52:-0.205969 53:1.136127 54:-1.492375 55:-0.029180
-1 1:0.035064 2:-0.841301 3:0.039196 4:0.735613 5:2.370240 6:0.783225 7:-1.898522 8:-0.736509 9:-0.908922 10:2.520554 11:0.053182 12:-0.280561 13:-1.022361 14:-0.221472 15:-0.164377 16:-0.320850 17:-0.912994 18:1.072798 19:-0.810073 20:1.124647 21:-0.278907 22:-0.629548 23:0.792962 24:-1.705921 25:-2.395601 26:-1.211198 27:0.640010 28:0.371957 29:1.975667 30:0.216035 31:-0.539056 32:-1.422489 33:0.217195 34:-0.952341 35:-0.597770 36:1.232859 37:-0.778215 38:-1.158258 39:1.332049 40:0.311402 41:-0.083634 42:0.280243 43:2.327423 44:-0.239935 45:0.306372 46:2.636007 47:-0.020009 48:-1.625200 49:-0.377972 50:-1.305545 51:-0.251027 52:-1.532972 53:0.200722 54:1.376573 55:-1.063598
-1 1:0.605983 2:-0.435595 3:-1.796973 4:0.420091 5:-0.366390 6:1.499973 7:0.321443 8:0.898998 9:2.016850 10:0.484980 11:0.592891 12:-0.232660 13:0.788881 14:0.916087 15:0.666207 16:-0.872119 17:-0.080306 18:1.829713 19:-0.806482 20:0.734360 21:0.839724 22:-1.210020 23:0.540942 24:-3.135883 25:0.192398 26:0.774380 27:-2.071293 28:0.375222 29:-2.068692 30:0.187297 31:-0.631469 32:0.592264 33:-0.928819 34:0.253338 35:0.635393 36:-0.843832 37:0.220540 38:-1.153953 39:-0.098902 40:-0.947734 41:0.746853 42:-0.485440 43:1.046826 44:-0.785730 45:0.014538 46:-0.233899 47:1.227519 48:0.675444 49:-0.738499 50:-2.512437 51:1.345027 52:-0.239143 53:0.359610 54:-0.322637 55:0.076858
-1 1:2.001744 2:-1.753150 3:-0.553528 4:0.944044 5:0.879063 6:0.452927 7:0.782740 8:-0.093484 9:-0.015142 10:-0.483848 11:-0.472975 12:1.327043 13:0.797146 14:-0.087492 15:-0.530374 16:0.166386 17:-0.359666 18:-0.145210 19:0.917761 20:-0.683081 21:-0.723526 22:0.516469 23:-0.346598 24:-1.158120 25:-0.333061 26:-1.262436 27:0.788353 28:-0.444717 29:-0.375313 30:0.221620 31:1.413138 32:1.440495 33:1.521680 34:0.830495 35:-0.596008 36:0.378184 37:-1.934512 38:0.665825 39:-0.415580 40:0.170602 41:0.461082 42:-0.432464 43:0.588813 44:1.190113 45:-1.249268 46:0.757867 47:1.432274 48:-1.036652 49:0.994386 50:-1.094882 51:-0.369771 52:-0.116266 53:0.545952 54:-0.001587 55:1.162895
-1 1:-0.930481 2:-0.799705 3:-0.236947 4:-0.877606 5:2.547542 6:0.103669 7:-1.061468 8:2.595365 9:0.170081 10:1.251507 11:-0.012252 12:-0.208825 13:0.878811 14:-0.244890 15:-0.359749 16:-0.144573 17:-0.453206 18:-2.254509 19:0.825595 20:-0.582071 21:-0.241824 22:1.580188 23:0.791190 24:-0.581238 25:-0.766036 26:1.145844 27:1.716816 28:-0.360897 29:1.352894 30:-0.028332 31:0.136075 32:-1.247924 33:-1.368331 34:1.102025 35:0.330273 36:0.384133 37:0.611035 38:1.169050 39:1.029414 40:0.101522 41:-0.797507 42:0.168815 43:0.134057 44:1.024466 45:0.077820 46:-1.403833 47:0.998540 48:0.872230 49:0.170079 50:1.286620 51:1.082678 52:-0.327878 53:0.767987 54:0.153811 55:0.441953
-1 1:-0.388177 2:-1.155189 3:0.014644 4:-0.195975 5:-0.385453 6:-1.514746 7:1.282878 8:0.877773 9:-0.185340 10:-1.145511 11:-0.394349 12:2.328440 13:2.471383 14:-0.872074 15:-1.350067 16:1.098287 17:-0.616141 18:0.705130 19:1.373160 20:1.514443 21:1.776430 22:1.816116 23:0.082352 24:-0.287912 25:1.763110 26:-0.623869 27:-1.589966 28:-0.058840 29:-0.247521 30:-2.138064 31:-0.817418 32:0.651815 33:1.122000 34:0.163890 35:-0.180454 36:-1.167810 37:-0.303812 38:-0.825603 39:-0.799104 40:0.167964 41:-0.001369 42:-1.882151 43:-1.374581 44:1.103785 45:0.528324 46:0.013873 47:0.212912 48:-0.054324 49:-1.665298 50:0.741934 51:-1.673725 52:-0.806124 53:0.313554 54:0.117058 55:-0.814566
-1 1:-0.154440 2:2.711399 3:-0.991232 4:-1.024800 5:-1.742839 6:-1.128341 7:-0.411095 8:-0.446009 9:-0.287338 10:-1.005466 11:-0.288307 12:-1.215971 13:-0.372091 14:-0.825592 15:-0.029308 16:0.505026 17:0.209172 18:0.968339 19:-1.068837 20:0.844552 21:0.910346 22:-0.407038 23:-1.246242 24:-0.010403 25:-0.725635 26:-1.429842 27:0.940871 28:1.611818 29:1.732392 30:0.298850 31:2.039372 32:1.344508 33:0.241777 34:-0.980719 35:1.803852 36:-0.343901 37:0.407492 38:-0.566822 39:-2.173758 40:-0.048432 41:0.137102 42:-0.835427 43:0.834455 44:0.353428 45:2.199515 46:-1.057270 47:-0.929955 48:0.222939 49:-2.107848 50:-0.803206 51:-1.489195 52:-0.184992 53:-0.975160 54:-0.452756 55:1.100545
-1 1:0.243967 2:0.249346 3:0.789168 4:0.810715 5:-0.346395 6:-1.153978 7:0.498394 8:-0.614911 9:-0.309323 10:-0.882973 11:-1.816960 12:0.612988 13:0.214759 14:-0.699564 15:0.762819 16:1.273842 17:-1.247201 18:1.903077 19:0.952491 20:-0.443680 21:0.675878 22:-0.212821 23:0.102630 24:0.086566 25:-0.676934 26:1.459714 27:-0.089832 28:-0.429215 29:1.403667 30:-2.042232 31:-0.643389 32:0.039015 33:0.545534 34:0.793809 35:-1.370692 36:-0.202190 37:-1.086662 38:1.425114 39:-0.124893 40:0.137537 41:0.031417 42:-0.878405 43:-1.208395 44:-0.203962 45:-0.237376 46:1.748950 47:0.725110 48:0.069580 49:0.503690 50:-1.840190 51:1.309430 52:-0.327616 53:1.102591 54:-1.086539 55:-0.111487
-1 1:0.759050 2:-1.363451 3:1.202193 4:-0.916877 5:-0.323244 6:-0.901151 7:0.631662 8:-1.484146 9:1.442157 10:-2.672186 11:-0.547517 12:1.658005 13:1.323649 14:1.393201 15:0.257960 16:-0.908113 17:0.195347 18:-0.551474 19:-0.165646 20:-1.672051 21:-1.120926 22:-0.754612 23:-1.735288 24:-0.682609 25:-0.811819 26:-0.214373 27:0.257630 28:1.659505 29:2.134130 30:-1.849137 31:-0.661637 32:-0.037729 33:0.443844 34:-0.921379 35:0.667772 36:0.844635 37:-0.020806 38:0.586177 39:-0.673205 40:0.076104 41:-0.030517 42:-1.148858 43:0.156729 44:-0.720937 45:0.639365 46:0.234363 47:-1.065622 48:1.506308 49:-0.531301 50:0.182470 51:0.073083 52:-0.453065 53:-0.328143 54:2.084912 55:0.650644
-1 1:-0.159974 2:-1.234054 3:1.338490 4:0.668547 5:1.265506 6:0.339854 7:-0.167402 8:-1.106582 9:-0.488585 10:0.242707 11:1.131696 12:-0.265465 13:-0.887491 14:-1.257434 15:0.655069 16:-0.592825 17:0.278471 18:-1.285739 19:-0.474373 20:0.582678 21:1.579086 22:-1.463272 23:-0.396337 24:-0.619376 25:-1.183612 26:-0.077283 27:-0.323275 28:1.992152 29:0.512754 30:-1.299515 31:0.201010 32:1.344092 33:0.324962 34:-0.618936 35:1.268879 36:-1.677999 37:-0.736261 38:1.528824 39:-0.622266 40:-0.097431 41:-0.438472 42:0.223602 43:1.315067 44:1.629995 45:0.142016 46:1.391443 47:-0.396508 48:-0.975349 49:-1.016611 50:-1.025529 51:0.677746 52:1.271499 53:0.554391 54:-0.372029 55:0.285243
-1 1:1.181324 2:-0.571063 3:-1.509450 4:0.826428 5:-0.381778 6:-0.337172 7:0.208224 8:1.666227 9:-1.182809 10:0.310010 11:-0.923935 12:0.193323 13:0.245096 14:0.554716 15:0.153036 16:1.010800 17:-0.711499 18:0.218895 19:2.035126 20:-0.019005 21:0.148205 22:0.030758 23:-0.017161 24:-1.156166 25:0.867559 26:-0.176806 27:1.129235 28:0.981467 29:-0.746808 30:-0.409428 31:1.894637 32:0.699838 33:-1.160935 34:-1.324560 35:1.257826 36:-0.031311 37:0.231027 38:0.489630 39:-0.963610 40:1.534751 41:-0.462910 42:-0.093256 43:-1.045919 44:-0.603783 45:2.100781 46:2.648356 47:-0.460022 48:1.283679 49:-1.523934 50:1.033713 51:1.195221 52:0.213316 53:-0.809015 54:-0.707915 55:-0.432453
-1 1:2.405049 2:1.395250 3:0.330778 4:-0.947762 5:-0.868426 6:0.264395 7:0.646385 8:1.061563 9:-0.106194 10:-0.340036 11:1.129582 12:-0.069702 13:0.059445 14:-0.574289 15:-0.044748 16:0.223178 17:-1.888072 18:1.015277 19:-0.480215 20:-0.241826 21:-0.626757 22:-0.385534 23:0.155219 24:0.490205 25:-0.039210 26:-0.643248 27:-2.143469 28:-1.171081 29:0.008418 30:-1.334143 31:0.470560 32:1.083882 33:0.529118 34:1.489623 35:-0.015452 36:-1.097393 37:-1.158055 38:-0.486404 39:-1.261808 40:-1.912319 41:1.340490 42:1.697559 43:2.147433 44:-0.584490 45:-3.033522 46:-0.102708 47:0.315987 48:-1.274374 49:2.367833 50:-0.776533 51:0.804263 52:1.367509 53:0.173423 54:0.587387 55:-0.414930
-1 1:-1.036859 2:0.567305 3:0.006564 4:1.361418 5:1.251965 6:0.539272 7:1.230396 8:0.648794 9:0.908281 10:-0.367825 11:0.492728 12:0.313438 13:-0.586144 14:1.472683 15:0.897324 16:-0.257611 17:1.019555 18:-0.752268 19:-1.660295 20:0.217588 21:0.662221 22:2.380019 23:-0.527876 24:-2.065583 25:0.161087 26:1.259920 27:0.148048 28:1.360601 29:-1.027387 30:0.082466 31:-0.907311 32:0.266106 33:-1.182709 34:0.465497 35:-0.932157 36:-0.946896 37:-0.210731 38:1.285769 39:1.603295 40:-1.320566 41:1.125096 42:-0.210041 43:0.653636 44:-0.832501 45:1.135145 46:1.299079 47:-0.743445 48:1.262601 49:-0.130058 50:-3.035598 51:0.294293 52:0.459864 53:-3.014530 54:2.090265 55:-0.475767
-1 1:1.715005 2:1.039547 3:-0.108334 4:-0.055995 5:1.511791 6:0.768827 7:1.727912 8:0.906233 9:-1.699145 10:-0.441938 11:-1.496943 12:0.447329 13:1.028567 14:0.557196 15:-0.803904 16:0.334539 17:0.872311 18:0.552574 19:-0.139137 20:-0.955848 21:-0.218929 22:1.256515 23:1.875110 24:-0.312969 25:1.617261 26:-0.290018 27:0.020676 28:-0.757656 29:0.128433 30:-0.487330 31:0.540730 32:0.069062 33:0.227137 34:0.791816 35:-0.354699 36:-1.735200 37:-1.021793 38:-0.742509 39:-1.261948 40:0.712348 41:0.379835 42:1.171887 43:0.107189 44:-0.695644 45:1.285976 46:-0.205392 47:0.697117 48:-0.004943 49:0.197640 50:0.702617 51:0.984970 52:-1.990732 53:-0.715721 54:1.374017 55:-1.951144
-1 1:0.139155 2:1.426185 3:0.073434 4:0.656563 5:0.421354 6:-0.564837 7:-1.386248 8:-0.982212 9:-0.137089 10:-0.597030 11:-2.290143 12:0.807642 13:0.516135 14:1.406231 15:0.966000 16:-1.610919 17:-0.238528 18:1.609624 19:0.394922 20:-1.196384 21:0.204793 22:1.000871 23:0.349028 24:0.289185 25:0.065993 26:-0.760291 27:-0.411761 28:-0.241188 29:-0.987234 30:0.722516 31:0.966836 32:0.672108 33:0.792113 34:1.186137 35:-2.572642 36:-2.235231 37:-0.599724 38:-0.809954 39:0.491081 40:-1.185734 41:-0.731079 42:1.053644 43:-0.164342 44:-1.183096 45:-0.274778 46:-2.208952 47:0.469205 48:-0.650105 49:-1.769162 50:-1.298630 51:0.667263 52:-1.450553 53:0.416327 54:0.127398 55:-0.190124
-1 1:1.384060 2:-2.328452 3:0.851112 4:-1.090209 5:0.458054 6:-0.065170 7:0.348812 8:-1.826493 9:1.419429 10:0.595803 11:0.108036 12:1.774436 13:0.133753 14:-0.766469 15:0.379636 16:2.074097 17:0.164622 18:-0.081849 19:1.398242 20:-0.256581 21:-3.043600 22:-1.202616 23:0.432668 24:-1.590479 25:1.288567 26:-0.931267 27:-0.343760 28:0.696295 29:0.395058 30:1.063456 31:-0.018555 32:0.178962 33:-0.470689 34:-0.356171 35:-0.816564 36:-1.317505 37:1.369732 38:0.353836 39:-0.691826 40:0.316136 41:-1.449789 42:1.394508 43:0.841015 44:-0.579740 45:-0.909415 46:0.416934 47:-0.448988 48:0.858726 49:1.366900 50:0.665860 51:0.905524 52:0.436542 53:0.657672 54:-0.573403 55:-0.039389
-1 1:0.462482 2:0.994504 3:-1.582546 4:-1.205677 5:0.907808 6:0.996458 7:-0.627448 8:0.236395 9:0.654604 10:-0.610032 11:0.679258 12:-0.213537 13:0.877730 14:0.757157 15:-0.613704 16:-0.620508 17:0.789578 18:-2.407458 19:-0.576673 20:0.329154 21:0.981678 22:-1.599761 23:-0.769854 24:0.108242 25:0.465142 26:1.212955 27:-2.406443 28:0.179256 29:0.285685 30:0.968592 31:1.152250 32:1.582285 33:0.191385 34:-0.802080 35:-0.272826 36:-0.707780 37:0.684950 38:0.396460 39:0.623949 40:0.095152 41:2.646656 42:-1.307302 43:1.052903 44:0.598702 45:-0.539657 46:0.154490 47:-0.045884 48:-0.495201 49:0.118999 50:-0.781729 51:0.384042 52:-0.119372 53:-1.141129 54:-0.537273 55:-0.231302
-1 1:-0.756214 2:-1.797872 3:1.248923 4:0.754403 5:0.219191 6:0.947948 7:-0.117477 8:-0.378447 9:-0.375069 10:-0.981165 11:-1.043651 12:-0.658223 13:-0.190119 14:1.919859 15:0.060100 16:1.151045 17:-2.390178 18:0.901438 19:1.088304 20:0.732587 21:0.232928 22:1.723694 23:1.132166 24:0.701296 25:0.315330 26:0.459442 27:-0.349257 28:0.861998 29:1.208720 30:-0.272321 31:-0.525358 32:-1.013101 33:-0.258799 34:1.737265 35:0.125738 36:-0.997717 37:-0.568954 38:1.162743 39:0.331514 40:-0.547443 41:1.115230 42:-0.096833 43:0.556219 44:1.291789 45:1.268619 46:-0.774166 47:1.073013 48:-0.543111 49:-0.432849 50:0.741859 51:2.839654 52:0.825979 53:1.885734 54:-1.056784 55:0.096747
-1 1:1.096942 2:-1.285219 3:1.658718 4:-1.134840 5:0.973588 6:0.079625 7:-0.361281 8:-0.753172 9:-0.006596 10:1.027926 11:-0.836771 12:1.797738 13:-0.212229 14:-0.215460 15:-0.697472 16:2.484622 17:0.040071 18:-0.602236 19:0.105115 20:0.312626 21:-0.927926 22:-0.000713 23:0.492862 24:-0.484258 25:-0.227835 26:1.807306 27:-0.242529 28:-0.432349 29:2.472549 30:0.168018 31:0.534634 32:0.079543 33:-0.276059 34:-0.856098 35:-0.054362 36:-0.536770 37:1.896659 38:-0.525984 39:0.262705 40:0.255407 41:-1.243503 42:-0.840733 43:1.484492 44:0.000787 45:-1.390392 46:1.261110 47:1.126583 48:0.261866 49:0.078886 50:-0.300857 51:-1.138300 52:-0.197279 53:-0.891322 54:1.876362 55:-0.131653
-1 1:-1.405781 2:0.834067 3:0.369598 4:-0.679173 5:0.388659 6:-2.705189 7:-1.110180 8:-0.209141 9:2.467412 10:1.121764 11:-0.770352 12:1.099201 13:0.232185 14:0.005209 15:-0.178838 16:-0.108500 17:-1.231092 18:0.730235 19:-0.221392 20:1.395778 21:1.196491 22:1.017307 23:1.310969 24:-1.370358 25:-1.487544 26:1.487217 27:2.238572 28:-0.368109 29:-0.597064 30:-0.858743 31:-1.003325 32:0.156916 33:0.355860 34:-0.315222 35:1.030707 36:0.386085 37:-0.992717 38:1.738283 39:1.509176 40:-0.205813 41:-0.700261 42:0.362289 43:-0.001605 44:-1.926020 45:-0.480785 46:-1.022452 47:0.763364 48:-1.876147 49:2.752762 50:-0.647967 51:-0.580475 52:-0.115426 53:-1.953682 54:-0.353762 55:-0.799484
-1 1:-0.760428 2:-0.270569 3:1.160225 4:1.034329 5:-0.595391 6:0.643381 7:-0.802763 8:-0.777434 9:0.088508 10:-1.859308 11:0.777107 12:-0.554327 13:0.632301 14:-0.628439 15:1.350913 16:-0.832639 17:-1.436722 18:-0.370491 19:-2.203957 20:1.653089 21:0.502671 22:1.621295 23:0.952480 24:-0.101453 25:-0.147244 26:-0.283214 27:-0.866837 28:-0.876355 29:-0.942515 30:0.370764 31:-0.416042 32:2.027397 33:-0.442448 34:-0.475444 35:-0.799948 36:0.671789 37:1.692884 38:0.839369 39:1.056792 40:-0.115444 41:1.331747 42:-1.422060 43:-0.202784 44:1.091684 45:-1.162196 46:0.618631 47:2.213524 48:1.829972 49:2.877733 50:-0.315769 51:1.216189 52:-1.154069 53:-0.677775 54:-0.105080 55:-0.658581
-1 1:0.321472 2:0.686539 3:-1.134046 4:-1.766514 5:0.699218 6:0.929157 7:-1.118163 8:0.233854 9:0.557456 10:-1.018208 11:-0.394031 12:-0.178013 13:1.950420 14:-0.238231 15:1.432227 16:-0.230005 17:0.155577 18:-0.916963 19:0.510026 20:0.741712 21:-1.923225 22:-0.559009 23:-1.463333 24:-0.659567 25:0.815887 26:-0.786094 27:-0.614322 28:0.392998 29:-0.087115 30:0.466388 31:-0.153619 32:-0.801096 33:0.455778 34:-0.079801 35:0.574836 36:0.738402 37:-0.749222 38:1.128370 39:-0.070765 40:-0.263770 41:-1.068622 42:-0.440374 43:-0.501867 44:1.613747 45:-0.709855 46:0.819542 47:0.074182 48:-0.462004 49:-1.560666 50:-1.112943 51:0.612164 52:-0.620432 53:1.499298 54:-1.054583 55:0.006906
-1 1:1.372151 2:0.826412 3:-0.245244 4:-0.328723 5:-1.214254 6:1.519564 7:0.109552 8:1.615029 9:0.631792 10:-0.200559 11:-0.695946 12:0.724545 13:-0.330780 14:-0.361533 15:0.939138 16:-0.851290 17:0.838423 18:0.633237 19:-1.209205 20:-0.974835 21:-0.515503 22:1.138763 23:0.935366 24:0.096194 25:0.119167 26:-0.984243 27:0.050929 28:1.077968 29:-0.212038 30:-0.028891 31:0.119710 32:1.123975 33:-0.594869 34:-1.418428 35:-0.327841 36:-0.914898 37:-2.766487 38:1.882486 39:-0.532921 40:-0.560361 41:-1.257533 42:-0.147204 43:-0.205778 44:-0.670805 45:-1.471507 46:-0.175898 47:0.124669 48:-1.157462 49:-0.127307 50:0.022182 51:0.569574 52:-1.519048 53:0.884531 54:0.427247 55:-0.726697
-1 1:-0.009190 2:0.185203 3:0.553878 4:0.154088 5:-0.189976 6:0.719507 7:0.162556 8:0.899762 9:2.031508 10:-1.504747 11:0.250915 12:1.789611 13:-0.906062 14:-0.853215 15:-0.633610 16:0.044186 17:-0.864611 18:1.135803 19:-1.123373 20:-0.129406 21:0.849659 22:0.583518 23:-0.832971 24:-0.730776 25:0.139671 26:0.889943 27:1.352574 28:0.562128 29:0.583895 30:-1.436313 31:0.816517 32:0.966904 33:0.792050 34:-0.291480 35:-1.001957 36:1.485343 37:0.207470 38:0.927325 39:-0.428259 40:0.730626 41:-0.432798 42:-0.336982 43:-0.813011 44:-0.061704 45:0.959635 46:-0.930480 47:2.237020 48:0.535847 49:-0.995561 50:1.053629 51:-1.863915 52:2.420928 53:-0.603157 54:0.261104 55:0.069369
-1 1:-0.636572 2:0.556649 3:0.959458 4:0.471223 5:0.022236 6:0.412952 7:-0.992805 8:0.319192 9:0.100287 10:1.092987 11:-0.279853 12:1.055406 13:-1.172547 14:2.309854 15:0.928970 16:0.196389 17:2.203878 18:0.258501 19:-0.713555 20:0.544230 21:0.283652 22:0.834396 23:0.157641 24:-0.590975 25:0.689167 26:0.271933 27:0.629441 28:-0.084316 29:1.453071 30:-0.707317 31:-0.874437 32:0.243161 33:-0.631556 34:-0.760282 35:1.315546 36:0.488213 37:1.845245 38:0.929606 39:-0.833156 40:0.894678 41:-0.264990 42:0.828791 43:-0.994267 44:0.911284 45:0.304637 46:-0.657825 47:0.645235 48:0.643688 49:1.617866 50:-0.416383 51:1.412358 52:0.540203 53:-0.600036 54:0.504855 55:-0.160154
-1 1:0.074801 2:0.510654 3:-1.167258 4:3.013168 5:1.566493 6:-0.497376 7:0.990921 8:-0.167773 9:0.754089 10:0.419696 11:1.215938 12:-0.066365 13:1.652575 14:-0.773931 15:-0.924967 16:-0.809172 17:0.965784 18:-0.131429 19:0.123124 20:0.955783 21:1.451274 22:1.096759 23:1.028590 24:-0.262887 25:-2.473699 26:-0.561652 27:0.211740 28:-0.602467 29:-1.207000 30:-0.283492 31:0.243719 32:1.658979 33:-1.409995 34:0.266141 35:0.038982 36:-0.130238 37:-0.798542 38:1.107534 39:-1.237212 40:-1.350124 41:-0.465124 42:1.076505 43:-0.201971 44:0.108100 45:0.126215 46:-0.363000 47:1.640416 48:-1.170256 49:-0.347939 50:-1.405430 51:-0.099131 52:0.718229 53:-0.078929 54:1.344935 55:0.321813
-1 1:-0.284318 2:-0.163871 3:1.544619 4:1.417072 5:-0.701731 6:-0.520322 7:0.450688 8:-1.107135 9:0.516767 10:0.941267 11:-0.892730 12:0.473291 13:-0.868647 14:0.845835 15:0.256394 16:-0.998956 17:-1.636512 18:-0.119396 19:-2.337536 20:-0.816498 21:-0.037079 22:0.833868 23:0.874163 24:1.131408 25:-2.178184 26:1.881791 27:1.122227 28:0.615632 29:0.664752 30:-0.355503 31:-1.095593 32:0.208529 33:-0.460790 34:0.034302 35:1.003194 36:-0.305910 37:0.120371 38:0.200955 39:-0.619819 40:-0.252938 41:1.745394 42:0.067474 43:-0.377971 44:-0.322536 45:0.087093 46:0.702000 47:0.399818 48:-0.379841 49:-0.584048 50:-0.085871 51:0.382483 52:-1.154598 53:-0.841516 54:-0.557881 55:-0.018126
-1 1:-1.689910 2:-1.025471 3:0.853808 4:1.451824 5:0.569924 6:0.481359 7:0.796741 8:-0.680303 9:2.369760 10:1.694210 11:-0.107631 12:0.449451 13:2.206366 14:0.678548 15:-0.347442 16:-0.426788 17:-0.295696 18:0.613014 19:2.205611 20:-0.107381 21:-0.223386 22:0.005132 23:-0.806768 24:-2.617799 25:-0.438355 26:-1.411124 27:-0.848084 28:2.153611 29:-1.111677 30:-0.420002 31:1.504306 32:-1.179461 33:2.075064 34:0.292656 35:0.453421 36:-0.064232 37:1.548201 38:1.442548 39:-1.584116 40:-0.261555 41:-0.447875 42:-1.575387 43:-1.563433 44:0.397186 45:0.168436 46:-1.561456 47:0.946916 48:0.189623 49:-0.643528 50:-0.888447 51:-0.802386 52:-1.347276 53:1.197248 54:-0.431844 55:0.132020
-1 1:-0.843373 2:-0.913744 3:1.962855 4:1.111931 5:0.987947 6:0.077294 7:0.679239 8:-0.008262 9:-0.077872 10:-0.255836 11:-0.591376 12:2.214447 13:0.321036 14:-0.728995 15:-2.301781 16:0.037451 17:1.150787 18:-0.355164 19:0.083660 20:0.205614 21:0.293053 22:0.070914 23:-0.395657 24:-0.594465 25:3.149846 26:0.597133 27:2.171293 28:0.660028 29:-0.220459 30:-0.857107 31:0.924341 32:1.448807 33:-0.938310 34:-2.215096 35:-0.145369 36:0.022594 37:0.095441 38:0.587937 39:1.094660 40:0.410326 41:-0.774656 42:-0.134947 43:1.579287 44:-1.278552 45:1.277942 46:0.956153 47:0.760388 48:-0.736233 49:0.728853 50:0.912349 51:-0.636599 52:1.943590 53:1.542771 54:-0.071475 55:0.353994
-1 1:-1.495290 2:1.507441 3:-0.306844 4:-0.669234 5:-0.594281 6:0.664808 7:-0.774923 8:1.803396 9:0.624060 10:0.375279 11:0.662724 12:0.060701 13:-0.330510 14:0.229098 15:1.020809 16:-0.485620 17:1.111350 18:-1.505138 19:-0.597014 20:-0.669903 21:0.244325 22:-1.241019 23:1.806385 24:0.828647 25:-1.461591 26:1.268803 27:-0.527233 28:-0.679011 29:0.442820 30:-0.687598 31:-0.384934 32:0.095818 33:0.687098 34:0.804727 35:-0.111431 36:2.774191 37:1.906324 38:-1.437840 39:-0.622037 40:0.171900 41:-0.461382 42:0.369349 43:0.556271 44:-0.486381 45:0.970323 46:0.044948 47:-0.501081 48:-0.030071 49:-0.231109 50:-0.173738 51:-1.504325 52:-0.912945 53:-1.418311 54:1.369509 55:-0.478582
-1 1:0.228647 2:1.033093 3:0.433505 4:0.874783 5:0.008466 6:0.243412 7:1.246628 8:1.213480 9:1.583254 10:1.407159 11:0.278137 12:1.142287 13:0.912438 14:2.529949 15:-0.918250 16:-0.569975 17:0.003074 18:-0.221507 19:0.201957 20:-0.536846 21:1.639215 22:1.052588 23:0.536465 24:1.257886 25:0.717376 26:-0.067707 27:-0.536490 28:0.246014 29:-0.494516 30:-0.513928 31:0.309900 32:1.825571 33:-1.853996 34:-0.726411 35:0.080671 36:-0.589219 37:0.632616 38:-0.435720 39:-0.447706 40:-0.530548 41:-1.913403 42:0.252322 43:-0.515365 44:0.239775 45:0.733276 46:1.739164 47:-1.113952 48:-0.326364 49:-1.720777 50:-1.098938 51:0.318141 52:0.711013 53:0.623990 54:0.100752 55:0.307233
-1 1:-0.715165 2:-0.074827 3:-0.101471 4:-2.140875 5:-0.467567 6:-1.524820 7:2.703098 8:2.007354 9:1.161130 10:0.918596 11:0.622546 12:0.810425 13:0.652484 14:0.573964 15:-1.123227 16:0.582559 17:-0.970506 18:-0.162140 19:-2.647973 20:-1.198650 21:0.351771 22:-0.706785 23:0.162573 24:0.725585 25:0.548965 26:0.615819 27:0.662372 28:-0.077595 29:-0.077477 30:-0.916037 31:0.034943 32:-1.464071 33:-0.777918 34:2.983021 35:-0.358776 36:-1.258408 37:-0.040256 38:-0.837411 39:0.075741 40:0.869486 41:-2.032282 42:0.423635 43:-0.199076 44:1.184862 45:-1.642586 46:1.472212 47:1.155951 48:0.330004 49:1.061648 50:-1.242228 51:1.229568 52:0.217102 53:-1.037600 54:-0.629291 55:-0.211021
-1 1:-0.815416 2:0.169452 3:-1.000968 4:-0.413159 5:-0.090621 6:0.508300 7:2.012707 8:-0.853139 9:1.529624 10:0.501622 11:0.157174 12:0.275367 13:0.146352 14:-0.843901 15:1.382980 16:-1.066941 17:-1.408603 18:0.839108 19:-2.133882 20:1.610355 21:0.049867 22:-0.290286 23:-1.034239 24:0.317243 25:1.684238 26:-0.608233 27:-1.087527 28:0.206435 29:0.155802 30:1.404283 31:-1.049247 32:0.851405 33:-0.227737 34:-0.909107 35:-0.767605 36:-0.095096 37:-1.577862 38:-0.923702 39:0.098252 40:-0.159042 41:-0.922677 42:0.282664 43:-1.780554 44:0.345306 45:0.001343 46:-0.600190 47:-0.636106 48:-0.743412 49:0.314855 50:2.304356 51:1.177812 52:-0.463287 53:1.167645 54:0.034866 55:0.297736
-1 1:-0.382372 2:0.053764 3:-0.469320 4:0.655055 5:1.185806 6:-0.860337 7:-0.276237 8:0.685429 9:1.090189 10:-0.789120 11:-0.948590 12:-0.746403 13:0.406802 14:0.927016 15:1.442356 16:-0.243148 17:0.188002 18:-0.726141 19:-0.014095 20:-0.986651 21:-1.170094 22:-0.094719 23:0.289405 24:2.412637 25:-0.444213 26:-0.629267 27:0.224470 28:0.800580 29:0.389533 30:0.215059 31:-0.926750 32:-1.034349 33:-0.902420 34:1.413946 35:-0.743963 36:1.316946 37:0.098326 38:0.547634 39:1.912244 40:1.912519 41:-0.814966 42:-1.602937 43:1.045034 44:1.597959 45:0.433291 46:0.753021 47:-0.051874 48:0.954739 49:0.672003 50:0.803709 51:1.636435 52:-0.571470 53:0.251860 54:1.254093 55:0.554820
-1 1:0.400364 2:0.586518 3:0.138104 4:0.493790 5:-0.322985 6:-0.382837 7:0.826024 8:0.010253 9:-0.621152 10:-0.423017 11:0.757993 12:1.294150 13:1.394483 14:0.049137 15:0.999328 16:0.140162 17:0.600152 18:0.309325 19:1.023493 20:0.988896 21:0.607670 22:1.269721 23:-1.346723 24:0.832430 25:-0.992932 26:0.747226 27:-0.483111 28:-0.990988 29:0.293112 30:-0.115137 31:0.885272 32:-0.703495 33:-0.063368 34:0.147600 35:-2.184585 36:-0.304116 37:0.192934 38:1.206153 39:-1.261311 40:-0.856243 41:-0.380907 42:-0.204246 43:0.212906 44:-0.833005 45:0.126771 46:-1.503442 47:-0.147104 48:-0.623525 49:1.214598 50:0.499275 51:-0.539572 52:-2.368967 53:0.522690 54:1.066896 55:-1.678405
-1 1:-1.772167 2:-2.707661 3:0.043125 4:-0.153443 5:-0.130650 6:0.245552 7:-0.001977 8:-0.163002 9:-0.776763 10:-0.264501 11:0.715550 12:0.453718 13:0.787040 14:-0.115340 15:-2.392190 16:-1.910217 17:0.941009 18:0.590306 19:-1.363614 20:0.496564 21:-1.164088 22:-0.018602 23:-0.231324 24:0.417273 25:-0.027278 26:1.218277 27:-0.623353 28:-3.214949 29:0.755462 30:0.774159 31:0.963081 32:0.213089 33:-0.091795 34:-0.901992 35:-0.598629 36:-0.416959 37:2.996329 38:-0.372404 39:-1.870739 40:-0.301865 41:1.209845 42:-2.532670 43:-0.331186 44:2.709584 45:-2.245071 46:0.518300 47:1.207719 48:-1.124332 49:0.209830 50:-2.104044 51:-0.058985 52:-0.670324 53:-1.761923 54:0.248768 55:-0.449538
-1 1:1.765647 2:-0.714700 3:0.547470 4:0.272521 5:-0.006613 6:-2.076071 7:-1.776231 8:0.268231 9:-0.004903 10:0.862264 11:-0.081746 12:0.506176 13:1.055723 14:-2.210028 15:-0.168883 16:0.913153 17:-0.082861 18:-0.056838 19:-0.249804 20:0.653359 21:1.806087 22:-0.708282 23:-0.309401 24:0.719510 25:-0.369024 26:0.299421 27:-0.804870 28:0.225874 29:1.073698 30:-1.124682 31:-0.230283 32:0.137961 33:1.627878 34:1.600100 35:1.723321 36:-0.178881 37:0.223140 38:-1.023723 39:0.401265 40:0.736121 41:0.628751 42:1.635563 43:-0.009889 44:0.841788 45:-0.441425 46:-1.085113 47:-2.143911 48:1.583798 49:-1.372982 50:-0.409566 51:0.185289 52:-1.280703 53:-1.246075 54:0.360352 55:0.305699
-1 1:-1.180119 2:0.904751 3:0.223862 4:0.677530 5:1.174005 6:1.124370 7:-0.063171 8:-0.225722 9:-0.513542 10:0.341211 11:1.548395 12:0.136237 13:2.642379 14:-1.507171 15:-1.797695 16:0.316835 17:1.534576 18:0.582991 19:-0.375223 20:-1.362636 21:1.067725 22:-1.530178 23:0.598911 24:-0.632483 25:0.860067 26:0.354717 27:-0.322633 28:0.255599 29:1.117279 30:0.031375 31:-0.385247 32:0.911294 33:0.396243 34:0.981438 35:-0.148847 36:1.067975 37:-1.040674 38:1.073936 39:1.060096 40:0.050689 41:-0.108065 42:0.983987 43:0.463378 44:-1.331269 45:-0.726806 46:-0.317613 47:-0.124987 48:1.163686 49:0.277329 50:-0.633550 51:0.684277 52:0.583648 53:0.204348 54:-1.643207 55:-1.569065
-1 1:-1.121863 2:-1.565785 3:-1.555227 4:-0.499110 5:-0.897684 6:-0.066764 7:0.941655 8:0.634312 9:-0.356180 10:1.674084 11:1.277605 12:-0.034581 13:0.846912 14:-0.580372 15:-0.483081 16:0.137634 17:-1.903092 18:-0.372594 19:0.061291 20:-0.028187 21:0.110583 22:0.856391 23:-0.588057 24:0.042164 25:-0.485056 26:0.228728 27:-0.858354 28:-1.084372 29:0.100059 30:-1.085259 31:-0.669788 32:0.056308 33:0.141037 34:0.340725 35:0.230791 36:-0.059870 37:-0.023782 38:-0.057554 39:-1.073837 40:-0.448299 41:0.595458 42:-1.591512 43:-0.805090 44:0.485218 45:-1.236717 46:-0.386044 47:-1.367475 48:1.180865 49:0.247032 50:-1.271596 51:-2.112901 52:0.502208 53:0.202562 54:-1.426504 55:-0.312672
-1 1:0.214821 2:0.365420 3:-2.312266 4:-1.260845 5:0.943438 6:-0.502785 7:1.114833 8:-1.813364 9:-0.264743 10:-1.912420 11:1.562158 12:-1.994668 13:1.250062 14:0.863559 15:1.029035 16:0.084308 17:-0.604659 18:0.539856 19:-0.433005 20:-0.395374 21:0.611809 22:-0.403227 23:-0.882523 24:0.440940 25:0.745958 26:-0.714058 27:1.162548 28:0.754235 29:-1.119379 30:0.341752 31:-1.174370 32:0.192718 33:-1.911992 34:1.420791 35:1.647426 36:0.324254 37:-0.690012 38:-1.844861 39:-0.559971 40:-0.891160 41:1.677755 42:0.113128 43:-0.244614 44:-1.107710 45:1.493582 46:-0.287369 47:-1.974805 48:0.286744 49:2.714894 50:-1.030632 51:0.454704 52:0.568366 53:0.597230 54:0.037723 55:-0.341165
-1 1:-0.015053 2:0.451265 3:0.478674 4:-1.842552 5:0.049470 6:1.424806 7:0.800155 8:0.845063 9:0.208728 10:0.743518 11:-0.477960 12:-0.850679 13:-0.197141 14:-0.438628 15:0.414989 16:0.799802 17:-0.172592 18:-0.342438 19:0.816026 20:0.066053 21:-0.481749 22:0.139089 23:-0.150794 24:-0.099999 25:0.724171 26:0.276060 27:-0.184854 28:0.384833 29:-1.879891 30:0.134818 31:1.044781 32:0.497918 33:0.638297 34:-0.610620 35:0.952593 36:2.406351 37:-0.511951 38:0.694130 39:-1.674559 40:1.113664 41:0.024054 42:-0.732570 43:0.389263 44:0.452418 45:1.218738 46:0.532000 47:-0.303571 48:0.396893 49:0.517888 50:-0.659035 51:-1.820915 52:0.126154 53:1.932359 54:0.290670 55:-1.272432
-1 1:0.839180 2:-2.321504 3:-3.069587 4:-0.357279 5:-0.180568 6:1.596269 7:-0.764861 8:1.425974 9:2.478034 10:0.150634 11:-0.403037 12:-0.474647 13:-0.976351 14:1.513986 15:1.317939 16:-1.042360 17:0.160668 18:-1.036238 19:1.250327 20:-0.177394 21:1.024413 22:-0.288459 23:-0.423743 24:-0.026205 25:0.119931 26:1.012066 27:0.632443 28:0.755955 29:1.215901 30:-0.033498 31:-0.714450 32:-0.624812 33:0.323041 34:0.426589 35:0.210463 36:-0.337811 37:0.880096 38:-1.446850 39:1.957486 40:0.042550 41:0.518346 42:-0.136889 43:-1.208914 44:-1.115862 45:-0.466367 46:0.722673 47:0.361653 48:0.343205 49:-2.327048 50:-1.019766 51:1.094501 52:-1.757269 53:0.995478 54:-0.761609 55:-2.540608
-1 1:0.528271 2:1.050480 3:0.181002 4:-2.006145 5:0.554440 6:0.436839 7:-1.160155 8:1.256306 9:1.616881 10:1.748346 11:1.352822 12:0.230514 13:-1.537002 14:-0.087383 15:0.384640 16:-0.921407 17:0.331658 18:-0.601494 19:1.484058 20:1.289916 21:2.161162 22:-0.237903 23:-1.572838 24:0.444903 25:-0.851258 26:-0.238182 27:0.408201 28:-0.467358 29:0.266037 30:-0.228301 31:0.105731 32:-0.880852 33:-0.262342 34:-1.832215 35:0.074176 36:-1.027399 37:0.129416 38:-0.089470 39:-0.205669 40:0.593203 41:-0.668906 42:-0.363926 43:-0.215312 44:-0.851822 45:0.533926 46:0.190310 47:-0.582795 48:-0.576326 49:-0.882578 50:0.484731 51:0.596284 52:-0.026356 53:1.973768 54:-0.093408 55:0.242182
-1 1:-0.490828 2:-0.076807 3:0.012786 4:0.131707 5:0.456065 6:-1.169893 7:-0.248222 8:0.131521 9:0.102665 10:2.281437 11:0.907281 12:1.149937 13:0.582146 14:0.237255 15:1.134891 16:1.713610 17:-0.526312 18:-0.611533 19:0.337663 20:0.325590 21:-1.317555 22:2.270233 23:-1.393155 24:-1.208517 25:-0.342738 26:0.957457 27:-0.540636 28:0.770113 29:-0.653430 30:-0.444446 31:1.784251 32:-1.846579 33:0.084067 34:-0.704192 35:-1.300142 36:0.964154 37:-0.021788 38:1.776280 39:0.108199 40:-1.196698 41:0.151415 42:1.461336 43:-1.127353 44:-0.683901 45:1.918057 46:3.112458 47:0.165438 48:-0.235741 49:0.731716 50:0.070035 51:1.018810 52:-1.490473 53:-3.420837 54:-0.772155 55:-1.678622
-1 1:0.459226 2:-0.136378 3:-1.982018 4:0.852764 5:0.101482 6:-1.490401 7:0.900628 8:-0.021578 9:-2.117392 10:-1.986645 11:-0.930470 12:-0.624695 13:0.505501 14:0.474074 15:-0.626353 16:-0.096025 17:1.736403 18:0.244532 19:-1.448965 20:-0.110724 21:0.086325 22:0.540398 23:-1.518864 24:2.146263 25:-0.038504 26:0.745070 27:-0.408513 28:-1.328716 29:0.009240 30:-0.486343 31:-1.333634 32:-0.575835 33:-0.229164 34:0.799520 35:-0.322096 36:0.453053 37:0.552531 38:0.439182 39:-0.586536 40:-2.106877 41:1.132607 42:-1.482280 43:0.027749 44:0.278962 45:0.059261 46:0.935935 47:-0.789351 48:1.197044 49:0.469025 50:0.063935 51:0.341546 52:-0.974130 53:0.333477 54:0.633249 55:0.833755
-1 1:-1.178948 2:0.293151 3:-1.166214 4:-0.205074 5:1.592252 6:0.213709 7:0.112201 8:0.565207 9:0.477172 10:0.322905 11:1.602755 12:0.232874 13:-0.722456 14:-0.850470 15:0.248415 16:-1.298041 17:-0.812177 18:0.793168 19:1.833987 20:0.583626 21:1.095528 22:-0.020933 23:0.784242 24:-1.657591 25:0.284256 26:0.943762 27:0.294897 28:-0.819990 29:0.177228 30:0.449382 31:1.087859 32:0.523970 33:0.641985 34:0.028989 35:1.408154 36:-2.130120 37:-1.421564 38:0.682889 39:-0.528165 40:1.328543 41:2.464086 42:1.171364 43:0.402014 44:-1.172809 45:1.864616 46:-1.527533 47:-0.153691 48:-1.051625 49:-2.200582 50:-1.692711 51:1.042562 52:0.537407 53:0.159169 54:0.666341 55:1.210792
-1 1:0.516602 2:1.603351 3:-0.431574 4:0.792111 5:-0.630611 6:-0.419881 7:-0.126809 8:-0.388572 9:-0.486094 10:-0.968486 11:1.124121 12:0.474154 13:0.798367 14:-0.855635 15:-0.137245 16:0.765718 17:-0.698061 18:-1.616601 19:-0.219993 20:-1.668181 21:-1.083734 22:2.228424 23:-0.707654 24:-0.081552 25:-1.294385 26:0.641380 27:-1.391873 28:-0.042226 29:-0.620841 30:-0.384313 31:-0.475355 32:0.470911 33:-1.257126 34:-0.410992 35:0.941586 36:1.036811 37:1.484059 38:1.142068 39:-0.649795 40:0.393062 41:-1.586716 42:-0.851388 43:0.620815 44:-1.281185 45:-0.104859 46:-0.035990 47:1.115742 48:0.163695 49:-0.462116 50:-0.167702 51:0.389036 52:-1.312902 53:-0.476156 54:0.196167 55:0.107428
-1 1:-0.935421 2:-1.379222 3:-0.988854 4:-0.555378 5:0.165816 6:-0.567052 7:-0.436577 8:0.485603 9:0.722529 10:0.959029 11:0.888416 12:-0.808612 13:-1.442345 14:-0.593126 15:2.011780 16:-1.169854 17:-0.368446 18:0.126925 19:0.966506 20:0.195400 21:0.547463 22:-1.730616 23:-0.321054 24:1.851699 25:0.501090 26:0.133313 27:1.124408 28:0.238549 29:-1.228911 30:2.246114 31:0.092186 32:-3.111316 33:-0.055535 34:1.181113 35:-0.270645 36:1.011061 37:0.694388 38:-0.752009 39:-0.607195 40:0.695800 41:2.534121 42:-0.639008 43:-1.174444 44:0.185415 45:0.574177 46:0.257670 47:0.320378 48:0.699951 49:-1.819276 50:-1.550466 51:-0.321187 52:0.933949 53:-1.189629 54:2.057732 55:0.105302
-1 1:0.788541 2:0.531215 3:1.205611 4:-0.822034 5:1.231416 6:0.438354 7:0.573763 8:-0.705545 9:0.255206 10:-0.231689 11:1.186984 12:-0.695414 13:-1.076843 14:1.722564 15:1.873558 16:-0.486180 17:-0.302356 18:-0.428983 19:0.510165 20:-1.367193 21:-0.254983 22:-0.247582 23:-0.361279 24:-0.699488 25:0.956410 26:-0.323260 27:-0.547960 28:-1.211556 29:-0.099552 30:0.305336 31:-0.081323 32:2.140969 33:-0.004094 34:1.563342 35:-0.882814 36:2.012017 37:-0.536183 38:1.318689 39:1.526102 40:1.980567 41:1.089989 42:-0.142928 43:0.771328 44:-0.083734 45:1.166490 46:0.394201 47:0.417817 48:-0.020049 49:1.738964 50:-0.777398 51:-1.011835 52:1.363625 53:-0.190934 54:0.769591 55:0.008190
-1 1:-0.956039 2:2.585462 3:-1.065704 4:-0.180361 5:-1.269030 6:0.277026 7:-0.021237 8:1.023366 9:-1.896543 10:0.007909 11:1.128864 12:0.615396 13:1.071749 14:-0.443276 15:-1.283369 16:-0.730491 17:0.486669 18:-1.236322 19:-0.351558 20:0.225865 21:-0.716517 22:-0.004756 23:-0.136773 24:-2.479322 25:-0.012800 26:-0.241806 27:0.552059 28:-1.119585 29:0.310372 30:-1.198439 31:-1.971780 32:0.250768 33:1.235395 34:0.811647 35:1.081126 36:0.816496 37:1.839653 38:0.506804 39:-0.455146 40:-0.485425 41:0.678701 42:0.370331 43:0.294123 44:0.109993 45:1.448942 46:-0.628682 47:1.344418 48:-0.308127 49:0.405735 50:0.049224 51:0.677257 52:0.935767 53:-0.365954 54:-0.526373 55:-1.472167
-1 1:-2.877874 2:0.119537 3:0.112277 4:1.252016 5:0.833919 6:-0.720887 7:1.193946 8:1.390997 9:1.120760 10:-0.780343 11:0.782953 12:0.674331 13:-0.604889 14:-0.274206 15:0.197958 16:-0.064906 17:0.551520 18:0.364640 19:1.203064 20:0.533682 21:-0.580824 22:0.876241 23:-0.651575 24:0.110839 25:1.161174 26:0.747696 27:-0.759653 28:0.535685 29:0.281124 30:-0.298198 31:1.135261 32:-0.280846 33:-0.391066 34:0.477040 35:0.273894 36:-0.691052 37:0.003116 38:1.717378 39:1.063621 40:-0.928013 41:0.121671 42:0.626061 43:-0.877129 44:-0.586787 45:-0.509772 46:0.880169 47:0.056106 48:0.730361 49:-0.780962 50:-1.671632 51:-0.665793 52:-0.993073 53:2.582990 54:-0.106736 55:-1.796555
-1 1:0.627275 2:0.036040 3:-0.263185 4:-0.231366 5:-0.392221 6:-0.397765 7:-0.900952 8:0.379259 9:-1.230449 10:1.877495 11:0.537040 12:0.100728 13:1.672398 14:-0.959092 15:-1.051114 16:-0.511046 17:0.661515 18:2.786541 19:-1.190581 20:0.988669 21:0.723547 22:-0.289728 23:0.523947 24:-1.446336 25:-0.692099 26:1.160468 27:-0.763931 28:0.400479 29:-0.731437 30:0.690358 31:-0.127141 32:-0.789615 33:1.212481 34:0.847090 35:2.551369 36:-1.063626 37:-1.010864 38:-0.181948 39:0.906713 40:-1.239999 41:-0.804101 42:-1.047235 43:-2.048512 44:0.986274 45:-0.633450 46:0.486075 47:-0.765785 48:1.609357 49:2.291045 50:0.266908 51:0.800893 52:-0.174911 53:0.474604 54:-0.904369 55:0.334115
-1 1:-0.528079 2:2.313577 3:-0.384329 4:0.564251 5:0.008152 6:-0.964243 7:0.377593 8:-0.585840 9:-1.255348 10:2.606899 11:0.870350 12:1.256336 13:0.787814 14:-0.661175 15:-0.341210 16:0.747192 17:-2.631279 18:2.059847 19:1.619594 20:-0.899609 21:-0.357320 22:-0.064675 23:0.009794 24:-0.695225 25:-1.726750 26:1.126326 27:0.118353 28:-1.097056 29:-0.927001 30:0.196364 31:1.148940 32:1.676675 33:2.130819 34:-0.925404 35:0.456054 36:0.594574 37:-0.359063 38:0.311903 39:-0.130597 40:0.826106 41:-0.912746 42:-0.026403 43:0.754399 44:1.106096 45:0.387881 46:1.032589 47:-1.491491 48:-0.919428 49:0.724754 50:1.178620 51:-0.879707 52:1.153524 53:-1.108072 54:-0.673025 55:0.534828
-1 1:-0.108357 2:-2.068167 3:-0.423295 4:0.329007 5:-1.686263 6:-0.875854 7:-0.036230 8:1.156160 9:1.735452 10:0.488088 11:-0.250241 12:0.045448 13:2.293125 14:-0.102208 15:0.929071 16:-0.984049 17:0.544495 18:0.650242 19:-1.091894 20:0.126050 21:0.128736 22:-0.998863 23:0.225177 24:0.950725 25:-1.257528 26:0.261319 27:0.453391 28:-0.581774 29:-0.827154 30:-2.604397 31:1.096820 32:0.806111 33:0.163318 34:0.275622 35:-0.517367 36:-0.610683 37:0.103127 38:0.280225 39:1.300087 40:-1.617962 41:-0.963821 42:-0.779947 43:1.080855 44:-0.122853 45:0.161304 46:-0.408702 47:-0.540357 48:0.059367 49:0.052870 50:0.649933 51:-1.795004 52:-0.471531 53:-2.123107 54:1.030367 55:-0.179275
-1 1:0.432176 2:0.866833 3:-0.472330 4:0.536082 5:0.408959 6:2.795571 7:1.381301 8:0.612097 9:-0.155171 10:1.357661 11:0.357321 12:-0.184442 13:0.451556 14:-0.776064 15:-0.257017 16:0.038838 17:0.035481 18:-0.780212 19:-0.208853 20:2.316958 21:-0.679291 22:-1.060408 23:0.960323 24:0.486386 25:-0.269475 26:0.048262 27:0.317147 28:-0.730072 29:-0.195190 30:0.863687 31:1.035886 32:0.834359 33:0.745800 34:1.731104 35:-0.614153 36:-2.170824 37:0.533788 38:0.882830 39:-0.435420 40:0.096976 41:0.990796 42:-0.913839 43:-1.450228 44:0.153804 45:0.681943 46:-0.537391 47:-0.133235 48:-0.601259 49:-0.363504 50:-0.189222 51:1.257987 52:0.814594 53:-0.819673 54:-0.509893 55:0.293767
-1 1:-2.559842 2:-1.220758 3:1.060287 4:-0.239692 5:-0.703690 6:0.910548 7:1.267530 8:0.370026 9:0.948141 10:0.462313 11:0.542617 12:0.442235 13:-0.232984 14:-0.000315 15:-0.548680 16:-0.791184 17:-0.922678 18:-0.567234 19:-1.061709 20:0.911809 21:-2.747364 22:-0.212195 23:1.088610 24:1.887199 25:-0.587836 26:-1.487444 27:-0.774177 28:-1.094771 29:0.490014 30:-0.601091 31:0.282723 32:0.155286 33:0.412250 34:-0.377128 35:-0.038780 36:0.630046 37:0.259218 38:0.794360 39:-0.937946 40:-1.268840 41:1.211371 42:-1.447438 43:-0.447328 44:1.907627 45:-0.668371 46:0.611752 47:0.259322 48:-0.664774 49:0.794181 50:0.814631 51:1.605793 52:0.339782 53:0.571835 54:0.758449 55:-1.193259
-1 1:-0.838171 2:-0.913032 3:0.554030 4:0.570526 5:0.427153 6:0.006434 7:0.640310 8:-0.098066 9:0.177989 10:0.084550 11:-0.603760 12:-0.145512 13:-0.168794 14:0.978201 15:-0.793080 16:-0.982561 17:0.970738 18:-0.292309 19:-0.562132 20:1.332146 21:2.073974 22:-0.205923 23:0.217539 24:0.745811 25:-1.821304 26:1.268557 27:0.826074 28:-0.395354 29:2.576957 30:1.180669 31:0.312581 32:0.096359 33:-0.860702 34:-1.056801 35:0.542623 36:-1.749927 37:-1.483732 38:-0.300475 39:0.956997 40:-1.048862 41:0.303567 42:-1.671713 43:-1.011768 44:-1.446764 45:-1.167749 46:1.595573 47:-0.910442 48:0.073096 49:-0.066016 50:0.829337 51:0.950861 52:-1.209403 53:-0.759139 54:0.228584 55:1.984438
-1 1:-0.075513 2:0.647185 3:-0.401704 4:-0.722202 5:-0.642394 6:-0.626827 7:-0.414569 8:0.579510 9:0.419707 10:0.623479 11:-1.724795 12:1.884331 13:-1.255952 14:1.526572 15:-1.060885 16:0.402537 17:0.625009 18:1.424578 19:-0.234401 20:0.116713 21:-0.394102 22:-0.592936 23:-0.674135 24:-0.114108 25:-0.535871 26:0.014644 27:1.351231 28:-0.730033 29:0.671609 30:0.341271 31:0.026937 32:1.269583 33:-0.708854 34:-1.427854 35:-0.420385 36:0.625096 37:-0.171376 38:1.343474 39:-0.236442 40:-0.109774 41:-0.266705 42:1.815442 43:1.445069 44:-0.427799 45:-0.390220 46:0.224273 47:-0.068252 48:-0.603523 49:-1.313834 50:-1.641328 51:-0.347617 52:1.694608 53:-1.685528 54:-0.108617 55:-0.596625
-1 1:0.275975 2:0.403777 3:-0.749819 4:0.889219 5:-0.561382 6:-0.575001 7:-0.122535 8:0.706263 9:0.160995 10:-1.006109 11:0.547477 12:-0.198440 13:3.057884 14:-0.341503 15:-0.135919 16:0.268391 17:-0.556793 18:0.555666 19:1.024130 20:-1.648955 21:1.200755 22:1.090733 23:1.538713 24:0.288234 25:-0.438237 26:-0.894270 27:-0.424619 28:-0.715092 29:-1.754458 30:-0.890013 31:-0.343091 32:0.137668 33:1.193175 34:0.465315 35:0.203162 36:0.595117 37:-0.892972 38:-0.106532 39:-0.029084 40:0.945953 41:-0.001531 42:1.876559 43:1.248229 44:0.053839 45:1.224592 46:-0.862276 47:0.454066 48:-0.894094 49:0.901071 50:-0.268039 51:-0.086750 52:-0.229698 53:2.226254 54:0.735565 55:2.008959
-1 1:-0.023741 2:1.285210 3:0.663604 4:0.477725 5:-1.297482 6:-1.717934 7:0.074200 8:-0.652990 9:0.785436 10:-1.533294 11:-0.724618 12:0.680681 13:-1.229378 14:-0.953926 15:0.631391 16:0.036612 17:0.542670 18:-0.459208 19:-0.406253 20:1.415914 21:-0.527459 22:-0.437914 23:0.367513 24:2.255697 25:-2.254433 26:0.423113 27:-0.627449 28:0.100814 29:0.403090 30:-0.370259 31:1.028216 32:0.958964 33:-0.945400 34:-0.674257 35:-1.231478 36:0.229240 37:-0.391284 38:0.235991 39:-1.525263 40:1.113247 41:-0.576841 42:-0.241924 43:-0.223508 44:-0.205406 45:-1.167522 46:-0.283115 47:0.195535 48:0.638710 49:-0.882746 50:-0.355314 51:-0.223091 52:-0.330596 53:-1.658465 54:-0.219429 55:1.235504
-1 1:0.529808 2:0.061673 3:0.023382 4:0.624430 5:-1.205364 6:1.915370 7:-1.957308 8:0.922082 9:1.040875 10:0.478080 11:0.650303 12:-0.076446 13:0.015825 14:-1.851457 15:2.250170 16:1.552647 17:1.034796 18:1.971421 19:2.355918 20:1.127781 21:0.723386 22:1.213009 23:0.426877 24:-0.052249 25:0.741276 26:0.789127 27:0.393247 28:0.600706 29:0.008347 30:0.793872 31:0.396632 32:-0.722835 33:0.401708 34:-0.352276 35:0.339208 36:0.322357 37:2.252848 38:1.501990 39:0.160517 40:-1.728385 41:-0.121617 42:0.750931 43:-0.446523 44:-1.733493 45:-0.982784 46:1.228519 47:0.522897 48:-0.575665 49:1.106708 50:0.438380 51:-0.186078 52:-1.796949 53:0.254788 54:-1.042678 55:-0.283155
-1 1:1.333504 2:-1.265678 3:-1.844714 4:2.033297 5:1.025205 6:-1.357388 7:2.700652 8:-0.865077 9:-1.617618 10:-0.578778 11:-0.269642 12:0.141123 13:-0.099201 14:-0.120518 15:-0.165780 16:0.214926 17:0.441698 18:0.001988 19:0.339517 20:0.954624 21:0.212132 22:1.542378 23:0.996148 24:0.980948 25:0.963303 26:-1.649992 27:-2.493928 28:-0.224258 29:-0.548487 30:-0.541883 31:-0.812358 32:-0.267296 33:-0.157493 34:1.774264 35:0.344886 36:1.101036 37:-0.759815 38:2.124174 39:0.503842 40:-0.611886 41:0.398358 42:-0.867586 43:-0.738941 44:0.150128 45:0.381539 46:2.719492 47:-0.167979 48:-0.415034 49:-0.745798 50:-0.950673 51:0.121467 52:0.158132 53:-0.503279 54:-1.436043 55:2.202371
-1 1:-1.156957 2:-0.214023 3:0.337003 4:0.524679 5:0.305884 6:-1.154222 7:2.256579 8:-1.020797 9:-0.065086 10:0.000321 11:0.554528 12:-0.567327 13:-1.235820 14:-2.633253 15:-1.358068 16:0.210773 17:-0.656177 18:-0.402330 19:0.581418 20:0.595561 21:-1.102957 22:-0.641097 23:0.176377 24:-0.973652 25:-1.455125 26:-0.334429 27:0.710614 28:1.743179 29:0.319089 30:-0.937975 31:-0.713259 32:1.128613 33:0.532305 34:0.266107 35:-0.083530 36:0.314840 37:0.023252 38:0.572554 39:-0.939385 40:-0.506400 41:0.220129 42:1.402281 43:0.531246 44:1.824870 45:-0.315047 46:0.952080 47:-0.944050 48:-0.460597 49:-1.670997 50:0.553874 51:1.226640 52:-0.429539 53:1.475943 54:0.649904 55:-0.592505
-1 1:-0.332583 2:-0.002298 3:0.225088 4:-0.249082 5:-0.030881 6:-0.840170 7:-1.061748 8:0.283288 9:1.180001 10:-0.022779 11:0.585033 12:-0.186192 13:-0.048952 14:1.618516 15:0.558851 16:1.081157 17:-1.106096 18:1.698466 19:0.297052 20:0.431320 21:0.755274 22:0.226508 23:0.746109 24:1.936438 25:1.021511 26:-0.655875 27:0.022714 28:0.086892 29:-0.247274 30:-0.777432 31:0.853729 32:-1.523206 33:0.204542 34:-0.688500 35:0.347856 36:-0.635221 37:2.444199 38:0.463106 39:-0.117574 40:-0.836912 41:0.237598 42:-0.078880 43:0.135195 44:0.834024 45:-1.401231 46:-0.892644 47:-0.081145 48:-0.145190 49:1.146143 50:1.522975 51:2.265144 52:0.515201 53:-0.219130 54:-0.677245 55:0.223501
-1 1:-0.583611 2:0.666811 3:1.553963 4:-0.526929 5:0.316605 6:1.173039 7:-0.105978 8:1.541316 9:-0.070648 10:0.510207 11:0.529278 12:-0.383174 13:0.560369 14:0.260993 15:-0.363137 16:1.421765 17:-1.832167 18:-0.454470 19:-0.115560 20:0.491090 21:-1.338711 22:1.267921 23:3.461602 24:-1.021133 25:2.030155 26:-0.971093 27:0.047254 28:-0.093732 29:-0.830835 30:0.577733 31:1.638933 32:-0.505949 33:0.825725 34:-0.693515 35:-0.724323 36:0.323917 37:-1.004937 38:0.665257 39:1.135793 40:0.262940 41:-0.917504 42:2.444367 43:-0.807341 44:-0.318276 45:0.129712 46:-0.626415 47:-0.393792 48:0.508708 49:-1.607242 50:-0.153959 51:-0.464940 52:0.402834 53:-0.312444 54:0.464857 55:-0.356564
-1 1:-0.126011 2:-0.563001 3:0.210832 4:-0.186721 5:-0.672734 6:0.260168 7:0.780418 8:-0.195878 9:-0.112667 10:-0.094461 11:-0.897406 12:0.401382 13:-1.119703 14:-1.110540 15:0.876231 16:-1.171797 17:-1.020588 18:0.258953 19:1.536188 20:-1.223122 21:-0.590298 22:-0.635936 23:1.281344 24:-1.054397 25:-0.497199 26:-0.035734 27:1.071998 28:-0.760103 29:1.234337 30:-0.690772 31:0.466265 32:0.572680 33:0.140392 34:-0.001170 35:0.548706 36:0.522955 37:0.949122 38:-0.896440 39:1.353015 40:0.935157 41:1.127750 42:1.132482 43:0.886429 44:-0.183032 45:1.325387 46:-1.098755 47:-0.656895 48:1.014458 49:-1.520451 50:-0.501417 51:1.343419 52:0.072781 53:1.063986 54:0.792951 55:-0.139120
-1 1:1.325654 2:-0.055974 3:-0.121060 4:1.531109 5:0.392063 6:-0.760085 7:0.273481 8:1.562839 9:0.217076 10:-1.121874 11:0.196982 12:0.236027 13:-0.452457 14:-0.002012 15:-0.867648 16:0.183391 17:0.922624 18:-0.718458 19:-0.718756 20:-0.320841 21:-0.714494 22:0.213886 23:0.991400 24:-1.796671 25:-0.295999 26:-0.936356 27:-3.420552 28:1.238091 29:-0.747082 30:-0.202156 31:0.611680 32:0.579508 33:0.504585 34:-0.645485 35:0.109478 36:-0.006126 37:-1.613621 38:-0.286300 39:-0.871283 40:-1.550165 41:-0.996737 42:0.855477 43:1.187526 44:-1.344590 45:-0.052541 46:1.957824 47:-1.366515 48:-1.097058 49:1.021527 50:-0.055038 51:0.136217 52:-0.053879 53:-0.649925 54:-1.541393 55:0.084206
-1 1:0.012747 2:-0.583577 3:1.571110 4:0.390249 5:0.593467 6:0.810186 7:-0.346744 8:1.199571 9:-0.024262 10:1.111238 11:1.704729 12:0.894784 13:-0.865448 14:0.751245 15:0.532947 16:0.636116 17:-0.385560 18:-0.299537 19:-0.819357 20:1.900099 21:-0.542450 22:0.713980 23:-0.608372 24:-0.260049 25:-0.517738 26:-0.647227 27:1.139522 28:0.312199 29:-0.860421 30:0.555401 31:-1.290051 32:-1.291648 33:-1.154311 34:-0.076620 35:0.795717 36:-1.456078 37:-1.111207 38:-0.972578 39:-1.014962 40:-0.572712 41:-0.298805 42:-1.309770 43:-0.222252 44:-0.431370 45:-0.293136 46:0.987656 47:1.715324 48:1.153453 49:-0.977377 50:-0.606066 51:0.041198 52:0.153110 53:-1.473420 54:0.653363 55:-0.589822
-1 1:-0.254153 2:0.782468 3:0.245209 4:-3.156565 5:-1.931951 6:-0.904497 7:-0.720038 8:-2.123998 9:-0.457178 10:-1.362941 11:1.138633 12:-0.617593 13:-0.645913 14:1.216841 15:0.765287 16:-0.443664 17:0.522257 18:0.877741 19:1.069441 20:-0.534084 21:-0.263951 22:-1.152037 23:-2.419758 24:0.569708 25:-0.661693 26:0.569209 27:1.318562 28:-1.041512 29:-1.706081 30:-1.218214 31:0.039153 32:-0.395144 33:1.787517 34:-0.217223 35:1.251184 36:-2.090949 37:0.138040 38:1.431311 39:-0.968913 40:0.800412 41:-0.078194 42:-1.820932 43:1.840695 44:0.359897 45:0.819438 46:0.065189 47:0.753603 48:-0.087146 49:1.318740 50:0.530483 51:-0.373038 52:-1.307349 53:-1.245625 54:0.771636 55:0.234135
-1 1:-0.997300 2:-0.069613 3:0.789698 4:-0.181284 5:0.738137 6:0.430711 7:-0.466345 8:-1.316962 9:-0.585657 10:0.285793 11:0.181107 12:0.750920 13:1.330445 14:-1.038315 15:-1.085240 16:0.321347 17:0.845128 18:0.015856 19:1.357932 20:0.316431 21:-1.496534 22:0.059599 23:1.281238 24:-0.109625 25:0.672082 26:0.224284 27:0.112292 28:-1.670841 29:-2.748967 30:0.632691 31:0.787104 32:-2.197819 33:1.101824 34:-1.181760 35:0.781656 36:-0.980261 37:0.641956 38:0.903044 39:-0.948024 40:0.679151 41:0.418533 42:0.139772 43:-1.255564 44:-0.830575 45:-0.357987 46:0.323636 47:1.268919 48:0.174154 49:-0.736239 50:-1.476769 51:2.300114 52:-0.566583 53:0.522957 54:-0.524995 55:1.443234
-1 1:-0.245240 2:0.791846 3:1.747035 4:-1.623295 5:0.587983 6:2.565423 7:-2.086842 8:1.100397 9:-1.859823 10:-0.583634 11:-0.453310 12:0.156523 13:-1.868228 14:-0.689984 15:0.179742 16:-0.209773 17:-0.719866 18:-0.170441 19:-0.374325 20:1.180109 21:-0.146868 22:-0.067699 23:-1.483278 24:-1.815090 25:1.862016 26:0.329829 27:-1.640718 28:-1.642723 29:0.138194 30:-0.045389 31:0.186655 32:1.291211 33:-1.799913 34:1.585676 35:-0.852985 36:2.244982 37:1.082305 38:-0.526540 39:-0.001521 40:0.030731 41:1.607675 42:0.174284 43:-0.719569 44:0.513736 45:2.483543 46:0.010930 47:-1.257474 48:0.220686 49:0.445433 50:-1.254652 51:-1.089707 52:-1.581777 53:-0.438160 54:0.780506 55:0.152592
-1 1:-0.329744 2:-0.527451 3:0.090706 4:-0.278802 5:-0.146584 6:-0.063450 7:-0.025074 8:-0.264060 9:-0.048006 10:1.012639 11:-1.626430 12:1.763511 13:-0.494921 14:1.542889 15:0.416138 16:-1.002768 17:-0.232351 18:-0.974518 19:1.690140 20:-2.267030 21:1.237910 22:-1.281524 23:-0.747776 24:-0.424123 25:0.080449 26:1.597916 27:0.351619 28:0.722354 29:-0.403758 30:-0.311196 31:-1.400129 32:-2.355968 33:-0.078405 34:0.232847 35:-0.251169 36:-1.363505 37:-0.100135 38:0.314895 39:-0.272114 40:-0.321012 41:-0.187027 42:-0.467624 43:1.017863 44:0.321109 45:-1.273082 46:1.004403 47:-0.502351 48:-0.452480 49:0.032387 50:-0.366695 51:2.229498 52:0.952763 53:0.428087 54:2.307867 55:1.590073
-1 1:0.139684 2:-0.174221 3:0.333074 4:-2.106614 5:-0.916607 6:0.977889 7:0.686865 8:-0.184404 9:-1.496328 10:1.029752 11:0.830634 12:0.074770 13:1.527952 14:-0.573447 15:2.520133 16:1.392589 17:0.666272 18:-0.778508 19:-0.567004 20:0.115643 21:-0.450328 22:0.527886 23:0.254062 24:1.005582 25:-0.539666 26:0.298081 27:-0.700322 28:0.926394 29:-2.195565 30:-1.318069 31:-0.887209 32:0.608926 33:-0.474766 34:-0.970197 35:-1.680162 36:-0.614436 37:-1.030998 38:-0.356745 39:1.223812 40:-0.706975 41:0.794016 42:-0.000634 43:-1.935799 44:-0.110754 45:0.454917 46:-1.399261 47:-0.281795 48:-0.933074 49:1.106363 50:-0.398728 51:0.814073 52:0.736294 53:-1.109456 54:-0.912229 55:1.525136
-1 1:0.190990 2:1.223318 3:-1.397100 4:-0.147642 5:-0.431362 6:0.424709 7:0.584729 8:-1.573094 9:1.736602 10:-0.562561 11:0.399558 12:-0.322222 13:0.100938 14:0.606457 15:-0.879567 16:-0.737449 17:-0.973719 18:-0.691173 19:-0.612015 20:0.693293 21:-0.302100 22:-0.096806 23:-1.038094 24:0.052202 25:-0.947778 26:-2.276681 27:0.796122 28:0.858064 29:-0.206343 30:1.297429 31:1.669273 32:1.226563 33:1.205102 34:-0.875466 35:0.128307 36:0.825268 37:0.028863 38:-0.655659 39:0.826047 40:-0.861059 41:1.625784 42:-0.586182 43:-0.892206 44:-3.263285 45:-0.062699 46:0.336185 47:-0.478054 48:0.520192 49:-0.127923 50:-0.369669 51:0.545397 52:0.827676 53:-1.213648 54:0.456219 55:1.907926
-1 1:-1.551378 2:-1.735877 3:0.928323 4:-0.068536 5:-0.960089 6:-0.025666 7:-1.957948 8:0.407982 9:-0.860967 10:0.207654 11:-0.723659 12:0.131554 13:0.094159 14:1.116074 15:0.451125 16:0.098000 17:1.509276 18:-0.377004 19:0.642727 20:-0.157197 21:0.654352 22:-0.127196 23:-0.718966 24:-1.274902 25:0.691273 26:2.101248 27:0.260273 28:-0.391763 29:1.091813 30:-1.197115 31:-0.762828 32:0.443833 33:0.050933 34:-0.938961 35:0.856693 36:-0.129903 37:0.300683 38:1.651089 39:0.082960 40:0.765792 41:0.354411 42:-0.780701 43:-0.927934 44:1.189218 45:0.042778 46:-0.040052 47:-2.032629 48:0.769564 49:0.893741 50:1.606433 51:-1.539529 52:0.470698 53:-0.610061 54:2.806556 55:0.083097
-1 1:0.730239 2:-0.215646 3:0.308514 4:-0.958953 5:1.143429 6:0.611765 7:0.035635 8:0.861106 9:-0.897433 10:-0.773450 11:-0.450487 12:-1.156427 13:0.205004 14:-0.099561 15:0.569585 16:1.197177 17:0.593730 18:0.014356 19:-0.559852 20:-1.685614 21:1.442996 22:0.704763 23:-0.830285 24:-0.448905 25:0.757728 26:-0.338458 27:-1.209622 28:-0.451553 29:-1.257837 30:-0.079529 31:0.536527 32:-0.540729 33:2.455058 34:0.398267 35:0.136125 36:-0.244801 37:2.827730 38:-0.197489 39:-0.687789 40:-1.077643 41:-0.899458 42:-0.242516 43:0.154491 44:0.208365 45:-0.926087 46:0.243346 47:-0.611488 48:0.600715 49:0.699913 50:-0.255381 51:1.276400 52:-0.456019 53:0.739824 54:-0.313271 55:-0.790922
-1 1:-0.302437 2:-0.035803 3:0.621705 4:1.443794 5:1.291894 6:2.386495 7:-1.837884 8:0.719767 9:-0.007149 10:0.147411 11:-1.072203 12:-1.236970 13:-0.115943 14:0.143319 15:1.811318 16:1.395897 17:-0.301111 18:-0.801499 19:0.835604 20:-2.098816 21:1.004898 22:-0.742738 23:-1.043529 24:-0.445765 25:0.312340 26:2.608161 27:1.021612 28:-1.433242 29:0.410014 30:1.838522 31:-0.090104 32:0.118373 33:1.182551 34:-1.219563 35:-0.727262 36:-0.521889 37:0.395905 38:1.128620 39:-0.175747 40:-0.593341 41:0.384774 42:-1.226509 43:0.222347 44:-0.366170 45:-0.835692 46:0.217750 47:-0.601359 48:0.035514 49:-0.291416 50:-0.403131 51:-1.381270 52:0.648714 53:0.437597 54:0.039686 55:2.449977
-1 1:0.395740 2:0.085852 3:0.251246 4:-2.316232 5:0.515765 6:2.525710 7:0.649070 8:-0.482616 9:-1.374615 10:-1.372778 11:0.319294 12:0.842467 13:-0.853125 14:-2.222851 15:0.200513 16:-2.036960 17:1.728147 18:1.068927 19:-1.073191 20:1.256736 21:-0.428348 22:-1.562190 23:-0.168473 24:2.265676 25:-0.847903 26:-0.479870 27:-0.489179 28:-2.595250 29:-0.966842 30:0.278877 31:0.850789 32:-0.598758 33:0.130244 34:-0.654784 35:-2.443624 36:0.366943 37:1.481542 38:-0.239663 39:0.523812 40:-1.411423 41:0.617721 42:1.011116 43:-0.754042 44:0.321173 45:-1.087204 46:-0.958044 47:1.564932 48:0.353793 49:-0.837952 50:0.295923 51:-2.958464 52:1.480569 53:0.770244 54:1.266668 55:-0.746650
-1 1:0.400229 2:0.803267 3:0.938399 4:-0.422331 5:0.510832 6:-1.075278 7:1.650915 8:0.778351 9:-1.562126 10:-1.462483 11:1.587610 12:-0.177909 13:-0.681998 14:0.697416 15:-1.256905 16:1.779012 17:0.547632 18:-0.123004 19:-0.384534 20:-0.623377 21:-0.539013 22:0.119539 23:-0.375000 24:0.970432 25:0.719552 26:2.067353 27:-0.307975 28:-0.268760 29:-0.098333 30:0.368596 31:-1.352389 32:0.441745 33:1.125875 34:-1.058777 35:2.326258 36:-0.629837 37:-1.270517 38:-2.076527 39:1.079907 40:-2.964613 41:0.802489 42:-0.480544 43:-2.162451 44:-0.628149 45:-0.479435 46:0.209841 47:0.645963 48:0.257299 49:-0.556633 50:0.990245 51:-0.167266 52:1.609994 53:-0.910675 54:0.173995 55:0.754297
-1 1:0.293590 2:0.431065 3:-0.862517 4:0.759807 5:-0.539598 6:1.949640 7:0.046593 8:1.179133 9:-0.498806 10:-1.776109 11:-0.058118 12:1.162518 13:0.196306 14:0.564278 15:-1.858313 16:0.422497 17:-0.774437 18:0.156456 19:-0.409403 20:-0.657142 21:-2.552282 22:1.111060 23:-0.471979 24:2.797073 25:-1.391355 26:1.200266 27:0.517179 28:0.757458 29:-2.228208 30:0.761982 31:-0.428867 32:1.606481 33:-1.439036 34:-0.729947 35:-0.030866 36:-0.143572 37:-0.137497 38:-1.051991 39:1.059474 40:0.186828 41:-0.721399 42:0.323694 43:0.625831 44:-0.451748 45:-0.465819 46:-0.053748 47:0.676615 48:-1.070859 49:-0.331935 50:-1.030410 51:0.013682 52:0.573395 53:-0.579935 54:-0.873959 55:-1.102790
-1 1:-0.044107 2:-0.490957 3:-0.704508 4:1.305218 5:1.043284 6:-0.189021 7:-1.272315 8:1.162771 9:0.023060 10:-0.376649 11:0.682959 12:-0.272778 13:0.827632 14:-0.389646 15:1.631815 16:-1.625981 17:0.182918 18:1.473289 19:-0.775416 20:-1.638814 21:-0.746678 22:0.709991 23:0.913542 24:0.227131 25:0.058824 26:-0.767711 27:0.571370 28:-0.901920 29:-0.262399 30:0.440086 31:1.095603 32:-2.188821 33:2.395395 34:-0.945703 35:0.825417 36:-0.082140 37:-1.692940 38:-0.937334 39:-0.728214 40:-0.695058 41:0.911835 42:0.565323 43:0.365692 44:0.157690 45:-2.808990 46:-1.655002 47:0.474404 48:-1.019027 49:-2.238227 50:-0.303797 51:0.466814 52:-1.449328 53:-0.074575 54:1.175585 55:-0.649049
-1 1:-1.022739 2:-1.861998 3:-0.759054 4:0.025368 5:-0.300678 6:-0.553102 7:-0.171782 8:-1.258788 9:-0.222148 10:1.002668 11:-0.224295 12:0.608267 13:-1.684615 14:0.772430 15:0.572975 16:0.638902 17:-0.226683 18:0.046921 19:0.811036 20:-0.370755 21:0.543093 22:1.147975 23:-1.288193 24:-1.107702 25:1.304804 26:1.317523 27:2.456683 28:1.422524 29:0.935543 30:-0.084388 31:0.807868 32:-0.075619 33:-0.411568 34:1.278747 35:1.580635 36:-2.067936 37:0.518683 38:0.017625 39:-0.054781 40:0.845529 41:-0.178978 42:1.557798 43:-0.502572 44:-0.708332 45:0.438804 46:-2.339699 47:0.205278 48:0.694215 49:1.556366 50:-1.108646 51:1.289471 52:-0.161798 53:0.672259 54:1.249206 55:-0.218174
-1 1:1.134888 2:-1.080095 3:0.471153 4:0.054358 5:0.003756 6:-0.062020 7:0.242719 8:-0.398412 9:0.395202 10:-0.630300 11:-0.572858 12:0.310940 13:-1.076582 14:-1.287075 15:-0.905012 16:-0.972383 17:-0.000573 18:1.886052 19:-1.105068 20:0.652425 21:0.290696 22:0.349123 23:-0.262448 24:1.854563 25:-0.194047 26:1.581194 27:0.184071 28:0.606435 29:0.151747 30:0.263022 31:-0.633620 32:0.300195 33:1.051200 34:1.657163 35:1.452706 36:-2.029667 37:1.297716 38:-1.916998 39:0.117998 40:1.260800 41:-1.317787 42:0.868177 43:-0.388654 44:1.250989 45:-0.019221 46:0.492855 47:0.305876 48:0.415722 49:-0.066198 50:-2.316624 51:0.591019 52:0.140509 53:-1.184787 54:0.919081 55:0.998343
-1 1:-0.761666 2:1.708416 3:2.763992 4:2.545542 5:0.546714 6:-1.182699 7:0.624203 8:-0.442163 9:0.074931 10:-0.477621 11:0.535401 12:1.066144 13:-0.483717 14:-1.664815 15:-0.845307 16:1.336120 17:-1.370936 18:0.135975 19:2.021449 20:1.850977 21:-0.383030 22:0.467434 23:-1.042413 24:-0.514681 25:1.395660 26:-0.039369 27:2.657352 28:0.559315 29:0.611119 30:0.809858 31:-0.743063 32:-0.883734 33:-0.855180 34:0.715078 35:-0.253717 36:-1.377583 37:-0.480110 38:0.031025 39:1.284011 40:-1.011046 41:-0.558477 42:-1.775328 43:0.224958 44:0.501085 45:-1.353023 46:-1.391786 47:1.691188 48:-0.794940 49:-0.112880 50:1.066107 51:0.880795 52:1.587410 53:1.729224 54:-1.458572 55:0.665483
-1 1:1.866086 2:-0.188967 3:1.896737 4:0.387001 5:0.331029 6:-0.384038 7:0.180435 8:-2.193123 9:-0.923530 10:0.032112 11:-0.983441 12:1.515219 13:-1.291841 14:-0.324587 15:-1.023388 16:-1.328430 17:-2.320737 18:0.342299 19:-0.195396 20:0.672722 21:-0.137956 22:0.102427 23:-1.410887 24:-0.691678 25:-0.147259 26:-0.452862 27:-0.263935 28:1.794754 29:-0.044333 30:0.583486 31:-1.203362 32:0.857768 33:-0.932818 34:0.693109 35:0.109458 36:-0.626301 37:-0.457427 38:-0.890720 39:1.034138 40:-0.211440 41:-0.224011 42:0.300277 43:-0.295039 44:2.283306 45:-0.599319 46:3.409459 47:1.172814 48:0.712881 49:0.850993 50:-0.363426 51:0.354157 52:-1.886786 53:1.880618 54:-1.236909 55:1.311577
-1 1:-0.003057 2:1.394893 3:-0.167590 4:0.545849 5:-0.490815 6:0.764080 7:0.268369 8:0.572362 9:2.905340 10:0.304774 11:0.400391 12:-1.024017 13:0.606780 14:0.121173 15:-0.893790 16:-0.556389 17:0.617552 18:0.153917 19:-2.104492 20:-0.577546 21:0.170881 22:1.129067 23:2.301616 24:0.176638 25:1.578687 26:-1.658398 27:-0.280681 28:2.692262 29:0.855555 30:0.031413 31:0.510998 32:-0.723184 33:0.904313 34:-1.096649 35:-0.140872 36:1.771732 37:0.468760 38:1.077317 39:1.017461 40:-1.512765 41:-1.825281 42:-0.882985 43:1.429385 44:1.290520 45:-1.323594 46:1.184812 47:-1.714885 48:-0.378998 49:-0.401831 50:0.757209 51:-1.430496 52:1.131049 53:-0.231028 54:-1.103864 55:0.111231
-1 1:0.529658 2:0.913469 3:2.027478 4:-0.368659 5:0.917440 6:-1.158728 7:0.018912 8:-1.334141 9:-0.310623 10:-0.498764 11:-0.536728 12:-0.106134 13:-1.300016 14:1.825907 15:0.537582 16:-0.544422 17:-1.797921 18:0.086763 19:-1.376089 20:1.464967 21:1.596316 22:-0.570984 23:1.046137 24:0.446885 25:0.324233 26:-0.041408 27:0.952192 28:0.005478 29:0.005154 30:0.576536 31:0.390875 32:-1.594864 33:0.233074 34:0.817304 35:0.062925 36:-0.355936 37:-0.540688 38:-0.651095 39:-0.099232 40:-1.049485 41:-0.348616 42:-0.219612 43:-0.569620 44:-0.720589 45:0.700708 46:-0.335546 47:1.033886 48:0.848703 49:-0.005795 50:-1.229147 51:-0.236004 52:-1.292857 53:0.081865 54:-1.220542 55:-1.757342
1 1:-0.012655 2:0.035392 3:0.015918 4:0.013211 5:0.049473 6:0.022229 7:0.042016 8:0.033530 9:0.015823 10:0.035384 11:0.043838 12:0.044957 13:0.033709 14:0.050134 15:0.061591 16:0.074217 17:0.059060 18:0.090548 19:0.084809 20:0.103016 21:0.084916 22:0.098880 23:0.100496 24:0.118252 25:0.080752 26:0.109108 27:0.097175 28:0.103943 29:0.100200 30:0.125141 31:0.116224 32:0.116622 33:0.145119 34:0.144352 35:0.125484 36:0.174168 37:0.142565 38:0.182887 39:0.169056 40:0.159338 41:0.161422 42:0.180452 43:0.174456 44:0.197702 45:0.166008 46:0.203340 47:0.182936 48:0.198990 49:0.219920 50:0.220454 51:0.206041 52:0.199102 53:0.244536 54:0.224990 55:0.237867
1 1:0.008624 2:0.000642 3:0.017534 4:0.030604 5:0.039937 6:0.031327 7:0.030076 8:0.022335 9:0.039417 10:0.062786 11:0.057115 12:0.057405 13:0.039875 14:0.052557 15:0.051868 16:0.053807 17:0.069462 18:0.078981 19:0.054138 20:0.073321 21:0.073851 22:0.089583 23:0.085336 24:0.103707 25:0.106080 26:0.108182 27:0.110166 28:0.130141 29:0.112812 30:0.111416 31:0.113805 32:0.133713 33:0.152928 34:0.165272 35:0.153369 36:0.143878 37:0.158472 38:0.157586 39:0.163783 40:0.175698 41:0.171445 42:0.169235 43:0.177137 44:0.199503 45:0.199380 46:0.178152 47:0.189660 48:0.192745 49:0.205323 50:0.209789 51:0.211405 52:0.221936 53:0.215950 54:0.235740 55:0.234752
1 1:0.020184 2:0.001731 3:0.014668 4:0.040557 5:0.042661 6:0.040116 7:0.024199 8:0.039669 9:0.034716 10:0.046352 11:0.049515 12:0.046861 13:0.030986 14:0.047080 15:0.055459 16:0.075852 17:0.069879 18:0.068523 19:0.068539 20:0.072921 21:0.079884 22:0.063549 23:0.097404 24:0.112861 25:0.091973 26:0.108265 27:0.106885 28:0.118739 29:0.121190 30:0.117885 31:0.124910 32:0.128798 33:0.135470 34:0.148629 35:0.147188 36:0.153391 37:0.135837 38:0.160071 39:0.156195 40:0.165338 41:0.164052 42:0.167111 43:0.159149 44:0.205115 45:0.182675 46:0.191102 47:0.214267 48:0.197756 49:0.216955 50:0.226467 51:0.205339 52:0.208039 53:0.243314 54:0.239693 55:0.233174
1 1:0.010194 2:0.011190 3:0.016692 4:0.024876 5:0.029193 6:0.040055 7:0.027342 8:0.032139 9:0.029461 10:0.037016 11:0.038233 12:0.044920 13:0.044816 14:0.057765 15:0.063599 16:0.068910 17:0.069144 18:0.081697 19:0.082049 20:0.078032 21:0.061620 22:0.096334 23:0.095469 24:0.101216 25:0.087285 26:0.107301 27:0.127623 28:0.119049 29:0.128067 30:0.116099 31:0.139141 32:0.133323 33:0.127367 34:0.155752 35:0.145697 36:0.144129 37:0.163323 38:0.158215 39:0.149130 40:0.164767 41:0.169816 42:0.178016 43:0.172473 44:0.202110 45:0.186877 46:0.194911 47:0.206526 48:0.189843 49:0.216204 50:0.210020 51:0.235818 52:0.223006 53:0.217891 54:0.201878 55:0.225230
1 1:0.009287 2:-0.002197 3:0.021982 4:0.014713 5:0.000020 6:0.020953 7:0.010997 8:0.043644 9:0.046370 10:0.040076 11:0.027424 12:0.057565 13:0.029460 14:0.065794 15:0.071687 16:0.076277 17:0.090862 18:0.083524 19:0.090328 20:0.071494 21:0.090366 22:0.099285 23:0.095327 24:0.102894 25:0.091500 26:0.100227 27:0.115262 28:0.114011 29:0.121934 30:0.121888 31:0.127344 32:0.129777 33:0.149818 34:0.119598 35:0.140703 36:0.163098 37:0.165146 38:0.149464 39:0.154453 40:0.192502 41:0.154338 42:0.169418 43:0.171441 44:0.172834 45:0.183020 46:0.192401 47:0.202509 48:0.196617 49:0.200648 50:0.200432 51:0.218417 52:0.223009 53:0.229262 54:0.246488 55:0.228587
1 1:0.004394 2:0.013584 3:0.020736 4:0.001977 5:0.043425 6:0.017729 7:0.028914 8:0.048846 9:0.023037 10:0.033416 11:0.029451 12:0.055123 13:0.053237 14:0.058871 15:0.068241 16:0.051677 17:0.079737 18:0.070957 19:0.067922 20:0.071917 21:0.072490 22:0.089680 23:0.083289 24:0.094730 25:0.099495 26:0.088961 27:0.121732 28:0.113100 29:0.109901 30:0.114132 31:0.125704 32:0.137657 33:0.130565 34:0.154823 35:0.152859 36:0.163884 37:0.144787 38:0.156830 39:0.166054 40:0.158765 41:0.189862 42:0.144485 43:0.186489 44:0.172952 45:0.195790 46:0.205713 47:0.194324 48:0.221041 49:0.215537 50:0.214882 51:0.203482 52:0.209089 53:0.228829 54:0.227662 55:0.242243
1 1:0.001928 2:0.011883 3:0.022630 4:0.013970 5:0.013326 6:0.037759 7:0.050379 8:0.047023 9:0.031827 10:0.033180 11:0.047928 12:0.056675 13:0.048953 14:0.068882 15:0.056710 16:0.079176 17:0.063982 18:0.071699 19:0.094184 20:0.098847 21:0.081555 22:0.097499 23:0.084625 24:0.114543 25:0.094473 26:0.097247 27:0.118137 28:0.106597 29:0.116200 30:0.112189 31:0.132516 32:0.131787 33:0.147257 34:0.144230 35:0.145383 36:0.141176 37:0.141252 38:0.176488 39:0.163304 40:0.173148 41:0.170003 42:0.163559 43:0.164725 44:0.177635 45:0.189963 46:0.199215 47:0.198631 48:0.205563 49:0.204804 50:0.205216 51:0.212587 52:0.212157 53:0.217467 54:0.248591 55:0.230296
1 1:-0.009754 2:-0.007072 3:0.006865 4:0.027899 5:0.025837 6:0.033872 7:0.024136 8:0.021009 9:0.028443 10:0.035256 11:0.035093 12:0.052447 13:0.070059 14:0.032598 15:0.062018 16:0.047373 17:0.081593 18:0.078808 19:0.078249 20:0.100841 21:0.074756 22:0.083224 23:0.088513 24:0.083816 25:0.108322 26:0.102605 27:0.093525 28:0.118092 29:0.118008 30:0.116607 31:0.126983 32:0.133663 33:0.143263 34:0.134477 35:0.136510 36:0.152069 37:0.152233 38:0.170019 39:0.157508 40:0.170718 41:0.160672 42:0.184020 43:0.169074 44:0.192348 45:0.201028 46:0.197551 47:0.189420 48:0.195501 49:0.213281 50:0.198389 51:0.221809 52:0.232790 53:0.222013 54:0.246249 55:0.227426
1 1:0.005327 2:0.001634 3:0.021542 4:0.032731 5:0.009529 6:0.030600 7:0.021031 8:0.022352 9:0.048888 10:0.049881 11:0.044181 12:0.044912 13:0.054213 14:0.071561 15:0.047349 16:0.073212 17:0.068888 18:0.076591 19:0.074706 20:0.056363 21:0.083777 22:0.114863 23:0.121542 24:0.102016 25:0.099809 26:0.106763 27:0.112804 28:0.130090 29:0.112772 30:0.122529 31:0.140019 32:0.147648 33:0.137689 34:0.136145 35:0.168750 36:0.162957 37:0.136766 38:0.162974 39:0.173493 40:0.160471 41:0.166269 42:0.158384 43:0.176706 44:0.163830 45:0.205980 46:0.188063 47:0.184658 48:0.199474 49:0.225512 50:0.214841 51:0.196566 52:0.225434 53:0.215915 54:0.223030 55:0.219307
1 1:0.008818 2:0.027209 3:0.009376 4:0.018901 5:0.005148 6:0.022102 7:0.015813 8:0.031419 9:0.024984 10:0.013516 11:0.034021 12:0.034599 13:0.049273 14:0.059072 15:0.065443 16:0.073427 17:0.070542 18:0.073289 19:0.064696 20:0.080775 21:0.093508 22:0.113462 23:0.102664 24:0.092053 25:0.096587 26:0.098670 27:0.113006 28:0.097187 29:0.118248 30:0.130747 31:0.135464 32:0.118392 33:0.153384 34:0.152024 35:0.137961 36:0.139918 37:0.150771 38:0.144875 39:0.175265 40:0.151535 41:0.174886 42:0.178534 43:0.191297 44:0.179729 45:0.170954 46:0.188946 47:0.190809 48:0.210526 49:0.207215 50:0.204640 51:0.231052 52:0.217094 53:0.219488 54:0.240625 55:0.246476
1 1:0.007811 2:0.008762 3:0.005367 4:0.019705 5:0.022356 6:0.040746 7:0.025932 8:0.028728 9:0.035717 10:0.045654 11:0.036277 12:0.063501 13:0.048946 14:0.066014 15:0.066524 16:0.039371 17:0.060557 18:0.060597 19:0.072266 20:0.056388 21:0.089330 22:0.094330 23:0.098992 24:0.085912 25:0.096533 26:0.122482 27:0.130335 28:0.117891 29:0.121400 30:0.138418 31:0.142588 32:0.128265 33:0.149631 34:0.150457 35:0.150669 36:0.142386 37:0.145339 38:0.156771 39:0.185469 40:0.180312 41:0.167930 42:0.177630 43:0.189299 44:0.198763 45:0.182533 46:0.201833 47:0.191731 48:0.190658 49:0.189418 50:0.202697 51:0.204471 52:0.229589 53:0.219844 54:0.221609 55:0.216481
1 1:0.006799 2:0.005955 3:0.001720 4:0.013551 5:0.019741 6:0.016614 7:0.027608 8:0.021907 9:0.054427 10:0.033604 11:0.018927 12:0.024790 13:0.030530 14:0.063733 15:0.070164 16:0.058515 17:0.076214 18:0.091550 19:0.076725 20:0.079939 21:0.063859 22:0.097685 23:0.092036 24:0.085457 25:0.102052 26:0.118732 27:0.116497 28:0.112420 29:0.124211 30:0.116813 31:0.137001 32:0.133933 33:0.142750 34:0.149772 35:0.142776 36:0.138094 37:0.143582 38:0.160210 39:0.158770 40:0.179182 41:0.190532 42:0.184341 43:0.172303 44:0.188102 45:0.185867 46:0.205153 47:0.202465 48:0.196518 49:0.184879 50:0.212974 51:0.218379 52:0.206597 53:0.227477 54:0.234411 55:0.230192
1 1:-0.009221 2:0.012436 3:0.020688 4:0.017726 5:0.038184 6:0.023342 7:0.019953 8:0.032221 9:0.027119 10:0.042277 11:0.049870 12:0.044066 13:0.063003 14:0.058587 15:0.062224 16:0.076851 17:0.077062 18:0.071860 19:0.074650 20:0.082760 21:0.086777 22:0.103781 23:0.093985 24:0.100940 25:0.086430 26:0.091676 27:0.100643 28:0.119747 29:0.125105 30:0.142126 31:0.122422 32:0.122871 33:0.134878 34:0.158255 35:0.159923 36:0.143874 37:0.159043 38:0.174949 39:0.157100 40:0.166587 41:0.161815 42:0.172877 43:0.171262 44:0.188878 45:0.217129 46:0.195741 47:0.195075 48:0.200181 49:0.205340 50:0.211864 51:0.219137 52:0.216276 53:0.196443 54:0.224769 55:0.225517
1 1:0.009552 2:0.017689 3:-0.004436 4:0.013712 5:0.025007 6:0.026002 7:0.029938 8:0.035065 9:0.040789 10:0.046506 11:0.053567 12:0.055067 13:0.056012 14:0.031961 15:0.069997 16:0.048044 17:0.063710 18:0.069605 19:0.073367 20:0.062433 21:0.099543 22:0.091289 23:0.096639 24:0.115095 25:0.102117 26:0.082933 27:0.129849 28:0.124438 29:0.112702 30:0.157889 31:0.120355 32:0.151203 33:0.141774 34:0.140266 35:0.133629 36:0.150028 37:0.158875 38:0.153213 39:0.170413 40:0.161793 41:0.171223 42:0.182201 43:0.172380 44:0.195692 45:0.183663 46:0.186182 47:0.192484 48:0.169256 49:0.206389 50:0.228821 51:0.203337 52:0.223145 53:0.217084 54:0.228788 55:0.238681
1 1:-0.011473 2:0.000504 3:0.027165 4:-0.003354 5:0.018727 6:0.023834 7:0.032551 8:0.041015 9:0.029624 10:0.024926 11:0.051411 12:0.038623 13:0.056515 14:0.054982 15:0.073053 16:0.059199 17:0.071926 18:0.085404 19:0.087345 20:0.075396 21:0.092614 22:0.087052 23:0.097331 24:0.097243 25:0.105258 26:0.093461 27:0.095792 28:0.131574 29:0.111806 30:0.139913 31:0.117482 32:0.146083 33:0.129482 34:0.135192 35:0.152777 36:0.152953 37:0.171869 38:0.164431 39:0.173768 40:0.174231 41:0.172352 42:0.148509 43:0.178463 44:0.186492 45:0.195538 46:0.184932 47:0.202740 48:0.203486 49:0.206016 50:0.200802 51:0.223009 52:0.219339 53:0.209718 54:0.235069 55:0.219763
1 1:-0.004513 2:0.003844 3:0.003989 4:0.028027 5:0.019341 6:0.032512 7:0.032418 8:0.046912 9:0.046352 10:0.039901 11:0.044656 12:0.037543 13:0.048716 14:0.058227 15:0.086597 16:0.067382 17:0.075111 18:0.094973 19:0.084143 20:0.064253 21:0.065679 22:0.086308 23:0.094633 24:0.096899 25:0.106023 26:0.124073 27:0.107724 28:0.106511 29:0.127861 30:0.129657 31:0.150273 32:0.142941 33:0.137957 34:0.139124 35:0.136617 36:0.139861 37:0.156180 38:0.164786 39:0.143862 40:0.169495 41:0.173196 42:0.171696 43:0.171051 44:0.175322 45:0.189559 46:0.198454 47:0.208166 48:0.189806 49:0.198641 50:0.233529 51:0.208466 52:0.233457 53:0.193703 54:0.227898 55:0.233779
1 1:0.001020 2:-0.008379 3:0.006362 4:0.015779 5:0.016057 6:0.037762 7:0.028875 8:0.024467 9:0.030937 10:0.031580 11:0.045157 12:0.047930 13:0.073461 14:0.059952 15:0.064789 16:0.075083 17:0.086390 18:0.081973 19:0.077101 20:0.068858 21:0.083565 22:0.068450 23:0.084177 24:0.095068 25:0.105440 26:0.132472 27:0.132295 28:0.122672 29:0.138906 30:0.122911 31:0.123614 32:0.118629 33:0.122500 34:0.138334 35:0.156206 36:0.165894 37:0.166580 38:0.177609 39:0.176595 40:0.163036 41:0.174864 42:0.177004 43:0.173294 44:0.176640 45:0.204032 46:0.189990 47:0.192564 48:0.198926 49:0.184755 50:0.192029 51:0.193825 52:0.226970 53:0.205489 54:0.217195 55:0.252266
1 1:0.026308 2:0.020190 3:0.018359 4:0.044057 5:0.008602 6:0.027010 7:0.023434 8:0.038449 9:0.022329 10:0.027785 11:0.057737 12:0.037181 13:0.037130 14:0.071807 15:0.048853 16:0.073310 17:0.074288 18:0.075448 19:0.079961 20:0.065667 21:0.097051 22:0.104995 23:0.083158 24:0.085346 25:0.109432 26:0.104269 27:0.096218 28:0.111568 29:0.116544 30:0.134266 31:0.127815 32:0.136533 33:0.145072 34:0.148319 35:0.136246 36:0.126374 37:0.173057 38:0.149659 39:0.158788 40:0.167992 41:0.173027 42:0.176089 43:0.171086 44:0.180757 45:0.195319 46:0.194662 47:0.209194 48:0.194977 49:0.215395 50:0.203698 51:0.195054 52:0.234152 53:0.230984 54:0.236462 55:0.227399
1 1:0.011494 2:0.013045 3:0.009928 4:-0.014198 5:0.026515 6:0.027741 7:0.036981 8:0.034836 9:0.049477 10:0.038802 11:0.034940 12:0.051597 13:0.044147 14:0.064127 15:0.062304 16:0.063804 17:0.075240 18:0.081453 19:0.083058 20:0.082335 21:0.090858 22:0.087746 23:0.095464 24:0.098408 25:0.093816 26:0.119978 27:0.094640 28:0.127885 29:0.131243 30:0.142317 31:0.145543 32:0.137485 33:0.120777 34:0.165288 35:0.132552 36:0.165002 37:0.142461 38:0.158198 39:0.144478 40:0.153013 41:0.167203 42:0.168545 43:0.183192 44:0.182580 45:0.179877 46:0.185743 47:0.202264 48:0.202657 49:0.212409 50:0.215966 51:0.218535 52:0.217528 53:0.232374 54:0.215609 55:0.225764
1 1:-0.012179 2:0.003166 3:0.022433 4:0.023074 5:0.024841 6:0.037862 7:0.026877 8:0.028964 9:0.015733 10:0.062265 11:0.052216 12:0.038420 13:0.050814 14:0.074527 15:0.047532 16:0.063913 17:0.069252 18:0.059434 19:0.092573 20:0.099804 21:0.094218 22:0.089587 23:0.083259 24:0.108845 25:0.115254 26:0.099985 27:0.106489 28:0.132634 29:0.141578 30:0.127598 31:0.144031 32:0.131901 33:0.130906 34:0.150805 35:0.158068 36:0.153210 37:0.144727 38:0.149804 39:0.172211 40:0.167856 41:0.165147 42:0.181583 43:0.170388 44:0.161986 45:0.194725 46:0.207729 47:0.205134 48:0.195405 49:0.203079 50:0.182144 51:0.213799 52:0.224391 53:0.220335 54:0.221495 55:0.220617
1 1:0.005743 2:0.010237 3:0.019732 4:0.001048 5:0.006147 6:0.015010 7:0.035981 8:0.037790 9:0.028835 10:0.041803 11:0.055376 12:0.048252 13:0.045172 14:0.044400 15:0.062654 16:0.079432 17:0.059086 18:0.072585 19:0.065147 20:0.056403 21:0.100078 22:0.082025 23:0.089651 24:0.096177 25:0.110568 26:0.100579 27:0.105919 28:0.115771 29:0.124646 30:0.146087 31:0.110905 32:0.135336 33:0.131600 34:0.129862 35:0.146359 36:0.140996 37:0.138549 38:0.148641 39:0.163217 40:0.197011 41:0.169645 42:0.194233 43:0.188904 44:0.181933 45:0.180949 46:0.200377 47:0.193952 48:0.210257 49:0.220012 50:0.219526 51:0.217988 52:0.218805 53:0.205293 54:0.233536 55:0.220637
1 1:0.013129 2:0.009448 3:0.006068 4:0.021069 5:0.023804 6:0.023783 7:0.051737 8:0.038395 9:0.028850 10:0.052678 11:0.046613 12:0.035307 13:0.042077 14:0.064596 15:0.078289 16:0.059268 17:0.067709 18:0.067878 19:0.077725 20:0.079242 21:0.090134 22:0.066085 23:0.087121 24:0.099409 25:0.107017 26:0.102899 27:0.123832 28:0.114473 29:0.107030 30:0.117841 31:0.135210 32:0.138666 33:0.142635 34:0.124438 35:0.141179 36:0.152422 37:0.158190 38:0.158106 39:0.176082 40:0.176554 41:0.172288 42:0.168940 43:0.199706 44:0.176749 45:0.214803 46:0.192171 47:0.195411 48:0.193676 49:0.207610 50:0.198920 51:0.211896 52:0.214702 53:0.214682 54:0.235704 55:0.227900
1 1:-0.008868 2:0.014154 3:0.007254 4:0.015173 5:0.021936 6:0.024586 7:0.035726 8:0.043868 9:0.022656 10:0.040639 11:0.044082 12:0.049521 13:0.040827 14:0.064007 15:0.062543 16:0.081628 17:0.083326 18:0.073598 19:0.087834 20:0.078937 21:0.076838 22:0.079735 23:0.102443 24:0.109295 25:0.106718 26:0.095691 27:0.108669 28:0.117044 29:0.112397 30:0.110879 31:0.133906 32:0.149897 33:0.126522 34:0.148788 35:0.134463 36:0.152154 37:0.135732 38:0.175434 39:0.156320 40:0.172374 41:0.160760 42:0.181426 43:0.179364 44:0.185198 45:0.195160 46:0.199329 47:0.197099 48:0.199388 49:0.213436 50:0.215454 51:0.211505 52:0.215158 53:0.216746 54:0.225052 55:0.234213
1 1:0.005182 2:0.028878 3:0.021965 4:0.029442 5:0.041776 6:0.019764 7:0.026338 8:0.030519 9:0.023166 10:0.057185 11:0.037541 12:0.033327 13:0.050280 14:0.045395 15:0.062777 16:0.062906 17:0.065456 18:0.071590 19:0.065348 20:0.084220 21:0.091791 22:0.082021 23:0.115833 24:0.083722 25:0.099141 26:0.109943 27:0.108091 28:0.119676 29:0.119036 30:0.141782 31:0.127017 32:0.134044 33:0.152756 34:0.147590 35:0.139328 36:0.143147 37:0.143404 38:0.148144 39:0.174822 40:0.158993 41:0.178306 42:0.178474 43:0.183491 44:0.171990 45:0.179013 46:0.203133 47:0.191304 48:0.197806 49:0.219198 50:0.211072 51:0.215342 52:0.224292 53:0.223444 54:0.228405 55:0.227797
1 1:-0.007860 2:-0.001171 3:-0.010781 4:0.014538 5:0.021080 6:0.016085 7:0.041692 8:0.024839 9:0.020325 10:0.041500 11:0.048165 12:0.040200 13:0.058253 14:0.062858 15:0.046169 16:0.076244 17:0.080747 18:0.069178 19:0.098658 20:0.074551 21:0.110237 22:0.097257 23:0.076853 24:0.112835 25:0.094006 26:0.105655 27:0.144395 28:0.105714 29:0.107429 30:0.145343 31:0.138194 32:0.122922 33:0.132303 34:0.143803 35:0.145138 36:0.139667 37:0.139203 38:0.150576 39:0.164466 40:0.177748 41:0.143066 42:0.185192 43:0.182636 44:0.177894 45:0.193189 46:0.194133 47:0.203499 48:0.209760 49:0.191794 50:0.193767 51:0.216596 52:0.213215 53:0.220286 54:0.239887 55:0.238817
1 1:-0.006841 2:0.020603 3:0.010649 4:-0.016015 5:0.023253 6:0.032630 7:0.014783 8:0.019603 9:0.037934 10:0.043964 11:0.033238 12:0.041462 13:0.064185 14:0.060773 15:0.078409 16:0.067989 17:0.074777 18:0.087382 19:0.107762 20:0.080797 21:0.083056 22:0.073829 23:0.096268 24:0.110688 25:0.086348 26:0.095307 27:0.110163 28:0.113130 29:0.117229 30:0.129711 31:0.135966 32:0.142165 33:0.135378 34:0.125034 35:0.134250 36:0.141848 37:0.186432 38:0.164678 39:0.184150 40:0.164236 41:0.165621 42:0.173130 43:0.195652 44:0.181339 45:0.193158 46:0.187026 47:0.195596 48:0.193535 49:0.191981 50:0.201985 51:0.228058 52:0.196631 53:0.237531 54:0.218822 55:0.228316
1 1:0.017870 2:0.012593 3:0.025268 4:0.005425 5:0.038828 6:0.024097 7:0.031659 8:0.039016 9:0.028039 10:0.043521 11:0.037046 12:0.025234 13:0.036599 14:0.041032 15:0.049311 16:0.079745 17:0.077426 18:0.082845 19:0.066984 20:0.096017 21:0.077962 22:0.108864 23:0.085943 24:0.123793 25:0.116507 26:0.116455 27:0.090048 28:0.121432 29:0.131437 30:0.116890 31:0.133233 32:0.145295 33:0.126887 34:0.136432 35:0.139642 36:0.152894 37:0.144314 38:0.159834 39:0.179538 40:0.169164 41:0.176894 42:0.164747 43:0.172957 44:0.179268 45:0.211564 46:0.187282 47:0.197147 48:0.188732 49:0.199593 50:0.205260 51:0.207934 52:0.222366 53:0.239321 54:0.219504 55:0.225864
1 1:0.013092 2:0.010292 3:0.010774 4:0.008845 5:0.033828 6:0.028642 7:0.003450 8:0.026605 9:0.048792 10:0.045684 11:0.050890 12:0.049089 13:0.064172 14:0.041527 15:0.057844 16:0.073337 17:0.083483 18:0.079421 19:0.071831 20:0.100471 21:0.093797 22:0.091647 23:0.087056 24:0.096057 25:0.114021 26:0.104605 27:0.114375 28:0.120477 29:0.126785 30:0.136481 31:0.119424 32:0.161622 33:0.135677 34:0.152397 35:0.154135 36:0.153466 37:0.139658 38:0.148826 39:0.175937 40:0.170295 41:0.162908 42:0.162479 43:0.185720 44:0.188146 45:0.181243 46:0.179881 47:0.203152 48:0.195872 49:0.207502 50:0.229488 51:0.204793 52:0.211661 53:0.224268 54:0.225861 55:0.204100
1 1:-0.023464 2:0.004531 3:0.036694 4:0.026982 5:0.018201 6:0.030321 7:0.020868 8:0.040143 9:0.036011 10:0.038135 11:0.037709 12:0.031438 13:0.066729 14:0.051117 15:0.062191 16:0.080797 17:0.049761 18:0.066724 19:0.071924 20:0.077572 21:0.098775 22:0.091195 23:0.085918 24:0.105382 25:0.113270 26:0.116127 27:0.130600 28:0.113885 29:0.138462 30:0.120726 31:0.130464 32:0.134912 33:0.128600 34:0.145205 35:0.148200 36:0.140823 37:0.152453 38:0.138547 39:0.166364 40:0.166357 41:0.175169 42:0.164073 43:0.186369 44:0.189303 45:0.177099 46:0.180963 47:0.195063 48:0.194660 49:0.205888 50:0.204015 51:0.224674 52:0.220656 53:0.243266 54:0.211100 55:0.243087
1 1:0.030083 2:0.005603 3:-0.007888 4:0.020642 5:0.043864 6:0.022089 7:0.023402 8:0.037138 9:0.028248 10:0.038243 11:0.045112 12:0.026938 13:0.063148 14:0.059854 15:0.054362 16:0.066718 17:0.057866 18:0.070021 19:0.072833 20:0.096263 21:0.102042 22:0.109786 23:0.111156 24:0.113589 25:0.092248 26:0.101619 27:0.122099 28:0.126834 29:0.111635 30:0.101095 31:0.141136 32:0.128996 33:0.132319 34:0.128357 35:0.168507 36:0.158279 37:0.158000 38:0.154743 39:0.141999 40:0.169052 41:0.175175 42:0.186176 43:0.178487 44:0.182729 45:0.197144 46:0.186831 47:0.192175 48:0.197029 49:0.210323 50:0.215442 51:0.227056 52:0.191819 53:0.225469 54:0.220078 55:0.226159
1 1:0.006351 2:0.033493 3:0.008940 4:0.014088 5:0.020976 6:0.026346 7:0.019143 8:0.025810 9:0.007974 10:0.049058 11:0.043617 12:0.059805 13:0.044291 14:0.053513 15:0.089830 16:0.071362 17:0.054776 18:0.079228 19:0.073988 20:0.097109 21:0.106407 22:0.087657 23:0.098476 24:0.092051 25:0.109196 26:0.108962 27:0.091392 28:0.101807 29:0.109889 30:0.122417 31:0.142057 32:0.139827 33:0.121783 34:0.160730 35:0.160948 36:0.147680 37:0.152620 38:0.174749 39:0.180694 40:0.168478 41:0.167587 42:0.153566 43:0.197116 44:0.164760 45:0.191603 46:0.193736 47:0.198334 48:0.207039 49:0.204701 50:0.197464 51:0.215768 52:0.214230 53:0.212201 54:0.228057 55:0.228137
1 1:-0.002627 2:0.006588 3:-0.000249 4:0.037295 5:0.023267 6:0.003181 7:0.034159 8:0.025221 9:0.031564 10:0.041269 11:0.041136 12:0.021944 13:0.049802 14:0.046952 15:0.076284 16:0.074409 17:0.064578 18:0.063761 19:0.078738 20:0.070222 21:0.076137 22:0.087099 23:0.095365 24:0.105135 25:0.092072 26:0.105751 27:0.100327 28:0.119514 29:0.125820 30:0.122319 31:0.133502 32:0.132078 33:0.147706 34:0.129215 35:0.157170 36:0.136098 37:0.163503 38:0.157267 39:0.167429 40:0.160667 41:0.167160 42:0.165381 43:0.188846 44:0.180554 45:0.205206 46:0.211702 47:0.175175 48:0.198049 49:0.205980 50:0.219069 51:0.224067 52:0.242486 53:0.214760 54:0.227174 55:0.218462
1 1:-0.014196 2:0.002971 3:0.018908 4:0.025989 5:0.027332 6:0.016903 7:0.023310 8:0.021774 9:0.047176 10:0.039808 11:0.038082 12:0.030132 13:0.055245 14:0.077555 15:0.087113 16:0.065080 17:0.073712 18:0.063450 19:0.079158 20:0.072524 21:0.075688 22:0.069239 23:0.101190 24:0.073362 25:0.099888 26:0.134565 27:0.115478 28:0.121259 29:0.123205 30:0.119044 31:0.124896 32:0.128129 33:0.136368 34:0.152854 35:0.153004 36:0.134664 37:0.149195 38:0.149577 39:0.157032 40:0.164747 41:0.169639 42:0.159625 43:0.196606 44:0.175885 45:0.199830 46:0.191390 47:0.194813 48:0.195782 49:0.202784 50:0.216481 51:0.207517 52:0.234220 53:0.224431 54:0.246716 55:0.226385
1 1:-0.020501 2:0.020225 3:-0.010765 4:-0.004821 5:0.018396 6:0.032899 7:0.019857 8:0.040094 9:0.035066 10:0.036656 11:0.047187 12:0.050358 13:0.043544 14:0.079067 15:0.057806 16:0.069712 17:0.073972 18:0.069087 19:0.071883 20:0.073157 21:0.086680 22:0.076753 23:0.084835 24:0.101239 25:0.108710 26:0.116259 27:0.094245 28:0.106561 29:0.120285 30:0.131157 31:0.118663 32:0.139409 33:0.148852 34:0.147445 35:0.145533 36:0.159362 37:0.153593 38:0.155615 39:0.156171 40:0.172854 41:0.166198 42:0.167380 43:0.177547 44:0.182921 45:0.195702 46:0.203755 47:0.200840 48:0.187594 49:0.211299 50:0.205375 51:0.211394 52:0.228268 53:0.218183 54:0.235531 55:0.233109
1 1:0.002619 2:0.001062 3:0.013566 4:-0.005698 5:0.010367 6:0.023587 7:0.030967 8:0.025159 9:0.042282 10:0.037908 11:0.032703 12:0.049985 13:0.085834 14:0.066506 15:0.059092 16:0.053275 17:0.082327 18:0.062408 19:0.078292 20:0.092284 21:0.087057 22:0.096053 23:0.082058 24:0.107426 25:0.095677 26:0.106232 27:0.103878 28:0.128288 29:0.135713 30:0.107134 31:0.123705 32:0.134811 33:0.136613 34:0.142597 35:0.148847 36:0.133742 37:0.156242 38:0.146785 39:0.146364 40:0.172776 41:0.182332 42:0.168330 43:0.173804 44:0.197291 45:0.200468 46:0.192220 47:0.182991 48:0.201207 49:0.219608 50:0.212641 51:0.209965 52:0.207228 53:0.226821 54:0.240386 55:0.230988
1 1:0.011972 2:0.000190 3:0.008406 4:0.004580 5:0.021194 6:0.017651 7:0.030551 8:0.037052 9:0.045882 10:0.064222 11:0.050379 12:0.027676 13:0.049628 14:0.052758 15:0.062243 16:0.047673 17:0.066241 18:0.093122 19:0.078349 20:0.085615 21:0.092132 22:0.073527 23:0.070779 24:0.098624 25:0.109353 26:0.105643 27:0.116286 28:0.126208 29:0.113475 30:0.124257 31:0.123300 32:0.123774 33:0.138700 34:0.146704 35:0.141372 36:0.176862 37:0.159065 38:0.165475 39:0.169067 40:0.160223 41:0.162731 42:0.178523 43:0.183782 44:0.169020 45:0.193830 46:0.172080 47:0.196190 48:0.200448 49:0.196752 50:0.212672 51:0.227394 52:0.214602 53:0.240557 54:0.228064 55:0.228275
1 1:0.002859 2:-0.001189 3:0.007501 4:0.000982 5:0.027111 6:0.026580 7:0.046318 8:0.021681 9:0.025715 10:0.057303 11:0.046095 12:0.048646 13:0.052969 14:0.050141 15:0.082990 16:0.064141 17:0.073927 18:0.078243 19:0.079209 20:0.083846 21:0.104168 22:0.093737 23:0.101050 24:0.070431 25:0.121412 26:0.120060 27:0.116259 28:0.119323 29:0.134782 30:0.126107 31:0.114578 32:0.125510 33:0.143817 34:0.152236 35:0.138363 36:0.133920 37:0.155881 38:0.148044 39:0.162339 40:0.160811 41:0.162790 42:0.174144 43:0.164882 44:0.197773 45:0.171562 46:0.186433 47:0.186776 48:0.217896 49:0.203930 50:0.230111 51:0.201976 52:0.229008 53:0.216095 54:0.221596 55:0.242757
1 1:-0.014004 2:0.018502 3:0.012688 4:0.031493 5:0.017482 6:0.028146 7:0.032717 8:0.023102 9:0.022795 10:0.045899 11:0.065791 12:0.041274 13:0.060283 14:0.061826 15:0.074507 16:0.070195 17:0.067383 18:0.104209 19:0.084925 20:0.066211 21:0.108212 22:0.082687 23:0.099795 24:0.098400 25:0.087628 26:0.120136 27:0.128058 28:0.138724 29:0.099751 30:0.124215 31:0.116845 32:0.113452 33:0.123805 34:0.144825 35:0.147239 36:0.135860 37:0.178023 38:0.148438 39:0.160393 40:0.155083 41:0.185172 42:0.173009 43:0.187311 44:0.185581 45:0.183910 46:0.195798 47:0.190880 48:0.202092 49:0.199123 50:0.217784 51:0.207195 52:0.224200 53:0.236404 54:0.203030 55:0.231655
1 1:0.001674 2:0.000481 3:0.005760 4:0.013945 5:0.015903 6:0.027461 7:0.041146 8:0.043009 9:0.041631 10:0.043076 11:0.050978 12:0.053047 13:0.063665 14:0.066998 15:0.074226 16:0.052534 17:0.066243 18:0.076203 19:0.093824 20:0.077381 21:0.063891 22:0.102641 23:0.095565 24:0.109216 25:0.108474 26:0.111160 27:0.108992 28:0.131141 29:0.117208 30:0.128399 31:0.112993 32:0.154648 33:0.122738 34:0.138316 35:0.140860 36:0.144730 37:0.173130 38:0.163852 39:0.160782 40:0.149996 41:0.178890 42:0.146037 43:0.180391 44:0.184913 45:0.164673 46:0.190751 47:0.195121 48:0.208456 49:0.205862 50:0.213188 51:0.221737 52:0.205183 53:0.239407 54:0.238271 55:0.224062
1 1:0.006005 2:0.004808 3:0.020675 4:0.024751 5:0.022468 6:0.032553 7:0.022789 8:0.027519 9:0.057863 10:0.043437 11:0.042549 12:0.065191 13:0.076951 14:0.059143 15:0.050645 16:0.075014 17:0.074313 18:0.080018 19:0.081145 20:0.084105 21:0.084198 22:0.081883 23:0.102034 24:0.080285 25:0.104368 26:0.131361 27:0.098472 28:0.122232 29:0.111858 30:0.114898 31:0.135917 32:0.142611 33:0.132553 34:0.152639 35:0.162665 36:0.164705 37:0.153163 38:0.167955 39:0.167710 40:0.165838 41:0.165208 42:0.158810 43:0.173646 44:0.177712 45:0.186217 46:0.193889 47:0.202172 48:0.187694 49:0.201180 50:0.209702 51:0.217005 52:0.222910 53:0.220631 54:0.197635 55:0.245496
1 1:0.018933 2:0.000725 3:0.007966 4:0.019571 5:0.028078 6:0.012604 7:0.018386 8:0.029596 9:0.052023 10:0.055592 11:0.047383 12:0.043176 13:0.061796 14:0.068753 15:0.050859 16:0.062633 17:0.069226 18:0.082467 19:0.086002 20:0.055351 21:0.090009 22:0.088288 23:0.085670 24:0.083107 25:0.110978 26:0.125893 27:0.108024 28:0.113948 29:0.131228 30:0.128763 31:0.116840 32:0.120196 33:0.150147 34:0.150332 35:0.130057 36:0.163353 37:0.134967 38:0.158988 39:0.176238 40:0.182518 41:0.181321 42:0.170445 43:0.171768 44:0.182938 45:0.192600 46:0.193900 47:0.189399 48:0.215312 49:0.198522 50:0.223202 51:0.214256 52:0.218215 53:0.192423 54:0.246940 55:0.214398
1 1:0.023711 2:-0.003849 3:0.009007 4:0.015917 5:0.008050 6:0.026466 7:0.030390 8:0.041001 9:0.057722 10:0.028833 11:0.021128 12:0.042382 13:0.061074 14:0.040773 15:0.078261 16:0.061824 17:0.063150 18:0.069433 19:0.079491 20:0.076938 21:0.090949 22:0.102560 23:0.100650 24:0.102283 25:0.086309 26:0.111813 27:0.096538 28:0.137193 29:0.125620 30:0.119530 31:0.133451 32:0.145233 33:0.151504 34:0.137362 35:0.164477 36:0.161090 37:0.152241 38:0.153100 39:0.172656 40:0.150901 41:0.159662 42:0.165819 43:0.169406 44:0.192721 45:0.183295 46:0.188938 47:0.196629 48:0.192129 49:0.208271 50:0.215754 51:0.222930 52:0.208062 53:0.207306 54:0.226110 55:0.248482
1 1:0.013870 2:0.031986 3:0.001479 4:0.007432 5:0.009497 6:0.024568 7:0.014236 8:0.043372 9:0.042840 10:0.049933 11:0.065110 12:0.036147 13:0.055002 14:0.048662 15:0.075839 16:0.071857 17:0.071104 18:0.092769 19:0.083304 20:0.092828 21:0.090663 22:0.090269 23:0.117671 24:0.108104 25:0.100857 26:0.115306 27:0.103277 28:0.104793 29:0.126553 30:0.117504 31:0.133523 32:0.135784 33:0.137794 34:0.133535 35:0.152823 36:0.161746 37:0.143891 38:0.158802 39:0.180207 40:0.159997 41:0.161886 42:0.174669 43:0.177269 44:0.190612 45:0.197684 46:0.196166 47:0.180221 48:0.191664 49:0.215493 50:0.214748 51:0.202670 52:0.211018 53:0.211515 54:0.228498 55:0.225291
1 1:0.003806 2:-0.006972 3:0.021024 4:0.030509 5:0.013885 6:0.033911 7:0.027762 8:0.030188 9:0.041505 10:0.059922 11:0.059084 12:0.067697 13:0.043923 14:0.047785 15:0.045421 16:0.076746 17:0.078248 18:0.072078 19:0.081302 20:0.083237 21:0.070093 22:0.090724 23:0.105440 24:0.119092 25:0.103102 26:0.104819 27:0.102078 28:0.116346 29:0.125221 30:0.103675 31:0.128297 32:0.141242 33:0.143000 34:0.130730 35:0.164987 36:0.160874 37:0.148197 38:0.154110 39:0.152722 40:0.155344 41:0.187293 42:0.185948 43:0.182883 44:0.200857 45:0.189667 46:0.202622 47:0.184188 48:0.204806 49:0.196206 50:0.196860 51:0.206907 52:0.213545 53:0.230682 54:0.221389 55:0.224123
1 1:0.003592 2:0.004156 3:0.012876 4:0.012857 5:0.027780 6:0.025303 7:0.021242 8:0.035806 9:0.027177 10:0.052139 11:0.026299 12:0.059839 13:0.053907 14:0.050043 15:0.065826 16:0.057235 17:0.069780 18:0.054768 19:0.073339 20:0.113571 21:0.085482 22:0.088860 23:0.112467 24:0.113780 25:0.092563 26:0.097706 27:0.121852 28:0.108320 29:0.116642 30:0.116740 31:0.113204 32:0.132239 33:0.150510 34:0.142546 35:0.158227 36:0.146141 37:0.126803 38:0.173096 39:0.157516 40:0.172113 41:0.182866 42:0.168398 43:0.193933 44:0.175833 45:0.179803 46:0.180253 47:0.205616 48:0.203574 49:0.194281 50:0.189418 51:0.228020 52:0.219332 53:0.229766 54:0.244414 55:0.227174
1 1:0.007372 2:0.001257 3:0.026510 4:0.013957 5:0.011328 6:0.022348 7:0.006560 8:0.040616 9:0.049884 10:0.039255 11:0.035296 12:0.049565 13:0.056790 14:0.055105 15:0.053895 16:0.084195 17:0.067662 18:0.081808 19:0.077128 20:0.087929 21:0.101474 22:0.090098 23:0.107379 24:0.111497 25:0.098872 26:0.097502 27:0.112628 28:0.097008 29:0.114678 30:0.130890 31:0.121121 32:0.137738 33:0.158240 34:0.142444 35:0.157267 36:0.132353 37:0.148527 38:0.158142 39:0.154756 40:0.162284 41:0.172890 42:0.181642 43:0.166085 44:0.195164 45:0.196773 46:0.200443 47:0.177335 48:0.207250 49:0.192868 50:0.224390 51:0.206911 52:0.205595 53:0.219714 54:0.231475 55:0.242555
1 1:0.010164 2:0.007251 3:0.013624 4:0.012623 5:0.009896 6:0.018784 7:0.028580 8:0.041332 9:0.021994 10:0.047446 11:0.050154 12:0.054171 13:0.061481 14:0.057429 15:0.059258 16:0.073490 17:0.071285 18:0.064355 19:0.081576 20:0.105087 21:0.090795 22:0.076180 23:0.104505 24:0.089240 25:0.095755 26:0.084760 27:0.110894 28:0.127430 29:0.111416 30:0.134051 31:0.132483 32:0.126835 33:0.142766 34:0.121764 35:0.144163 36:0.184636 37:0.156907 38:0.161183 39:0.175721 40:0.180572 41:0.172405 42:0.169142 43:0.189676 44:0.185314 45:0.175686 46:0.186195 47:0.207541 48:0.205118 49:0.225582 50:0.196587 51:0.198615 52:0.239563 53:0.220708 54:0.207529 55:0.204778
1 1:-0.000970 2:-0.011248 3:0.039000 4:0.032828 5:0.004450 6:0.016307 7:0.022499 8:0.045885 9:0.036791 10:0.036235 11:0.049037 12:0.042088 13:0.066952 14:0.067068 15:0.055724 16:0.090016 17:0.073212 18:0.050724 19:0.074476 20:0.056481 21:0.085280 22:0.076959 23:0.080658 24:0.096001 25:0.113049 26:0.117985 27:0.113741 28:0.104080 29:0.104637 30:0.105932 31:0.125227 32:0.139307 33:0.128099 34:0.133372 35:0.136229 36:0.148692 37:0.151630 38:0.143656 39:0.155719 40:0.166038 41:0.172470 42:0.183936 43:0.186965 44:0.195858 45:0.177721 46:0.186582 47:0.206231 48:0.215544 49:0.213251 50:0.221327 51:0.227114 52:0.225004 53:0.230916 54:0.228322 55:0.222064
1 1:0.004890 2:-0.015535 3:0.011604 4:0.012058 5:0.011345 6:0.034314 7:0.043941 8:0.042865 9:0.042258 10:0.049661 11:0.026332 12:0.043965 13:0.052584 14:0.055561 15:0.064887 16:0.055939 17:0.065517 18:0.073799 19:0.080056 20:0.104009 21:0.083944 22:0.098154 23:0.108432 24:0.104737 25:0.100372 26:0.118292 27:0.106740 28:0.125706 29:0.130639 30:0.135301 31:0.143782 32:0.121505 33:0.130077 34:0.127975 35:0.151665 36:0.150838 37:0.153889 38:0.149949 39:0.145997 40:0.147216 41:0.188995 42:0.178510 43:0.177334 44:0.162541 45:0.195967 46:0.190723 47:0.212389 48:0.203411 49:0.221084 50:0.194387 51:0.210976 52:0.202919 53:0.221299 54:0.225849 55:0.242095
1 1:0.008567 2:0.009980 3:-0.010732 4:0.024843 5:0.020080 6:0.024259 7:0.028469 8:0.029758 9:0.022361 10:0.035653 11:0.045367 12:0.039378 13:0.050114 14:0.060305 15:0.077049 16:0.078966 17:0.066777 18:0.084927 19:0.088327 20:0.074196 21:0.081684 22:0.095907 23:0.120893 24:0.100623 25:0.115496 26:0.092162 27:0.117447 28:0.102512 29:0.111611 30:0.114946 31:0.150768 32:0.130870 33:0.126330 34:0.158837 35:0.142383 36:0.155572 37:0.160727 38:0.156533 39:0.153164 40:0.178378 41:0.146933 42:0.170667 43:0.195170 44:0.172997 45:0.201593 46:0.195321 47:0.211606 48:0.186632 49:0.206221 50:0.210957 51:0.211323 52:0.225904 53:0.218282 54:0.230151 55:0.209059
1 1:-0.003397 2:-0.011710 3:0.005239 4:0.020003 5:0.024132 6:-0.006143 7:0.019587 8:0.018594 9:0.030433 10:0.054488 11:0.044451 12:0.058849 13:0.057125 14:0.064593 15:0.076737 16:0.072556 17:0.074705 18:0.060443 19:0.075139 20:0.069086 21:0.100154 22:0.072424 23:0.086895 24:0.107849 25:0.107855 26:0.100928 27:0.139730 28:0.107077 29:0.124619 30:0.119782 31:0.135419 32:0.135198 33:0.141730 34:0.148198 35:0.158727 36:0.157408 37:0.169458 38:0.145235 39:0.171597 40:0.158977 41:0.162540 42:0.168513 43:0.172307 44:0.185665 45:0.180398 46:0.199169 47:0.188203 48:0.206561 49:0.204030 50:0.218790 51:0.206411 52:0.227238 53:0.221846 54:0.222344 55:0.220266
1 1:-0.003458 2:0.002622 3:0.027830 4:0.036507 5:0.005765 6:0.026342 7:0.022927 8:0.035491 9:0.029738 10:0.071079 11:0.040702 12:0.037992 13:0.045054 14:0.049165 15:0.077506 16:0.059013 17:0.069804 18:0.092111 19:0.072413 20:0.086232 21:0.084410 22:0.082491 23:0.090266 24:0.103470 25:0.090913 26:0.103775 27:0.113561 28:0.116289 29:0.119612 30:0.123140 31:0.141167 32:0.157447 33:0.144946 34:0.154376 35:0.155462 36:0.164216 37:0.150898 38:0.161653 39:0.161981 40:0.180553 41:0.167478 42:0.175258 43:0.162514 44:0.172369 45:0.186519 46:0.199481 47:0.210156 48:0.207568 49:0.190063 50:0.204602 51:0.196210 52:0.217425 53:0.222559 54:0.220929 55:0.226697
1 1:0.001988 2:-0.000606 3:0.019410 4:0.012395 5:0.011696 6:0.035629 7:0.008104 8:0.028633 9:0.041163 10:0.052607 11:0.034483 12:0.053031 13:0.058357 14:0.037222 15:0.075952 16:0.052496 17:0.064150 18:0.077767 19:0.090232 20:0.071782 21:0.086454 22:0.090877 23:0.081711 24:0.095597 25:0.092905 26:0.116476 27:0.124884 28:0.126517 29:0.113304 30:0.142487 31:0.140574 32:0.132094 33:0.130355 34:0.123634 35:0.140907 36:0.126105 37:0.158013 38:0.162397 39:0.181227 40:0.204391 41:0.158512 42:0.191476 43:0.179748 44:0.174932 45:0.186445 46:0.190775 47:0.191092 48:0.193295 49:0.203978 50:0.199610 51:0.220449 52:0.213952 53:0.222120 54:0.244152 55:0.218485
1 1:0.014611 2:0.021229 3:0.018255 4:0.004325 5:0.015599 6:0.025748 7:0.033836 8:0.031516 9:0.036436 10:0.038354 11:0.043903 12:0.050480 13:0.049102 14:0.062903 15:0.075167 16:0.084885 17:0.066019 18:0.071461 19:0.057410 20:0.084475 21:0.095529 22:0.103490 23:0.096208 24:0.108748 25:0.092269 26:0.131351 27:0.134254 28:0.107003 29:0.114942 30:0.146978 31:0.118265 32:0.121481 33:0.115287 34:0.120698 35:0.124812 36:0.142074 37:0.154996 38:0.159418 39:0.165963 40:0.173461 41:0.173301 42:0.171279 43:0.175103 44:0.192453 45:0.196923 46:0.194260 47:0.186461 48:0.200787 49:0.222100 50:0.193696 51:0.208603 52:0.228197 53:0.219042 54:0.238069 55:0.231034
1 1:0.009890 2:0.017606 3:0.016078 4:0.015745 5:-0.002232 6:0.020048 7:0.019796 8:0.035995 9:0.037835 10:0.051214 11:0.045603 12:0.053701 13:0.062861 14:0.074784 15:0.034793 16:0.051081 17:0.063587 18:0.065380 19:0.077847 20:0.079096 21:0.085577 22:0.092524 23:0.096911 24:0.117758 25:0.123051 26:0.110260 27:0.127527 28:0.123342 29:0.107042 30:0.136209 31:0.122292 32:0.128482 33:0.123362 34:0.151488 35:0.153064 36:0.177031 37:0.136388 38:0.164766 39:0.160311 40:0.182505 41:0.161293 42:0.174873 43:0.174817 44:0.195459 45:0.195362 46:0.191526 47:0.189175 48:0.195252 49:0.196906 50:0.185577 51:0.209164 52:0.241180 53:0.211956 54:0.211404 55:0.240884
1 1:0.018233 2:0.029145 3:0.003300 4:0.025783 5:-0.004380 6:0.016397 7:0.025418 8:0.047696 9:0.034582 10:0.055758 11:0.041328 12:0.052726 13:0.061374 14:0.051289 15:0.060162 16:0.077086 17:0.089251 18:0.080894 19:0.078104 20:0.070407 21:0.088368 22:0.082035 23:0.106171 24:0.098019 25:0.127623 26:0.117969 27:0.105058 28:0.110587 29:0.127201 30:0.126980 31:0.142620 32:0.132188 33:0.113580 34:0.119580 35:0.141848 36:0.154346 37:0.171515 38:0.154237 39:0.162621 40:0.166094 41:0.150902 42:0.183226 43:0.179773 44:0.171385 45:0.202624 46:0.177049 47:0.204062 48:0.212248 49:0.203912 50:0.211232 51:0.203884 52:0.215541 53:0.240508 54:0.221854 55:0.220923
1 1:-0.003001 2:0.004100 3:-0.010446 4:0.010606 5:0.017502 6:0.028320 7:0.045494 8:0.028133 9:0.035267 10:0.037128 11:0.054506 12:0.053010 13:0.062599 14:0.047910 15:0.061030 16:0.071941 17:0.083948 18:0.067519 19:0.068958 20:0.086339 21:0.081873 22:0.081162 23:0.090820 24:0.102777 25:0.128255 26:0.125059 27:0.127016 28:0.107543 29:0.128568 30:0.121770 31:0.111960 32:0.155393 33:0.147082 34:0.135071 35:0.146829 36:0.134849 37:0.139336 38:0.158027 39:0.161931 40:0.145594 41:0.180991 42:0.181430 43:0.175088 44:0.179894 45:0.206748 46:0.174727 47:0.180166 48:0.204610 49:0.220880 50:0.217279 51:0.216686 52:0.203426 53:0.209233 54:0.230945 55:0.243628
1 1:0.022699 2:0.020450 3:-0.009766 4:0.011882 5:0.025425 6:0.027881 7:0.060544 8:0.039471 9:0.028062 10:0.023185 11:0.053823 12:0.047887 13:0.059012 14:0.062864 15:0.069972 16:0.071368 17:0.068814 18:0.072785 19:0.077287 20:0.106239 21:0.079420 22:0.087127 23:0.106842 24:0.107629 25:0.107514 26:0.098353 27:0.120560 28:0.129309 29:0.108103 30:0.134154 31:0.138781 32:0.123201 33:0.130787 34:0.159378 35:0.136305 36:0.175481 37:0.140498 38:0.136286 39:0.168092 40:0.171210 41:0.163005 42:0.170843 43:0.180968 44:0.165389 45:0.189319 46:0.201636 47:0.202800 48:0.211957 49:0.203137 50:0.197233 51:0.207751 52:0.216596 53:0.235099 54:0.222567 55:0.214989
1 1:-0.003654 2:0.018908 3:0.021863 4:0.000108 5:0.034659 6:0.025217 7:0.039650 8:0.021109 9:0.037619 10:0.035476 11:0.078255 12:0.045096 13:0.077827 14:0.067842 15:0.055933 16:0.058923 17:0.064777 18:0.056605 19:0.078011 20:0.068186 21:0.087341 22:0.096011 23:0.096642 24:0.103222 25:0.122741 26:0.114490 27:0.118325 28:0.115291 29:0.139443 30:0.113552 31:0.124622 32:0.136065 33:0.131418 34:0.150068 35:0.122258 36:0.152061 37:0.149905 38:0.147471 39:0.168134 40:0.167914 41:0.149113 42:0.171324 43:0.180395 44:0.177150 45:0.186000 46:0.195327 47:0.202089 48:0.209497 49:0.199422 50:0.197535 51:0.212854 52:0.229021 53:0.233133 54:0.228931 55:0.235669
1 1:-0.001527 2:-0.008961 3:0.024087 4:0.011254 5:0.026379 6:0.049308 7:0.040666 8:0.051646 9:0.037617 10:0.037274 11:0.045270 12:0.065888 13:0.064513 14:0.071541 15:0.065767 16:0.061008 17:0.059293 18:0.090193 19:0.089319 20:0.095247 21:0.089337 22:0.080016 23:0.097213 24:0.118004 25:0.117017 26:0.108878 27:0.119094 28:0.117628 29:0.105378 30:0.098872 31:0.123856 32:0.130336 33:0.122575 34:0.151932 35:0.151280 36:0.140665 37:0.172426 38:0.138069 39:0.171244 40:0.150534 41:0.192242 42:0.135853 43:0.182763 44:0.185853 45:0.193938 46:0.182941 47:0.176008 48:0.201236 49:0.207551 50:0.209831 51:0.222063 52:0.232285 53:0.221837 54:0.225510 55:0.232583
1 1:-0.005495 2:0.010311 3:0.022456 4:-0.000209 5:0.009173 6:0.020691 7:0.022914 8:0.036993 9:0.054674 10:0.048022 11:0.060961 12:0.046033 13:0.058780 14:0.051898 15:0.069644 16:0.083239 17:0.075269 18:0.067500 19:0.072780 20:0.069006 21:0.080926 22:0.062586 23:0.095231 24:0.092959 25:0.115079 26:0.088940 27:0.108318 28:0.121580 29:0.125680 30:0.123222 31:0.129891 32:0.140813 33:0.151726 34:0.141293 35:0.140457 36:0.168972 37:0.168705 38:0.140135 39:0.163005 40:0.166293 41:0.165425 42:0.187107 43:0.170026 44:0.176405 45:0.168902 46:0.176667 47:0.184346 48:0.216364 49:0.202562 50:0.227119 51:0.214085 52:0.221870 53:0.220765 54:0.244037 55:0.227160
1 1:0.009897 2:-0.010905 3:0.010802 4:0.017262 5:0.040099 6:0.030970 7:0.039190 8:0.034388 9:0.024270 10:0.056927 11:0.039051 12:0.059866 13:0.039092 14:0.059240 15:0.074566 16:0.069923 17:0.063896 18:0.070423 19:0.085904 20:0.094253 21:0.093350 22:0.094644 23:0.098924 24:0.094521 25:0.108464 26:0.109374 27:0.115540 28:0.119102 29:0.128967 30:0.109949 31:0.125671 32:0.128848 33:0.134825 34:0.158124 35:0.168567 36:0.156581 37:0.152353 38:0.138691 39:0.163054 40:0.154479 41:0.175190 42:0.171449 43:0.164680 44:0.194357 45:0.184215 46:0.191230 47:0.197581 48:0.205855 49:0.228048 50:0.193194 51:0.210347 52:0.228111 53:0.213025 54:0.225609 55:0.218595
1 1:-0.000048 2:-0.010080 3:0.030835 4:0.021147 5:0.012246 6:0.045356 7:0.018428 8:0.023050 9:0.056214 10:0.025873 11:0.048678 12:0.045133 13:0.071152 14:0.046731 15:0.065947 16:0.070420 17:0.076437 18:0.063608 19:0.094778 20:0.089195 21:0.089584 22:0.082787 23:0.094638 24:0.109944 25:0.117102 26:0.102261 27:0.108117 28:0.107642 29:0.132478 30:0.143164 31:0.127432 32:0.135507 33:0.138882 34:0.151796 35:0.129389 36:0.168051 37:0.148315 38:0.158684 39:0.154188 40:0.171474 41:0.153306 42:0.159672 43:0.171467 44:0.187910 45:0.199191 46:0.199286 47:0.227608 48:0.193911 49:0.224332 50:0.199398 51:0.221787 52:0.207046 53:0.212300 54:0.217440 55:0.207648
1 1:0.006014 2:0.015952 3:0.023534 4:0.022373 5:0.010903 6:0.012004 7:0.039882 8:0.042490 9:0.036735 10:0.023746 11:0.033100 12:0.057820 13:0.069018 14:0.069873 15:0.054303 16:0.057840 17:0.067273 18:0.074223 19:0.070011 20:0.078926 21:0.075738 22:0.088038 23:0.087428 24:0.100242 25:0.086675 26:0.100573 27:0.130271 28:0.129480 29:0.103322 30:0.121400 31:0.127875 32:0.146826 33:0.149943 34:0.154631 35:0.160394 36:0.151549 37:0.153231 38:0.163998 39:0.184151 40:0.167112 41:0.146818 42:0.185533 43:0.185246 44:0.184763 45:0.191218 46:0.193988 47:0.203703 48:0.187394 49:0.206892 50:0.216343 51:0.210490 52:0.220285 53:0.222933 54:0.215254 55:0.211331
1 1:0.011448 2:0.002528 3:0.031561 4:0.021556 5:0.019703 6:0.032860 7:0.042187 8:0.014653 9:0.041115 10:0.036716 11:0.038796 12:0.043618 13:0.069655 14:0.049474 15:0.074416 16:0.082542 17:0.081264 18:0.086206 19:0.075167 20:0.079673 21:0.088693 22:0.097308 23:0.104775 24:0.095264 25:0.102595 26:0.112112 27:0.118257 28:0.121699 29:0.115431 30:0.131240 31:0.136803 32:0.118405 33:0.114325 34:0.140166 35:0.151227 36:0.151842 37:0.144679 38:0.154287 39:0.172643 40:0.181131 41:0.172963 42:0.179993 43:0.185297 44:0.174764 45:0.199175 46:0.194607 47:0.193557 48:0.198493 49:0.179564 50:0.205015 51:0.214446 52:0.225093 53:0.237078 54:0.210169 55:0.226613
1 1:0.002073 2:0.005803 3:-0.003610 4:0.014485 5:0.008579 6:0.021466 7:0.044967 8:0.049023 9:0.038629 10:0.051774 11:0.042095 12:0.046301 13:0.036156 14:0.069066 15:0.055348 16:0.061662 17:0.067829 18:0.067788 19:0.093066 20:0.080661 21:0.073345 22:0.114746 23:0.097338 24:0.118324 25:0.108579 26:0.097994 27:0.105847 28:0.100478 29:0.123175 30:0.129015 31:0.132016 32:0.129349 33:0.136812 34:0.143400 35:0.158801 36:0.160105 37:0.155554 38:0.137324 39:0.151262 40:0.153118 41:0.192424 42:0.165842 43:0.168052 44:0.183088 45:0.179777 46:0.185452 47:0.186150 48:0.198148 49:0.202095 50:0.234361 51:0.213282 52:0.206640 53:0.238657 54:0.241619 55:0.230149
1 1:0.011238 2:-0.004484 3:-0.008667 4:-0.001273 5:0.040506 6:0.033845 7:0.017088 8:0.045880 9:0.035561 10:0.026801 11:0.050132 12:0.036401 13:0.065946 14:0.057107 15:0.058335 16:0.059982 17:0.065466 18:0.080037 19:0.079186 20:0.091871 21:0.060959 22:0.082257 23:0.107765 24:0.097276 25:0.116978 26:0.098110 27:0.108393 28:0.112327 29:0.104626 30:0.133596 31:0.127719 32:0.133982 33:0.131802 34:0.136682 35:0.137252 36:0.148626 37:0.159194 38:0.165085 39:0.172706 40:0.158894 41:0.168816 42:0.163868 43:0.180950 44:0.189537 45:0.197491 46:0.198250 47:0.208545 48:0.204684 49:0.219242 50:0.199378 51:0.193086 52:0.208005 53:0.235842 54:0.239895 55:0.229274
1 1:-0.001225 2:-0.002384 3:0.007853 4:0.045874 5:0.030554 6:0.040572 7:0.020736 8:0.033748 9:0.032057 10:0.018782 11:0.031971 12:0.032308 13:0.045711 14:0.053764 15:0.069634 16:0.073790 17:0.085470 18:0.052400 19:0.076853 20:0.077887 21:0.104215 22:0.073302 23:0.111812 24:0.105346 25:0.094501 26:0.096155 27:0.115959 28:0.103635 29:0.113813 30:0.129528 31:0.126690 32:0.120968 33:0.147951 34:0.151364 35:0.152377 36:0.151738 37:0.163091 38:0.167994 39:0.155129 40:0.170694 41:0.174279 42:0.177703 43:0.196877 44:0.205296 45:0.162797 46:0.199013 47:0.182365 48:0.186853 49:0.196008 50:0.216423 51:0.220788 52:0.221093 53:0.222803 54:0.221664 55:0.229031
1 1:0.011801 2:0.008471 3:0.006247 4:0.017757 5:0.023817 6:0.045260 7:0.024274 8:0.046097 9:0.019406 10:0.032391 11:0.048591 12:0.040455 13:0.049165 14:0.065109 15:0.078562 16:0.057800 17:0.043834 18:0.063416 19:0.071769 20:0.081247 21:0.087874 22:0.089412 23:0.104289 24:0.110876 25:0.122384 26:0.112557 27:0.113157 28:0.130425 29:0.118010 30:0.120123 31:0.124913 32:0.133886 33:0.139706 34:0.157434 35:0.154120 36:0.154371 37:0.138234 38:0.153783 39:0.168731 40:0.178917 41:0.175881 42:0.180250 43:0.169372 44:0.178767 45:0.195166 46:0.204707 47:0.183611 48:0.186365 49:0.210233 50:0.215752 51:0.207407 52:0.241230 53:0.208408 54:0.223762 55:0.208543
1 1:-0.008568 2:0.019955 3:0.002314 4:-0.000582 5:0.008552 6:-0.001251 7:0.037941 8:0.053928 9:0.043965 10:0.053072 11:0.024023 12:0.039170 13:0.065326 14:0.066157 15:0.047853 16:0.092050 17:0.055476 18:0.092046 19:0.072162 20:0.084309 21:0.077539 22:0.088823 23:0.119468 24:0.097621 25:0.094319 26:0.102782 27:0.142300 28:0.125934 29:0.130187 30:0.125732 31:0.118668 32:0.128903 33:0.153081 34:0.126796 35:0.148731 36:0.159092 37:0.162662 38:0.158433 39:0.145188 40:0.176791 41:0.167778 42:0.186929 43:0.191971 44:0.175545 45:0.165694 46:0.186368 47:0.199448 48:0.203409 49:0.193482 50:0.200222 51:0.216203 52:0.218149 53:0.220930 54:0.224894 55:0.228155
1 1:-0.000048 2:-0.005743 3:0.012804 4:0.015070 5:0.031001 6:0.024182 7:0.021773 8:0.019933 9:0.030002 10:0.039483 11:0.029728 12:0.067911 13:0.058327 14:0.074457 15:0.044869 16:0.049737 17:0.054270 18:0.083944 19:0.082445 20:0.074599 21:0.082029 22:0.072390 23:0.087997 24:0.087142 25:0.105719 26:0.118654 27:0.113487 28:0.117891 29:0.119166 30:0.121939 31:0.117832 32:0.151226 33:0.149768 34:0.139565 35:0.152638 36:0.156443 37:0.174242 38:0.159444 39:0.168613 40:0.154863 41:0.174608 42:0.170730 43:0.200061 44:0.192672 45:0.182398 46:0.202442 47:0.182976 48:0.206471 49:0.202924 50:0.200586 51:0.205518 52:0.204731 53:0.220004 54:0.219870 55:0.246825
1 1:0.012335 2:0.002690 3:0.029633 4:0.003648 5:0.010244 6:0.019033 7:0.012159 8:0.044060 9:0.038722 10:0.051959 11:0.056073 12:0.050620 13:0.057389 14:0.059186 15:0.071536 16:0.062359 17:0.069830 18:0.079673 19:0.073771 20:0.066193 21:0.085066 22:0.098941 23:0.083279 24:0.109670 25:0.119823 26:0.099912 27:0.115944 28:0.113964 29:0.100612 30:0.124869 31:0.139458 32:0.113914 33:0.132456 34:0.145037 35:0.147028 36:0.145558 37:0.179329 38:0.170357 39:0.167627 40:0.185802 41:0.170076 42:0.189339 43:0.173143 44:0.180856 45:0.195256 46:0.190159 47:0.184174 48:0.190581 49:0.205123 50:0.198770 51:0.215401 52:0.200946 53:0.217896 54:0.225501 55:0.246721
1 1:0.000731 2:0.005838 3:0.014021 4:0.011109 5:0.017801 6:0.043150 7:0.021593 8:0.036113 9:0.041157 10:0.042826 11:0.045595 12:0.051236 13:0.046513 14:0.055920 15:0.050496 16:0.071038 17:0.059562 18:0.075277 19:0.082058 20:0.102202 21:0.067455 22:0.105317 23:0.097104 24:0.088589 25:0.114583 26:0.108824 27:0.111570 28:0.112940 29:0.130453 30:0.119679 31:0.140664 32:0.141274 33:0.134577 34:0.138596 35:0.127902 36:0.141104 37:0.154792 38:0.154794 39:0.154533 40:0.182694 41:0.185259 42:0.173378 43:0.174705 44:0.168482 45:0.181687 46:0.184754 47:0.174174 48:0.200662 49:0.207063 50:0.231830 51:0.213024 52:0.230197 53:0.238961 54:0.219048 55:0.232650
1 1:0.010629 2:-0.002754 3:0.019464 4:0.017995 5:0.037731 6:-0.001194 7:0.028002 8:0.030617 9:0.033082 10:0.046497 11:0.054131 12:0.072120 13:0.054541 14:0.063423 15:0.057686 16:0.072571 17:0.064218 18:0.074777 19:0.088403 20:0.084890 21:0.081727 22:0.087604 23:0.125136 24:0.108732 25:0.107370 26:0.102750 27:0.098528 28:0.103428 29:0.121061 30:0.156599 31:0.134099 32:0.116428 33:0.140930 34:0.142444 35:0.160144 36:0.176545 37:0.156762 38:0.146319 39:0.167054 40:0.153953 41:0.177144 42:0.177216 43:0.161613 44:0.182418 45:0.193469 46:0.179766 47:0.205456 48:0.202400 49:0.212132 50:0.203365 51:0.207660 52:0.216548 53:0.212187 54:0.220883 55:0.222312
1 1:-0.000720 2:-0.004237 3:0.002829 4:-0.011913 5:0.016130 6:0.032937 7:0.031020 8:0.049470 9:0.025406 10:0.027765 11:0.041273 12:0.065280 13:0.049185 14:0.064271 15:0.051422 16:0.074735 17:0.085919 18:0.092643 19:0.093209 20:0.069673 21:0.090010 22:0.088370 23:0.080160 24:0.106306 25:0.100867 26:0.110467 27:0.123509 28:0.135329 29:0.123739 30:0.127776 31:0.140100 32:0.139533 33:0.138433 34:0.134322 35:0.155087 36:0.151239 37:0.130591 38:0.152877 39:0.162288 40:0.182333 41:0.181132 42:0.162093 43:0.175019 44:0.178760 45:0.173167 46:0.191492 47:0.212787 48:0.178747 49:0.219524 50:0.196088 51:0.207363 52:0.220388 53:0.222223 54:0.218409 55:0.241037
1 1:0.014189 2:0.017637 3:0.021867 4:0.000073 5:0.031344 6:0.025930 7:0.015915 8:0.022641 9:0.038797 10:0.041267 11:0.045337 12:0.035336 13:0.075838 14:0.077789 15:0.073070 16:0.087477 17:0.078833 18:0.071481 19:0.053910 20:0.080064 21:0.072178 22:0.084047 23:0.104634 24:0.096689 25:0.089744 26:0.112469 27:0.121925 28:0.104319 29:0.122279 30:0.113522 31:0.124920 32:0.133668 33:0.144222 34:0.138124 35:0.160688 36:0.148962 37:0.164673 38:0.165856 39:0.179452 40:0.164480 41:0.170267 42:0.187551 43:0.177497 44:0.176245 45:0.182357 46:0.186767 47:0.199725 48:0.198910 49:0.199571 50:0.215315 51:0.220927 52:0.221035 53:0.201555 54:0.225671 55:0.229798
1 1:0.020684 2:0.013313 3:0.020318 4:0.011618 5:0.015222 6:0.015412 7:0.027089 8:0.042981 9:0.033176 10:0.053574 11:0.050692 12:0.046951 13:0.063162 14:0.042909 15:0.062912 16:0.069217 17:0.084025 18:0.066681 19:0.079738 20:0.104424 21:0.085308 22:0.092902 23:0.106445 24:0.108359 25:0.117258 26:0.118658 27:0.127911 28:0.116382 29:0.142129 30:0.128735 31:0.134171 32:0.111698 33:0.120839 34:0.143196 35:0.140453 36:0.145477 37:0.163527 38:0.152891 39:0.162515 40:0.157937 41:0.181724 42:0.164620 43:0.187331 44:0.168550 45:0.192849 46:0.185125 47:0.208547 48:0.211668 49:0.210151 50:0.220501 51:0.189790 52:0.204918 53:0.219370 54:0.221415 55:0.225701
1 1:0.006259 2:0.030379 3:0.019094 4:0.016085 5:0.005834 6:0.026649 7:0.017756 8:0.038498 9:0.047973 10:0.057517 11:0.045873 12:0.065672 13:0.063056 14:0.056956 15:0.048445 16:0.071598 17:0.068953 18:0.078765 19:0.073634 20:0.104456 21:0.073745 22:0.112685 23:0.071642 24:0.086983 25:0.116064 26:0.117997 27:0.128851 28:0.110204 29:0.112317 30:0.137709 31:0.126048 32:0.152915 33:0.139181 34:0.140732 35:0.157996 36:0.147479 37:0.155598 38:0.156207 39:0.164941 40:0.174391 41:0.169847 42:0.169037 43:0.184805 44:0.173183 45:0.181176 46:0.194061 47:0.197377 48:0.219509 49:0.214336 50:0.214751 51:0.177414 52:0.215802 53:0.223711 54:0.216923 55:0.213345
1 1:0.008551 2:-0.025164 3:0.009427 4:0.023047 5:0.027458 6:0.020387 7:0.025277 8:0.037911 9:0.038256 10:0.049587 11:0.040339 12:0.053060 13:0.062715 14:0.055574 15:0.070074 16:0.066634 17:0.091097 18:0.086786 19:0.080280 20:0.090533 21:0.083527 22:0.084540 23:0.098317 24:0.094162 25:0.112501 26:0.111142 27:0.116686 28:0.119707 29:0.127035 30:0.145066 31:0.128937 32:0.128556 33:0.135656 34:0.133688 35:0.165157 36:0.148287 37:0.150228 38:0.159364 39:0.160782 40:0.160891 41:0.157006 42:0.169780 43:0.177938 44:0.196680 45:0.197814 46:0.185825 47:0.191325 48:0.200552 49:0.221382 50:0.193786 51:0.216830 52:0.207582 53:0.215427 54:0.230457 55:0.220307
1 1:-0.012905 2:0.009035 3:0.015221 4:0.013582 5:0.016407 6:0.040282 7:0.023303 8:0.027622 9:0.033402 10:0.043237 11:0.055849 12:0.047690 13:0.048973 14:0.049124 15:0.086485 16:0.058560 17:0.076534 18:0.080426 19:0.083328 20:0.093285 21:0.088774 22:0.075843 23:0.095538 24:0.099432 25:0.095044 26:0.093817 27:0.113319 28:0.124444 29:0.120009 30:0.111189 31:0.128608 32:0.131529 33:0.157484 34:0.135010 35:0.140684 36:0.151348 37:0.149132 38:0.168408 39:0.179692 40:0.163864 41:0.176472 42:0.181681 43:0.179745 44:0.181441 45:0.192738 46:0.195066 47:0.196010 48:0.195914 49:0.195802 50:0.212324 51:0.212180 52:0.204489 53:0.218565 54:0.238907 55:0.229562
1 1:-0.005406 2:-0.006929 3:0.024474 4:0.037358 5:0.019216 6:0.019740 7:0.022221 8:0.037414 9:0.042429 10:0.022540 11:0.045949 12:0.046275 13:0.060609 14:0.063887 15:0.073652 16:0.070499 17:0.056809 18:0.093100 19:0.067352 20:0.070600 21:0.083199 22:0.102935 23:0.087390 24:0.106239 25:0.105125 26:0.117200 27:0.114910 28:0.116984 29:0.105123 30:0.126748 31:0.130050 32:0.128670 33:0.134068 34:0.145705 35:0.127458 36:0.143541 37:0.161209 38:0.156850 39:0.162247 40:0.164213 41:0.160152 42:0.180672 43:0.179125 44:0.179680 45:0.191914 46:0.211732 47:0.185405 48:0.199479 49:0.205230 50:0.195074 51:0.235396 52:0.218287 53:0.226881 54:0.241426 55:0.221421
1 1:-0.001479 2:0.009845 3:0.005591 4:0.015273 5:0.017528 6:0.036117 7:0.001582 8:0.033460 9:0.032778 10:0.050793 11:0.057345 12:0.042666 13:0.066296 14:0.055632 15:0.060795 16:0.063508 17:0.082792 18:0.082553 19:0.086570 20:0.085607 21:0.087354 22:0.090009 23:0.113768 24:0.105615 25:0.115097 26:0.128362 27:0.129142 28:0.129589 29:0.113156 30:0.123886 31:0.127620 32:0.142723 33:0.158800 34:0.139214 35:0.155064 36:0.148652 37:0.157465 38:0.130539 39:0.164388 40:0.167667 41:0.186984 42:0.169836 43:0.157401 44:0.186035 45:0.189779 46:0.171618 47:0.192773 48:0.217468 49:0.217399 50:0.194153 51:0.188907 52:0.216946 53:0.223527 54:0.216498 55:0.226325
1 1:0.002502 2:0.034332 3:0.017258 4:0.037428 5:0.030310 6:0.023810 7:0.029411 8:0.021878 9:0.044719 10:0.039972 11:0.060265 12:0.043662 13:0.053131 14:0.056977 15:0.060690 16:0.075779 17:0.067093 18:0.074887 19:0.072699 20:0.068441 21:0.097396 22:0.074108 23:0.110078 24:0.091163 25:0.101520 26:0.111587 27:0.128485 28:0.119136 29:0.120306 30:0.116077 31:0.133658 32:0.133061 33:0.143378 34:0.152975 35:0.150529 36:0.167002 37:0.172572 38:0.155232 39:0.172152 40:0.185099 41:0.149544 42:0.158430 43:0.183283 44:0.180361 45:0.168754 46:0.211088 47:0.184311 48:0.195039 49:0.209823 50:0.215612 51:0.211681 52:0.236542 53:0.204191 54:0.220377 55:0.211527
1 1:0.006485 2:0.013056 3:0.015019 4:0.043342 5:0.015372 6:0.025191 7:0.025277 8:0.022271 9:0.018884 10:0.039795 11:0.024905 12:0.045947 13:0.062287 14:0.043341 15:0.053023 16:0.049860 17:0.072486 18:0.075556 19:0.093123 20:0.076671 21:0.091502 22:0.078965 23:0.093435 24:0.085515 25:0.093550 26:0.108543 27:0.097765 28:0.136939 29:0.126242 30:0.118445 31:0.125453 32:0.136213 33:0.135924 34:0.158961 35:0.154304 36:0.162414 37:0.164294 38:0.161372 39:0.157193 40:0.157466 41:0.180574 42:0.176712 43:0.171482 44:0.182909 45:0.188546 46:0.204938 47:0.194342 48:0.203196 49:0.218941 50:0.195592 51:0.205605 52:0.199444 53:0.210242 54:0.247079 55:0.239622
1 1:0.011910 2:0.007915 3:0.010057 4:0.013944 5:0.044750 6:0.027356 7:0.027870 8:0.039826 9:0.031258 10:0.050366 11:0.054062 12:0.046935 13:0.057617 14:0.058247 15:0.065664 16:0.071834 17:0.083530 18:0.077383 19:0.071379 20:0.082007 21:0.080068 22:0.092095 23:0.099908 24:0.097790 25:0.116602 26:0.108983 27:0.108341 28:0.111815 29:0.119524 30:0.101481 31:0.132577 32:0.113489 33:0.139610 34:0.139319 35:0.160052 36:0.172803 37:0.153233 38:0.170544 39:0.147827 40:0.159043 41:0.180378 42:0.179915 43:0.176432 44:0.169625 45:0.184504 46:0.189546 47:0.202672 48:0.198996 49:0.214669 50:0.203601 51:0.235190 52:0.224016 53:0.205663 54:0.229593 55:0.219087
1 1:0.004353 2:0.008710 3:0.007743 4:0.013646 5:0.031900 6:0.036095 7:0.034576 8:0.029119 9:0.022340 10:0.040552 11:0.026201 12:0.044736 13:0.053288 14:0.076307 15:0.043137 16:0.071370 17:0.075512 18:0.072308 19:0.085872 20:0.090623 21:0.086568 22:0.102107 23:0.100646 24:0.092704 25:0.107409 26:0.078881 27:0.108834 28:0.112585 29:0.114267 30:0.127587 31:0.123217 32:0.105974 33:0.149306 34:0.133942 35:0.137881 36:0.138495 37:0.164973 38:0.152835 39:0.164638 40:0.176779 41:0.178568 42:0.196375 43:0.180628 44:0.179593 45:0.190555 46:0.195118 47:0.183872 48:0.202949 49:0.211187 50:0.215637 51:0.219466 52:0.219306 53:0.232699 54:0.216784 55:0.230413
1 1:0.008952 2:0.014398 3:-0.007165 4:0.024187 5:0.034921 6:0.028244 7:0.028843 8:0.048916 9:0.024212 10:0.050135 11:0.061107 12:0.033990 13:0.041783 14:0.059034 15:0.044555 16:0.036319 17:0.065552 18:0.052771 19:0.078711 20:0.077827 21:0.079997 22:0.083780 23:0.104333 24:0.092261 25:0.093783 26:0.108446 27:0.125604 28:0.128331 29:0.119439 30:0.120429 31:0.127808 32:0.133657 33:0.124065 34:0.124268 35:0.145361 36:0.161358 37:0.173421 38:0.161675 39:0.150670 40:0.162972 41:0.169266 42:0.177444 43:0.181901 44:0.187314 45:0.182839 46:0.189443 47:0.194714 48:0.207330 49:0.211211 50:0.222222 51:0.216347 52:0.230903 53:0.227705 54:0.216082 55:0.233944
1 1:0.007318 2:-0.001977 3:-0.007504 4:0.012456 5:0.023337 6:0.028516 7:0.023895 8:0.034851 9:0.017998 10:0.045850 11:0.039431 12:0.041772 13:0.061194 14:0.083293 15:0.060813 16:0.047710 17:0.066904 18:0.066544 19:0.081841 20:0.065726 21:0.086800 22:0.072854 23:0.082151 24:0.093217 25:0.103193 26:0.095652 27:0.130155 28:0.108047 29:0.124021 30:0.118603 31:0.129275 32:0.134144 33:0.151178 34:0.156320 35:0.170186 36:0.149964 37:0.154397 38:0.140704 39:0.182187 40:0.166226 41:0.159208 42:0.145488 43:0.192946 44:0.197526 45:0.202938 46:0.188098 47:0.215524 48:0.199624 49:0.209375 50:0.202973 51:0.210584 52:0.203285 53:0.230833 54:0.218257 55:0.230179
1 1:0.013807 2:0.019693 3:0.006945 4:0.020002 5:0.018298 6:0.019809 7:0.034461 8:0.014138 9:0.047512 10:0.042770 11:0.039874 12:0.046341 13:0.031837 14:0.059052 15:0.053880 16:0.071992 17:0.052646 18:0.078328 19:0.088212 20:0.082797 21:0.088427 22:0.082806 23:0.104738 24:0.088124 25:0.121582 26:0.107686 27:0.109381 28:0.127213 29:0.112323 30:0.127726 31:0.113709 32:0.138932 33:0.130072 34:0.146068 35:0.142076 36:0.152736 37:0.162867 38:0.144675 39:0.170595 40:0.166152 41:0.170659 42:0.165641 43:0.156316 44:0.195442 45:0.196889 46:0.185056 47:0.195815 48:0.211910 49:0.216363 50:0.207436 51:0.230307 52:0.205230 53:0.215610 54:0.232136 55:0.238826
1 1:0.011603 2:0.003052 3:0.009841 4:0.013402 5:0.007894 6:0.036361 7:0.007099 8:0.026384 9:0.040501 10:0.054035 11:0.023421 12:0.040268 13:0.051579 14:0.052463 15:0.059766 16:0.049475 17:0.080898 18:0.078745 19:0.071819 20:0.083496 21:0.084203 22:0.094266 23:0.100632 24:0.087732 25:0.117641 26:0.104526 27:0.119279 28:0.116208 29:0.119894 30:0.119185 31:0.140417 32:0.120947 33:0.148118 34:0.126271 35:0.135742 36:0.154990 37:0.161580 38:0.141175 39:0.182818 40:0.160628 41:0.162680 42:0.174573 43:0.181764 44:0.179265 45:0.185903 46:0.173961 47:0.209968 48:0.212249 49:0.208778 50:0.209424 51:0.221299 52:0.232425 53:0.217183 54:0.232002 55:0.228230
1 1:-0.009302 2:0.014933 3:-0.005539 4:0.013812 5:0.030575 6:0.029167 7:0.033386 8:0.034968 9:0.046460 10:0.065657 11:0.028949 12:0.058682 13:0.058935 14:0.074694 15:0.057127 16:0.075684 17:0.066493 18:0.061869 19:0.061461 20:0.083688 21:0.091945 22:0.079679 23:0.087751 24:0.098460 25:0.091759 26:0.105829 27:0.092180 28:0.122318 29:0.134515 30:0.137654 31:0.116560 32:0.143569 33:0.149551 34:0.142089 35:0.151122 36:0.157489 37:0.150441 38:0.154583 39:0.166682 40:0.177652 41:0.150186 42:0.178431 43:0.167491 44:0.174784 45:0.210511 46:0.199146 47:0.196684 48:0.191254 49:0.190445 50:0.201510 51:0.218379 52:0.224781 53:0.226230 54:0.221797 55:0.239245
1 1:-0.004508 2:-0.003131 3:0.009463 4:0.007451 5:0.014172 6:0.024833 7:0.022647 8:0.029614 9:0.045137 10:0.041609 11:0.051704 12:0.044110 13:0.036848 14:0.065487 15:0.055408 16:0.074125 17:0.091670 18:0.085429 19:0.092525 20:0.080708 21:0.089965 22:0.080880 23:0.065787 24:0.088510 25:0.120211 26:0.083452 27:0.103859 28:0.111784 29:0.117885 30:0.144743 31:0.132802 32:0.128380 33:0.152989 34:0.163691 35:0.142259 36:0.140869 37:0.167231 38:0.152809 39:0.167292 40:0.158785 41:0.179863 42:0.185374 43:0.159040 44:0.193293 45:0.180544 46:0.202705 47:0.189569 48:0.211300 49:0.194425 50:0.208624 51:0.210759 52:0.195565 53:0.239470 54:0.235407 55:0.220439
1 1:0.000809 2:-0.004299 3:-0.007480 4:0.020304 5:0.015353 6:0.022706 7:0.026766 8:0.043273 9:0.033565 10:0.035643 11:0.045915 12:0.056572 13:0.059658 14:0.051412 15:0.071887 16:0.082292 17:0.070076 18:0.080623 19:0.073866 20:0.087412 21:0.092735 22:0.078620 23:0.075665 24:0.095197 25:0.099499 26:0.100259 27:0.122564 28:0.109417 29:0.128070 30:0.127432 31:0.122529 32:0.133027 33:0.143639 34:0.134147 35:0.152360 36:0.154420 37:0.158201 38:0.150114 39:0.158550 40:0.162040 41:0.168128 42:0.148601 43:0.187371 44:0.179087 45:0.178197 46:0.172510 47:0.224147 48:0.185339 49:0.219447 50:0.229448 51:0.217146 52:0.218478 53:0.212994 54:0.238764 55:0.240021
1 1:-0.012959 2:0.011806 3:0.027477 4:0.015370 5:0.010283 6:0.021892 7:0.022093 8:0.030256 9:0.050566 10:0.041317 11:0.032828 12:0.048169 13:0.041968 14:0.050993 15:0.058952 16:0.075647 17:0.070690 18:0.085284 19:0.067608 20:0.096435 21:0.086558 22:0.096054 23:0.086396 24:0.104697 25:0.094343 26:0.107926 27:0.133243 28:0.134890 29:0.138423 30:0.124746 31:0.130030 32:0.136637 33:0.132102 34:0.146549 35:0.143391 36:0.153217 37:0.162869 38:0.167390 39:0.176404 40:0.172756 41:0.189907 42:0.151319 43:0.174987 44:0.175144 45:0.168401 46:0.177204 47:0.191017 48:0.204625 49:0.194562 50:0.194949 51:0.229684 52:0.213597 53:0.210974 54:0.237510 55:0.235373
1 1:-0.008558 2:0.003414 3:0.008606 4:0.000866 5:0.023460 6:0.031290 7:0.019495 8:0.006422 9:0.048599 10:0.033343 11:0.029641 12:0.049580 13:0.063342 14:0.073286 15:0.044649 16:0.066177 17:0.082715 18:0.064585 19:0.092808 20:0.095593 21:0.077871 22:0.094521 23:0.089493 24:0.120009 25:0.105466 26:0.091506 27:0.097582 28:0.138145 29:0.125322 30:0.127173 31:0.133258 32:0.148959 33:0.145345 34:0.111355 35:0.160669 36:0.149387 37:0.133609 38:0.159786 39:0.166750 40:0.163624 41:0.187645 42:0.158658 43:0.179172 44:0.165232 45:0.183573 46:0.202546 47:0.198208 48:0.202266 49:0.207981 50:0.228372 51:0.201707 52:0.223978 53:0.217403 54:0.228971 55:0.221226
1 1:0.029628 2:-0.005460 3:-0.006873 4:0.005538 5:0.026462 6:0.017307 7:0.024176 8:0.042766 9:0.038996 10:0.067224 11:0.048049 12:0.066183 13:0.033559 14:0.079493 15:0.080551 16:0.072283 17:0.088551 18:0.063240 19:0.074621 20:0.091092 21:0.099172 22:0.102163 23:0.122101 24:0.087502 25:0.087475 26:0.101119 27:0.107340 28:0.128417 29:0.116948 30:0.117704 31:0.130837 32:0.132290 33:0.125101 34:0.139680 35:0.144747 36:0.149503 37:0.163267 38:0.148712 39:0.169574 40:0.151841 41:0.174819 42:0.171975 43:0.188234 44:0.189274 45:0.169314 46:0.184538 47:0.200155 48:0.205781 49:0.209745 50:0.215224 51:0.215595 52:0.223856 53:0.213477 54:0.203445 55:0.240193
1 1:0.004482 2:0.015104 3:0.015267 4:0.027072 5:0.018793 6:0.026637 7:0.032529 8:0.042666 9:0.052422 10:0.027876 11:0.044627 12:0.059806 13:0.047946 14:0.055318 15:0.057818 16:0.072852 17:0.074427 18:0.093972 19:0.083061 20:0.082277 21:0.093636 22:0.103935 23:0.104491 24:0.095290 25:0.103637 26:0.121043 27:0.105255 28:0.112079 29:0.114544 30:0.127390 31:0.145207 32:0.151191 33:0.130392 34:0.121615 35:0.135339 36:0.142243 37:0.162545 38:0.154037 39:0.156697 40:0.167143 41:0.174427 42:0.161627 43:0.185988 44:0.180209 45:0.199359 46:0.194865 47:0.199881 48:0.196232 49:0.209594 50:0.203312 51:0.205120 52:0.214593 53:0.228398 54:0.228051 55:0.226881
1 1:0.019504 2:0.017123 3:0.013446 4:0.023375 5:0.024520 6:0.036101 7:0.019236 8:0.067316 9:0.022610 10:0.051256 11:0.054727 12:0.049341 13:0.046299 14:0.061141 15:0.062982 16:0.081368 17:0.067392 18:0.077570 19:0.091001 20:0.083623 21:0.079994 22:0.072750 23:0.103288 24:0.113866 25:0.122585 26:0.104190 27:0.119260 28:0.131697 29:0.117561 30:0.125683 31:0.126907 32:0.123891 33:0.138567 34:0.125058 35:0.156566 36:0.152163 37:0.157334 38:0.150688 39:0.170639 40:0.174638 41:0.160367 42:0.150537 43:0.171863 44:0.177566 45:0.201632 46:0.183849 47:0.188811 48:0.200451 49:0.190786 50:0.224998 51:0.216149 52:0.209669 53:0.236697 54:0.229278 55:0.226855
1 1:0.024961 2:0.010503 3:0.022333 4:0.020808 5:0.027537 6:0.023505 7:0.043288 8:0.048817 9:0.040036 10:0.024762 11:0.051208 12:0.059033 13:0.054607 14:0.055779 15:0.064955 16:0.063979 17:0.071983 18:0.076579 19:0.092224 20:0.083693 21:0.070105 22:0.090965 23:0.101747 24:0.080670 25:0.100094 26:0.097469 27:0.108697 28:0.123121 29:0.104206 30:0.105642 31:0.132484 32:0.149399 33:0.146491 34:0.142922 35:0.155127 36:0.144838 37:0.155716 38:0.158643 39:0.163752 40:0.150482 41:0.157873 42:0.192593 43:0.190966 44:0.180122 45:0.186458 46:0.193478 47:0.226780 48:0.202532 49:0.199894 50:0.216797 51:0.210243 52:0.209136 53:0.222151 54:0.241186 55:0.203098
1 1:-0.007169 2:0.016395 3:0.020045 4:0.025202 5:0.009716 6:0.043894 7:0.038151 8:0.044956 9:0.039070 10:0.030626 11:0.045192 12:0.061793 13:0.054888 14:0.059364 15:0.055093 16:0.071809 17:0.066525 18:0.063646 19:0.089951 20:0.085175 21:0.111272 22:0.081479 23:0.106557 24:0.084826 25:0.108233 26:0.125311 27:0.103986 28:0.115257 29:0.109063 30:0.117293 31:0.131427 32:0.130450 33:0.131403 34:0.130576 35:0.136473 36:0.149757 37:0.178539 38:0.160395 39:0.152510 40:0.159008 41:0.167488 42:0.194819 43:0.176930 44:0.185553 45:0.180688 46:0.189930 47:0.207929 48:0.199347 49:0.207981 50:0.195979 51:0.216548 52:0.221146 53:0.217920 54:0.225729 55:0.237458
