-1 1:0.445144 2:-0.224407 3:-0.107235 4:0.634193 5:0.257256 6:-1.403516 7:-1.686868 8:1.095713 9:-0.817203 10:-1.356519 11:0.532337 12:1.645030 13:1.091978 14:1.869492 15:-0.465107 16:2.196934 17:0.147506 18:-0.437111 19:-0.011414 20:-1.648434 21:0.772052 22:0.200504 23:-0.371588 24:1.075555 25:1.158932 26:-1.490954 27:-0.903346 28:1.327296 29:-0.337865 30:0.974341 31:0.286953 32:1.082057 33:0.216406 34:0.136286 35:1.235815
-1 1:0.655077 2:0.750248 3:0.815498 4:0.338021 5:0.125006 6:-0.914415 7:-0.790254 8:0.205242 9:0.653510 10:0.483481 11:0.485488 12:-0.696927 13:-2.050997 14:-0.525515 15:-1.287269 16:0.456373 17:-2.072575 18:-0.384636 19:0.621475 20:0.891982 21:-0.331970 22:0.671793 23:0.598393 24:-0.065069 25:2.457188 26:0.544113 27:-1.183589 28:-0.504132 29:0.672203 30:1.075253 31:-2.441032 32:0.239530 33:1.058881 34:2.539753 35:-0.011468
-1 1:-1.587735 2:-0.532884 3:0.316362 4:-1.726599 5:-0.248324 6:1.677168 7:2.586769 8:1.247032 9:0.451476 10:-2.466260 11:2.227677 12:1.084592 13:0.839606 14:-0.380247 15:0.152534 16:-1.309729 17:0.532513 18:-0.708013 19:-0.816743 20:-0.941814 21:-0.515696 22:0.022561 23:-0.707857 24:0.755874 25:0.283132 26:0.144686 27:1.159981 28:-0.309975 29:-1.562139 30:-0.276294 31:-1.450627 32:1.101671 33:-3.086317 34:-0.909902 35:-0.529810
-1 1:-0.632422 2:-0.490716 3:-1.558054 4:-1.846432 5:0.227135 6:-0.575225 7:1.673284 8:-1.187575 9:-1.132519 10:-0.671186 11:0.783749 12:0.251942 13:0.013751 14:-0.437657 15:-1.258153 16:-0.304445 17:-1.529090 18:-0.193318 19:1.162801 20:0.608597 21:0.059259 22:1.184771 23:-0.261288 24:-1.072996 25:-1.077094 26:0.581942 27:-0.976324 28:0.321706 29:0.572006 30:0.902595 31:-1.257472 32:-0.026940 33:-0.655033 34:-1.616351 35:-1.647278
-1 1:-1.029635 2:0.295248 3:0.442347 4:0.169785 5:-0.135843 6:1.346998 7:-0.073423 8:-0.658079 9:0.624938 10:0.234732 11:0.806001 12:0.545507 13:0.507036 14:0.754946 15:-1.250650 16:0.556185 17:-0.579197 18:0.208459 19:1.465232 20:-0.055067 21:-0.328112 22:-0.471681 23:-1.563987 24:0.221053 25:-0.727249 26:0.019495 27:0.640861 28:1.991899 29:1.469886 30:1.027940 31:-1.024373 32:1.356639 33:1.670289 34:-1.160224 35:-0.404562
-1 1:-1.254949 2:0.279410 3:0.666025 4:0.742792 5:0.779445 6:-0.245962 7:1.504333 8:0.076495 9:-0.046426 10:-1.662282 11:-0.062222 12:0.099144 13:0.679746 14:0.184938 15:0.293620 16:0.685635 17:-0.849013 18:-0.735191 19:1.425643 20:-2.327353 21:0.782067 22:-0.759802 23:-1.765737 24:-0.785302 25:-1.061562 26:0.749068 27:1.767674 28:-0.837937 29:-1.405437 30:0.257867 31:0.451872 32:-0.945200 33:1.533455 34:-1.334610 35:0.068364
-1 1:-0.671672 2:-0.193764 3:-2.197449 4:-0.408565 5:0.753345 6:-1.002318 7:1.142102 8:-0.336280 9:0.566627 10:1.438845 11:0.310379 12:-0.808541 13:-0.957777 14:0.689173 15:-0.023268 16:-0.235993 17:-0.789133 18:-0.515604 19:0.428559 20:-0.266045 21:1.433790 22:0.955765 23:1.668168 24:0.546497 25:-0.001590 26:-1.456116 27:-0.983112 28:-1.131235 29:2.219565 30:-0.287804 31:0.232361 32:1.010124 33:1.019051 34:-1.584201 35:-1.086792
-1 1:0.280098 2:-1.028917 3:-0.478976 4:0.111613 5:0.754732 6:-1.006156 7:0.652957 8:-1.961369 9:0.276735 10:0.109223 11:-1.091755 12:-1.011178 13:1.025656 14:0.475239 15:-0.621823 16:-1.521175 17:-0.025232 18:-0.043460 19:-0.554784 20:0.291006 21:0.854197 22:0.900111 23:-0.998635 24:-0.198847 25:0.843285 26:0.005214 27:-0.089815 28:0.824113 29:-0.695843 30:0.518297 31:-0.677943 32:1.347028 33:0.448604 34:1.797165 35:0.060853
-1 1:0.310231 2:0.472101 3:1.582013 4:-0.057369 5:-2.261317 6:1.122879 7:-0.189887 8:-0.675957 9:-0.885716 10:-0.592228 11:-0.615468 12:0.783905 13:0.804101 14:1.158312 15:0.801747 16:1.117296 17:0.873076 18:0.058998 19:-0.913310 20:0.613198 21:-1.196281 22:-0.144227 23:1.696251 24:-1.159429 25:0.246682 26:-2.237831 27:-0.541012 28:-0.671858 29:1.092313 30:0.256139 31:0.308857 32:0.379857 33:0.014431 34:-2.171911 35:0.109517
-1 1:2.316669 2:1.239997 3:-0.819366 4:1.509983 5:-0.707683 6:0.091005 7:-0.182600 8:1.326371 9:0.760611 10:-0.635251 11:-2.273621 12:-0.602905 13:0.213123 14:-0.670046 15:0.704324 16:1.127452 17:3.258020 18:1.093774 19:0.475017 20:0.628814 21:-1.369726 22:-1.525036 23:0.252587 24:2.064403 25:1.607101 26:-0.025701 27:0.110484 28:-0.239032 29:-1.747938 30:0.547110 31:0.228985 32:-0.662376 33:-1.417925 34:0.565607 35:1.378592
-1 1:-0.807821 2:-0.240101 3:-0.065584 4:-0.050713 5:-1.310449 6:-0.238906 7:0.862342 8:-0.765738 9:-0.690374 10:0.291662 11:0.399342 12:0.908217 13:1.185208 14:-0.391567 15:-0.423728 16:0.281333 17:-1.000094 18:0.941886 19:0.254256 20:0.540001 21:-1.144525 22:-0.890741 23:1.169835 24:0.499946 25:-0.138016 26:-0.152459 27:0.648245 28:-0.005101 29:-0.273844 30:0.788327 31:0.461653 32:-2.109791 33:0.251725 34:0.820391 35:0.722595
-1 1:1.330811 2:0.292634 3:-1.060203 4:-1.344914 5:0.613172 6:0.291933 7:-2.259444 8:-2.242328 9:-0.217991 10:-1.371468 11:0.345082 12:0.374736 13:-1.206592 14:0.057514 15:-1.479723 16:0.440402 17:-0.444878 18:-1.257116 19:0.991048 20:0.643879 21:-0.305640 22:0.318357 23:0.149283 24:0.487123 25:0.257803 26:0.744445 27:-0.470764 28:0.571461 29:0.541101 30:0.228154 31:-1.433306 32:-1.132478 33:-1.144830 34:1.525050 35:-0.614690
-1 1:0.993139 2:-0.591863 3:-0.465936 4:-0.918928 5:1.220123 6:0.149935 7:-0.199756 8:2.246389 9:0.350980 10:0.477783 11:-0.222674 12:1.870859 13:1.050332 14:-0.954244 15:-0.328704 16:-0.540572 17:1.602251 18:0.814211 19:-1.832171 20:1.335295 21:-0.082088 22:0.950379 23:0.083968 24:0.202420 25:0.121862 26:-1.084946 27:-1.538189 28:-0.243262 29:-0.854766 30:-0.228679 31:0.090645 32:-0.156802 33:-1.021464 34:-1.756236 35:0.098063
-1 1:0.223666 2:0.112373 3:-0.853287 4:-1.443890 5:2.269719 6:-1.803262 7:-0.339819 8:0.456086 9:-0.178707 10:1.179639 11:-0.126885 12:0.239624 13:0.605262 14:-1.148565 15:1.702220 16:-0.628301 17:-1.362108 18:0.287229 19:1.088431 20:0.124977 21:-0.213703 22:1.143269 23:0.688766 24:-1.327435 25:-0.620330 26:-0.735078 27:0.653635 28:-0.607203 29:0.422339 30:-0.087106 31:-0.584453 32:1.410257 33:-0.169691 34:-0.997717 35:-0.209286
-1 1:1.335281 2:-1.639017 3:-0.741276 4:1.236919 5:0.446370 6:-1.863457 7:0.570355 8:-1.435368 9:0.504611 10:0.265903 11:1.356246 12:0.166868 13:0.861931 14:2.095067 15:0.387403 16:1.163352 17:0.496150 18:-0.199792 19:0.329728 20:2.126582 21:-0.908533 22:0.266929 23:1.158436 24:-0.464865 25:-0.248885 26:-1.997198 27:-1.515627 28:-0.423203 29:0.692951 30:0.856704 31:0.365498 32:0.689360 33:1.460309 34:-0.140687 35:0.112139
-1 1:-0.166480 2:0.447392 3:-1.028971 4:1.177408 5:1.222438 6:-1.220719 7:-1.037476 8:-0.192853 9:-0.642890 10:-0.052417 11:0.592030 12:0.485192 13:-1.873457 14:-1.107478 15:0.322400 16:-0.288763 17:0.644686 18:0.093758 19:-1.089197 20:0.729373 21:0.903297 22:-1.107083 23:-1.369209 24:-0.505304 25:0.376431 26:-0.318085 27:0.213756 28:-1.015798 29:1.082834 30:-0.166967 31:-0.036047 32:2.317303 33:0.768293 34:-0.538703 35:1.398091
-1 1:0.811206 2:-1.181388 3:0.026047 4:1.850059 5:1.580549 6:-0.880684 7:1.693432 8:-0.354203 9:-0.951072 10:-1.380020 11:0.513009 12:0.017647 13:0.130004 14:0.107222 15:2.649730 16:1.309017 17:-0.813399 18:0.095832 19:-0.908398 20:-0.598004 21:-0.296042 22:1.391621 23:1.550947 24:-0.214509 25:1.317025 26:1.688949 27:-0.756054 28:-0.801883 29:2.460399 30:0.212312 31:-0.380912 32:1.022827 33:-0.194644 34:-0.718636 35:0.237913
-1 1:-0.386665 2:-0.198542 3:0.770814 4:-1.038857 5:0.705901 6:-1.032251 7:-1.090710 8:0.416640 9:1.764451 10:-0.840856 11:0.738589 12:0.970572 13:-1.023275 14:1.325130 15:-0.080269 16:-1.768260 17:0.325981 18:-1.240995 19:0.265497 20:-0.673338 21:-0.278660 22:2.163364 23:0.805834 24:1.989877 25:-2.156205 26:-1.228879 27:0.886997 28:-0.461746 29:1.281811 30:0.257127 31:0.551716 32:-0.876868 33:1.704270 34:0.130143 35:0.286247
-1 1:0.857209 2:-0.524428 3:-0.636957 4:-2.581253 5:0.775224 6:-0.119511 7:1.144066 8:-0.210743 9:-1.036939 10:-0.004042 11:1.238884 12:-0.838934 13:1.211329 14:2.049774 15:0.111091 16:0.839631 17:-0.604004 18:-0.433478 19:0.742305 20:-2.447674 21:-0.900119 22:-0.700473 23:-1.672565 24:1.603945 25:2.580832 26:-0.239016 27:-0.597870 28:-0.107640 29:0.809370 30:1.318915 31:1.244972 32:0.127562 33:-0.275437 34:0.637522 35:-0.146367
-1 1:-0.083036 2:0.951947 3:0.710633 4:1.949290 5:2.195995 6:-0.114965 7:0.922060 8:-0.475840 9:-0.734360 10:0.451238 11:-0.390134 12:1.829663 13:1.008457 14:0.441259 15:2.242347 16:1.010763 17:-0.424588 18:1.029294 19:-1.561239 20:0.301506 21:-1.482829 22:-0.854577 23:0.291611 24:-1.812552 25:1.692079 26:-0.080423 27:-1.112492 28:0.211653 29:-1.475301 30:2.294273 31:0.810254 32:1.422835 33:1.482967 34:-1.016587 35:-1.087992
-1 1:1.322720 2:-0.393961 3:0.095729 4:1.512587 5:0.157210 6:1.556523 7:0.551478 8:0.115020 9:0.333740 10:0.421818 11:0.040512 12:0.321288 13:-3.397489 14:0.845483 15:-0.889935 16:0.218957 17:-0.461967 18:0.811373 19:-0.162412 20:0.262104 21:-0.698680 22:1.365342 23:-0.693324 24:1.123278 25:-0.825841 26:0.935590 27:-0.141255 28:-0.074629 29:1.803783 30:-0.473387 31:0.467628 32:-0.127993 33:0.210880 34:0.232404 35:-1.155436
-1 1:0.238440 2:1.137007 3:-2.263126 4:1.434382 5:1.826224 6:0.810232 7:1.042551 8:0.988905 9:-0.899060 10:0.453990 11:-0.142566 12:-0.006775 13:-0.179768 14:-0.156927 15:-1.346743 16:-0.943935 17:0.150359 18:0.159513 19:1.331556 20:-0.806226 21:0.153922 22:-0.970991 23:-0.431598 24:-0.001904 25:-0.217332 26:-0.055270 27:0.122707 28:-0.193484 29:-1.122399 30:-1.608738 31:0.407242 32:0.991331 33:0.799627 34:-1.903230 35:-0.363599
-1 1:1.088197 2:0.120462 3:0.308273 4:-0.366205 5:0.324152 6:0.294608 7:0.271857 8:-0.851007 9:0.567756 10:-0.439607 11:-1.026581 12:1.505874 13:1.383335 14:1.702418 15:-0.205909 16:1.139525 17:-0.437203 18:-0.915552 19:-1.522595 20:0.053221 21:-0.164818 22:0.950972 23:-0.754402 24:0.432600 25:0.254817 26:0.131378 27:-0.161667 28:-0.741624 29:-0.055305 30:-0.121006 31:0.826349 32:-0.548055 33:0.066427 34:0.098699 35:0.420224
-1 1:-0.002275 2:0.063145 3:-0.772899 4:-0.824481 5:-0.368961 6:-0.308399 7:0.028535 8:1.053914 9:0.218048 10:1.165509 11:0.780492 12:-0.856908 13:-0.270067 14:0.425897 15:1.891756 16:0.168862 17:-0.077524 18:-0.423685 19:-0.732771 20:0.896753 21:0.378130 22:0.126761 23:0.509516 24:0.604682 25:0.238659 26:0.687211 27:-0.062163 28:-1.104467 29:-0.493799 30:0.087673 31:1.506162 32:0.156307 33:-0.700188 34:0.720960 35:1.425785
-1 1:1.453091 2:-0.653486 3:-1.130351 4:-0.270763 5:0.967679 6:0.761596 7:0.668155 8:0.339776 9:-0.995402 10:0.162051 11:-0.050101 12:1.093921 13:0.999860 14:-0.877619 15:0.304803 16:0.551939 17:-0.796689 18:-0.360849 19:-0.469613 20:0.012643 21:0.218287 22:-0.535115 23:-1.162069 24:-0.225444 25:1.681961 26:1.856657 27:-0.301738 28:-0.825985 29:1.374754 30:-1.007690 31:-0.222240 32:-1.189078 33:-1.211172 34:0.812543 35:0.191044
-1 1:-0.163242 2:-1.252420 3:0.917918 4:-0.094350 5:0.453154 6:0.212603 7:-2.102988 8:0.122417 9:-0.671742 10:1.078415 11:0.683221 12:1.750675 13:-0.133251 14:-1.190933 15:-2.138585 16:0.865940 17:0.144923 18:1.184257 19:-0.854612 20:0.896643 21:1.253105 22:-0.117742 23:-0.031189 24:-0.028558 25:0.293461 26:-2.240956 27:0.987484 28:0.641581 29:-1.016896 30:1.763391 31:-0.100623 32:-0.006103 33:-0.987909 34:-0.391746 35:0.393134
-1 1:-1.189146 2:0.692810 3:-0.546442 4:-0.551027 5:0.500143 6:-0.863853 7:-1.540572 8:-0.726379 9:1.955034 10:-2.617952 11:0.608057 12:0.991505 13:1.649650 14:-1.122911 15:1.624736 16:-1.285245 17:2.031435 18:0.066586 19:0.634068 20:1.795502 21:-0.438033 22:1.005345 23:-0.282983 24:-0.018079 25:-0.614177 26:-0.300628 27:-2.007992 28:0.019644 29:-1.296465 30:-0.285783 31:0.430197 32:2.423575 33:0.546182 34:-0.475440 35:0.537167
-1 1:-1.423027 2:0.674865 3:0.802234 4:0.358077 5:-0.512932 6:-0.529317 7:1.130241 8:-1.010948 9:-0.802461 10:-2.389836 11:0.749237 12:1.015886 13:-0.044479 14:-1.114445 15:-1.084868 16:-0.582165 17:-1.537834 18:0.101831 19:1.547111 20:0.527134 21:0.885919 22:0.163156 23:0.441387 24:-1.000395 25:0.868416 26:-1.281609 27:-1.179392 28:0.970119 29:1.132628 30:1.437158 31:0.538264 32:0.565822 33:0.936963 34:-2.519389 35:1.131537
-1 1:-0.958106 2:0.539917 3:1.068861 4:-1.265057 5:-0.391718 6:-0.881459 7:-2.743419 8:-0.894934 9:0.926553 10:-0.512701 11:1.332492 12:-1.362996 13:0.022424 14:0.198095 15:0.678318 16:-0.072600 17:-0.527567 18:0.009271 19:-0.379776 20:1.537941 21:-0.076065 22:1.304634 23:0.624601 24:-0.038430 25:-0.588893 26:0.908213 27:0.602738 28:-0.583151 29:-0.015455 30:0.496827 31:-2.212584 32:0.814384 33:-0.139861 34:0.058945 35:-0.065791
-1 1:0.139680 2:-0.458651 3:0.613213 4:1.374968 5:0.708698 6:0.008899 7:-0.897389 8:-1.032632 9:-0.129154 10:-1.249381 11:-0.925296 12:-0.601844 13:0.072911 14:-0.540093 15:-0.981072 16:0.011171 17:-0.294938 18:-0.374499 19:0.075194 20:-0.213451 21:0.501499 22:0.425326 23:1.140686 24:-0.152193 25:-1.450340 26:1.078630 27:1.017636 28:1.829620 29:2.791567 30:1.596075 31:0.178149 32:0.044199 33:-1.442010 34:-0.011120 35:-0.802801
-1 1:-0.996752 2:-0.308482 3:0.124333 4:1.187008 5:1.260955 6:-0.346281 7:0.386326 8:-1.687067 9:-0.544240 10:1.292638 11:0.473125 12:0.228486 13:0.104333 14:0.435861 15:0.825484 16:0.188042 17:1.080839 18:-0.696999 19:0.335648 20:0.066645 21:-2.313066 22:0.116186 23:-0.781650 24:-0.064915 25:-0.235218 26:1.232584 27:-0.881788 28:-2.061922 29:0.973501 30:0.649469 31:-0.782690 32:-0.085830 33:-0.057895 34:3.030258 35:-0.418427
-1 1:0.730945 2:-0.985063 3:1.791318 4:-0.236991 5:1.752225 6:0.338544 7:-0.686481 8:0.064392 9:0.879203 10:0.006065 11:0.315415 12:-1.023452 13:1.644910 14:-0.739187 15:0.032829 16:0.344073 17:0.014019 18:1.391182 19:0.186798 20:1.202835 21:-0.025312 22:-0.356125 23:0.879530 24:-0.617963 25:0.669187 26:0.370627 27:-1.926894 28:-2.345617 29:1.278919 30:-0.683380 31:0.444536 32:0.361118 33:0.163065 34:0.740473 35:0.450583
-1 1:1.606416 2:-1.229191 3:-0.259930 4:-0.030544 5:-1.144854 6:-2.081668 7:-1.161507 8:0.116745 9:-0.336749 10:0.029120 11:-0.015290 12:0.090686 13:-0.685907 14:0.367283 15:0.094871 16:-1.137181 17:-1.046515 18:-0.521982 19:-1.075384 20:0.860482 21:-0.657085 22:0.504548 23:0.772740 24:-0.590306 25:-0.801126 26:0.581418 27:0.975780 28:-1.444343 29:1.634728 30:0.201773 31:-0.817749 32:0.135677 33:0.166022 34:0.955493 35:-0.020407
-1 1:-1.900294 2:-0.736840 3:-1.390398 4:-0.980135 5:-1.127408 6:-0.059013 7:-0.452687 8:0.185231 9:-1.481148 10:1.331951 11:-1.106122 12:0.571795 13:-1.089287 14:-0.414991 15:-0.015968 16:-0.257390 17:0.187744 18:1.663275 19:-0.135476 20:-1.850676 21:-1.491143 22:-0.254252 23:-1.677492 24:1.098725 25:-0.803842 26:-0.946605 27:-1.876424 28:0.518610 29:1.130713 30:0.301743 31:0.208753 32:0.629520 33:0.702416 34:1.205521 35:2.048283
-1 1:0.637959 2:-1.069372 3:-0.764008 4:1.036094 5:-0.972729 6:0.337320 7:1.236166 8:1.029705 9:0.259281 10:0.795975 11:-0.708301 12:0.070019 13:0.417156 14:0.448318 15:-0.528709 16:-2.638470 17:0.804890 18:-1.175497 19:0.736724 20:0.567241 21:-0.200100 22:1.493738 23:-0.214633 24:-0.285713 25:0.386633 26:-0.943584 27:0.266648 28:-0.289254 29:-0.121822 30:1.785619 31:0.893373 32:-1.685493 33:-1.900558 34:1.350621 35:0.240523
-1 1:-1.088685 2:0.383969 3:1.683141 4:-0.897490 5:1.359723 6:-1.002680 7:0.149577 8:1.160998 9:-0.188417 10:0.964219 11:1.927100 12:-0.139866 13:0.432597 14:0.569709 15:-0.594982 16:-1.221966 17:0.275693 18:1.646867 19:-1.053749 20:1.940088 21:0.824247 22:0.473857 23:-0.230798 24:1.571937 25:-0.712977 26:-0.613394 27:2.962059 28:-0.774231 29:-0.204207 30:-1.212536 31:-0.390928 32:0.172291 33:0.516508 34:0.198672 35:-0.408949
-1 1:0.123861 2:0.607387 3:0.790879 4:-1.006418 5:0.905852 6:-0.635920 7:1.685304 8:0.898203 9:0.118724 10:0.662161 11:-1.136788 12:-0.469542 13:0.204292 14:0.705312 15:0.495702 16:-1.449727 17:-0.621026 18:-0.131976 19:0.191779 20:-0.055020 21:-0.993851 22:-0.317934 23:0.692331 24:-0.139500 25:-0.464745 26:0.425352 27:0.084063 28:0.197896 29:-0.873308 30:0.191105 31:0.672083 32:0.732409 33:0.415226 34:1.978144 35:-0.616633
-1 1:0.053008 2:-0.394452 3:0.004630 4:1.017757 5:0.999378 6:0.233310 7:1.378582 8:-0.600922 9:-0.869682 10:0.151580 11:0.874568 12:0.680622 13:-1.735415 14:-0.126265 15:0.500993 16:0.422362 17:-1.983516 18:-0.527915 19:-0.401173 20:0.131585 21:-0.595485 22:-0.615588 23:1.226355 24:0.940256 25:-1.019187 26:0.264353 27:-0.214797 28:1.405842 29:-1.067703 30:-0.368048 31:1.398160 32:1.811263 33:0.201896 34:0.533208 35:0.770639
-1 1:2.817916 2:-0.669738 3:-0.947813 4:0.003331 5:1.272542 6:-0.380603 7:1.646393 8:0.844891 9:0.150628 10:-1.276472 11:0.911490 12:-1.960932 13:1.255405 14:-0.186251 15:0.461014 16:1.022762 17:-1.473073 18:0.565758 19:0.253703 20:2.273677 21:-0.922224 22:-2.187560 23:-0.134617 24:1.231435 25:0.255143 26:0.172262 27:0.031948 28:-0.560233 29:0.349303 30:0.542312 31:1.508225 32:-2.007443 33:-0.096095 34:-1.455193 35:1.448412
-1 1:-0.766520 2:-0.504998 3:-1.581655 4:-0.651603 5:-0.438816 6:-0.624206 7:0.379529 8:0.281932 9:0.104950 10:0.375058 11:-0.006736 12:-0.721662 13:-1.714241 14:0.603891 15:0.724802 16:-0.436434 17:-0.995406 18:0.217577 19:-0.810015 20:1.114079 21:0.404319 22:0.516440 23:-0.387616 24:0.787155 25:1.126817 26:-0.815013 27:-0.474396 28:0.610292 29:-0.523983 30:0.103314 31:1.190978 32:-0.802137 33:-0.350092 34:-0.526977 35:0.625526
-1 1:0.598860 2:1.680029 3:1.127149 4:-0.825934 5:0.219730 6:0.849324 7:-0.337845 8:-1.692052 9:-2.090167 10:-0.027300 11:1.069955 12:0.341352 13:0.927741 14:0.521209 15:0.682782 16:-2.356629 17:-0.719567 18:-0.602595 19:-1.230926 20:-0.548870 21:-2.700997 22:0.883397 23:0.157924 24:0.509751 25:0.002152 26:-0.006517 27:-1.079667 28:-0.088451 29:0.907464 30:0.176619 31:0.766034 32:0.980772 33:0.520592 34:0.351991 35:-0.820698
-1 1:0.731004 2:0.849804 3:0.044067 4:0.143279 5:-1.398736 6:0.258095 7:-0.481583 8:-0.236453 9:-0.445459 10:0.492589 11:0.352380 12:-1.290332 13:0.627862 14:-0.101266 15:1.009922 16:-1.152501 17:0.061065 18:0.131999 19:-0.362461 20:1.203432 21:2.008569 22:0.263352 23:2.371077 24:-0.824453 25:0.317128 26:0.019132 27:-1.297323 28:0.292747 29:0.440753 30:0.188277 31:0.921065 32:-0.373703 33:0.722673 34:1.763755 35:1.135314
-1 1:-2.169363 2:-1.477663 3:1.611285 4:1.454202 5:0.859990 6:0.233926 7:1.537076 8:-1.756911 9:-1.087687 10:-0.642271 11:-0.272424 12:0.174869 13:-0.641064 14:-1.420702 15:-1.189736 16:-0.371327 17:-0.574813 18:-1.533478 19:-0.942645 20:-0.443874 21:-0.304518 22:-0.134040 23:0.046597 24:0.609571 25:-0.258371 26:-0.012842 27:0.461410 28:-0.301371 29:-2.248022 30:1.927182 31:-0.267893 32:-0.226360 33:-1.523922 34:0.648770 35:0.146732
-1 1:-1.436369 2:0.284295 3:-1.494689 4:-0.733832 5:1.459370 6:-0.599357 7:-0.132257 8:0.622097 9:0.089069 10:0.894032 11:0.411694 12:0.326493 13:1.106522 14:-0.540843 15:1.268180 16:-0.747081 17:-0.357715 18:-1.149232 19:1.663913 20:0.866043 21:-1.311896 22:-0.022988 23:0.789039 24:-0.426735 25:1.904860 26:1.475535 27:-0.294059 28:-0.341308 29:-0.124065 30:-1.150856 31:0.524957 32:-0.617375 33:-0.626643 34:-0.141521 35:-0.665396
-1 1:1.199415 2:0.252912 3:0.170615 4:-0.553199 5:-0.880543 6:-0.703394 7:0.505055 8:0.034440 9:-1.141823 10:0.593968 11:0.258762 12:-0.145806 13:0.209720 14:0.710056 15:-0.809004 16:0.423035 17:0.306611 18:-1.497729 19:-0.414630 20:1.080871 21:-0.637898 22:-2.060761 23:-0.669725 24:-0.906459 25:-0.994136 26:-0.374463 27:0.052747 28:0.682212 29:-0.894191 30:1.550898 31:-0.077147 32:0.393339 33:0.957914 34:-0.998019 35:1.274955
-1 1:-0.224044 2:0.092545 3:0.229390 4:0.650023 5:-2.037417 6:1.027550 7:-1.726263 8:-0.697506 9:0.944222 10:-0.513938 11:-0.725929 12:0.442442 13:1.526653 14:1.374301 15:-0.439151 16:1.171246 17:-1.145165 18:0.119843 19:0.309063 20:-0.875565 21:-1.891043 22:-0.079579 23:-1.919668 24:0.645102 25:1.296017 26:-0.192774 27:0.058536 28:1.809282 29:-0.968299 30:-0.351189 31:0.327420 32:-2.241612 33:-0.381117 34:-0.361014 35:1.105057
-1 1:-3.118367 2:0.013993 3:1.085274 4:-1.164561 5:-0.757762 6:1.230712 7:-0.644747 8:-0.033382 9:-0.137195 10:0.674276 11:1.639320 12:-0.468279 13:-0.432639 14:0.491271 15:1.644451 16:0.977922 17:-1.055752 18:-1.431447 19:-2.074699 20:-0.362063 21:0.073919 22:-0.601190 23:1.066722 24:0.349627 25:-0.185607 26:1.418671 27:-0.054044 28:-1.621123 29:2.249390 30:-1.504805 31:1.183193 32:0.005209 33:-0.967185 34:2.810847 35:-1.142611
-1 1:0.820229 2:0.205337 3:0.837374 4:-2.063220 5:0.349819 6:0.817801 7:0.472326 8:0.222514 9:-1.814846 10:-0.518107 11:-0.457811 12:1.382515 13:1.288722 14:0.352224 15:0.623704 16:0.012123 17:0.119500 18:0.326224 19:-0.007815 20:0.499908 21:-0.263371 22:1.261906 23:-1.696131 24:0.110589 25:-0.403139 26:-1.973046 27:2.191214 28:-0.356816 29:-0.490688 30:-0.046063 31:-0.242056 32:-0.975425 33:-1.000649 34:-0.178358 35:0.709677
-1 1:-0.428042 2:-0.769040 3:1.948083 4:0.138179 5:-1.385411 6:-2.731564 7:-0.992113 8:-1.625612 9:0.935484 10:-0.623716 11:-0.175562 12:1.715925 13:-2.237294 14:2.848105 15:-0.608260 16:-1.597539 17:-0.861542 18:0.370371 19:-0.756653 20:-2.322828 21:-2.387983 22:-0.753471 23:-1.207146 24:0.890775 25:-0.816522 26:-0.476845 27:-1.586419 28:0.620398 29:0.733154 30:-1.562979 31:0.451344 32:1.142155 33:-0.529785 34:1.558419 35:-1.291325
-1 1:-0.083671 2:0.370746 3:1.413103 4:0.101455 5:-0.703443 6:-1.508999 7:1.022660 8:-0.269399 9:-0.755924 10:-0.988969 11:-0.495343 12:0.800276 13:1.800071 14:2.652339 15:1.244008 16:-1.593153 17:0.562596 18:0.605003 19:-0.135683 20:0.924808 21:0.734467 22:1.659045 23:-1.238828 24:1.591841 25:-0.382295 26:0.303143 27:-0.445653 28:-0.009177 29:0.562720 30:-0.026710 31:1.741876 32:0.984456 33:0.767649 34:-0.924382 35:-0.133775
-1 1:-0.093554 2:0.698021 3:-0.836673 4:0.338014 5:1.222044 6:0.392106 7:1.414118 8:-1.511039 9:0.770947 10:-0.873921 11:-1.064841 12:-0.433285 13:-0.387038 14:-0.156053 15:0.945313 16:-0.692709 17:1.709974 18:0.582273 19:-0.639811 20:0.026366 21:1.298161 22:-1.076431 23:0.242523 24:-0.294918 25:0.202500 26:-0.048744 27:-0.196502 28:0.862686 29:0.012620 30:1.242140 31:1.806992 32:0.931936 33:-1.160665 34:1.163537 35:-0.441944
-1 1:1.343988 2:-1.541701 3:0.400646 4:-0.097808 5:-0.670292 6:-0.026052 7:-0.586456 8:-0.122379 9:1.940427 10:-0.404195 11:-0.889746 12:-0.003117 13:0.993664 14:0.757414 15:0.101048 16:-1.437149 17:0.467964 18:-0.196755 19:1.350801 20:-0.367214 21:1.329480 22:0.759618 23:2.138508 24:0.314224 25:-0.202179 26:1.187582 27:-0.823199 28:1.063950 29:-0.112993 30:-0.709175 31:-1.588174 32:-0.727912 33:1.592646 34:1.583990 35:-0.530069
-1 1:0.823219 2:-0.266024 3:-0.286025 4:-1.400680 5:-0.733569 6:0.415327 7:0.534695 8:-1.443244 9:-0.716098 10:-0.200106 11:-0.600499 12:1.962544 13:-0.177544 14:-0.172209 15:2.343652 16:-0.792900 17:-0.100590 18:1.132159 19:-0.068070 20:-0.436157 21:0.161865 22:0.584568 23:1.435560 24:-0.491718 25:-0.268762 26:1.223417 27:0.205339 28:-0.567414 29:-0.707632 30:-0.544935 31:1.216471 32:-0.498197 33:0.698344 34:-0.833335 35:0.485270
-1 1:-2.022175 2:-0.487509 3:1.034397 4:0.639403 5:-2.763723 6:-0.925067 7:0.469696 8:-1.080880 9:1.098647 10:1.526296 11:-0.314368 12:0.518886 13:0.974543 14:-0.331703 15:0.840159 16:0.043630 17:0.353760 18:0.052628 19:-1.329968 20:-0.459299 21:0.549091 22:0.138089 23:-1.552903 24:-1.350057 25:-0.616417 26:0.483836 27:-0.690770 28:0.016061 29:-1.486916 30:0.293819 31:0.960026 32:-1.348886 33:-1.433322 34:1.780183 35:-0.708306
-1 1:-0.092753 2:0.033034 3:-0.470917 4:0.246209 5:-1.302670 6:2.027219 7:0.292918 8:1.216999 9:1.450784 10:-0.925218 11:0.534452 12:-3.568770 13:-0.432237 14:0.756216 15:1.467510 16:1.020559 17:0.809168 18:0.483028 19:-1.800491 20:-0.849777 21:-2.039708 22:-0.131676 23:-1.067473 24:-0.719966 25:-2.107770 26:0.662989 27:0.869230 28:-0.194525 29:-0.834603 30:-0.730761 31:1.473763 32:-1.047244 33:0.041734 34:0.230756 35:0.696184
-1 1:-0.996138 2:1.850185 3:1.058565 4:-0.292770 5:-0.566581 6:-0.531312 7:-0.890096 8:1.127284 9:1.084954 10:0.118395 11:-0.977054 12:-2.973435 13:-1.502691 14:2.446830 15:-1.336130 16:-0.589697 17:-1.011777 18:0.777566 19:1.702689 20:-1.200114 21:-1.379239 22:-0.347662 23:1.469975 24:-0.421779 25:-0.816079 26:-0.827373 27:-1.066412 28:0.173682 29:0.674802 30:-2.037894 31:-0.283987 32:0.159897 33:2.229300 34:-2.058473 35:1.323134
-1 1:-1.182337 2:0.720333 3:0.533146 4:1.135105 5:-1.103442 6:-0.331999 7:0.761811 8:-0.037158 9:-0.450195 10:-1.426715 11:0.173251 12:-1.339914 13:0.089910 14:-0.082599 15:-0.402869 16:-0.326274 17:-0.370564 18:0.178287 19:-1.096338 20:0.061382 21:2.228666 22:-0.022465 23:-1.336724 24:-0.365074 25:0.813241 26:0.587963 27:-0.841440 28:1.505363 29:-0.808523 30:0.324185 31:0.346563 32:0.152883 33:1.566782 34:0.555921 35:-0.077199
-1 1:-0.978320 2:-0.448152 3:0.126145 4:-2.055137 5:1.011603 6:0.884749 7:-0.272825 8:-0.397921 9:0.031110 10:0.404796 11:-0.037934 12:0.105042 13:0.945683 14:1.469616 15:-0.846288 16:-0.525260 17:0.754916 18:-1.395320 19:1.254112 20:-0.787649 21:-0.154160 22:-0.574639 23:-0.110748 24:1.833269 25:1.571594 26:-0.953231 27:-0.125882 28:0.052146 29:1.004781 30:1.702285 31:-0.136642 32:1.091603 33:-0.357050 34:0.316045 35:-0.153873
-1 1:-1.623600 2:1.486515 3:0.694795 4:1.260491 5:1.263922 6:-0.651640 7:0.549186 8:-1.112545 9:-0.489480 10:-1.139741 11:0.571889 12:0.704397 13:-0.138451 14:1.382113 15:-1.211450 16:0.504381 17:-0.050145 18:0.705032 19:0.659731 20:1.912160 21:-0.702314 22:0.986656 23:-0.281985 24:-1.457239 25:1.987994 26:0.154935 27:0.870425 28:-1.994374 29:-0.800282 30:0.026314 31:-0.618449 32:-0.388056 33:1.116448 34:0.339403 35:1.361227
-1 1:1.061558 2:0.678231 3:0.376273 4:0.050837 5:0.199825 6:-0.627491 7:0.629629 8:-1.757908 9:-0.722632 10:0.199337 11:0.148564 12:0.429496 13:-0.306742 14:-0.348668 15:1.004543 16:-0.189346 17:0.154151 18:0.630132 19:-0.921708 20:-2.896884 21:1.283890 22:-1.892806 23:0.724661 24:-1.788082 25:0.285607 26:-0.133802 27:-0.753284 28:-1.012938 29:-0.531618 30:-1.667719 31:-1.598312 32:-0.286469 33:0.853842 34:-0.417233 35:0.475738
-1 1:0.206804 2:0.577805 3:-2.718455 4:-0.220483 5:1.034864 6:1.546132 7:-0.450630 8:0.255607 9:0.623480 10:-2.441796 11:1.113807 12:0.342894 13:0.275043 14:-1.108044 15:-0.395637 16:-0.078007 17:-0.356637 18:-0.824720 19:2.313069 20:-2.046523 21:0.219194 22:-0.284694 23:-1.281231 24:0.633938 25:0.780969 26:0.906956 27:0.507934 28:-1.178306 29:1.164630 30:2.796160 31:0.176294 32:0.402388 33:-1.825435 34:-1.492204 35:-1.733567
-1 1:-0.089033 2:-0.659753 3:-0.367758 4:0.038421 5:0.709290 6:0.414058 7:0.232021 8:0.834495 9:0.472444 10:0.065223 11:-1.971548 12:0.570682 13:0.232102 14:-1.906581 15:-0.368277 16:0.000230 17:-1.498324 18:0.498864 19:-0.770369 20:0.089849 21:0.022263 22:-0.815920 23:-2.629301 24:-1.251418 25:-1.105739 26:0.005711 27:0.029480 28:0.384563 29:1.448217 30:-1.951375 31:-0.579023 32:-0.116504 33:-0.131611 34:-1.765568 35:0.325067
-1 1:-0.699452 2:-0.464518 3:0.110934 4:1.266014 5:1.216397 6:-1.800166 7:0.639491 8:-0.803026 9:0.876648 10:1.084605 11:-0.136820 12:-1.304359 13:-0.372739 14:-0.751574 15:-1.215640 16:-1.425862 17:2.145698 18:0.829398 19:-1.896951 20:-0.397157 21:1.405110 22:-1.979425 23:-1.157912 24:1.380417 25:-0.209159 26:-1.004108 27:0.471303 28:0.067155 29:-0.308336 30:-1.155845 31:0.411070 32:-1.428288 33:1.503148 34:1.509593 35:-0.555414
-1 1:1.909001 2:2.047428 3:-0.393388 4:-0.066127 5:0.659303 6:-0.534784 7:1.490117 8:0.641260 9:-1.631670 10:1.737509 11:-0.584298 12:0.878035 13:-1.675839 14:-0.508954 15:0.901862 16:0.188719 17:1.593713 18:0.857976 19:-1.529957 20:-0.679476 21:2.774739 22:0.663756 23:-0.826316 24:1.806676 25:-0.970845 26:0.951757 27:-1.031973 28:0.866271 29:0.620876 30:-0.194444 31:0.118264 32:-1.043740 33:-0.461290 34:0.206617 35:-0.372136
-1 1:1.686170 2:-0.180180 3:0.634817 4:-0.105787 5:0.110915 6:0.770697 7:-0.139733 8:-1.370227 9:1.039362 10:-1.756934 11:1.609975 12:0.851274 13:-0.447361 14:0.672989 15:-1.066488 16:-0.822355 17:-0.057642 18:-1.699007 19:0.366824 20:-0.798235 21:1.829693 22:-0.126083 23:0.312864 24:-0.150713 25:0.367835 26:0.685998 27:0.183068 28:-0.475325 29:0.565828 30:-0.830245 31:-0.366872 32:-0.536027 33:0.195597 34:0.777301 35:-0.221792
-1 1:1.321767 2:0.336990 3:-0.342433 4:-0.150278 5:-1.132544 6:0.170619 7:2.504841 8:-1.130655 9:-0.180645 10:-0.606529 11:-0.816602 12:0.422454 13:-1.096065 14:-0.249771 15:0.743120 16:1.186929 17:0.498423 18:-1.236731 19:1.799091 20:1.087999 21:0.246119 22:0.649817 23:-0.656205 24:0.026081 25:0.239546 26:0.625332 27:0.474926 28:-1.058403 29:0.214255 30:-0.708634 31:0.680285 32:-0.612286 33:-1.010537 34:-0.647006 35:1.310149
-1 1:-1.788306 2:1.114068 3:1.071444 4:2.249030 5:1.367947 6:-0.814527 7:-0.101627 8:-0.939318 9:-0.079910 10:0.792990 11:0.760576 12:1.069039 13:-1.225633 14:-0.299172 15:-1.586795 16:-0.128493 17:0.895659 18:0.092834 19:-0.460360 20:-0.994388 21:0.341046 22:0.298129 23:-0.592101 24:1.927221 25:-1.282474 26:1.220618 27:0.045780 28:0.598313 29:1.545547 30:-0.714563 31:1.128218 32:-0.542932 33:-0.946963 34:1.110697 35:1.206803
-1 1:2.084546 2:0.311464 3:-0.157304 4:-1.052151 5:0.302708 6:0.345669 7:-2.026026 8:0.394011 9:1.676368 10:0.230786 11:0.084622 12:0.243953 13:-0.090787 14:0.195587 15:1.341616 16:-0.154494 17:-0.542412 18:1.089892 19:-0.982456 20:0.657460 21:0.665496 22:-0.614225 23:0.909744 24:-0.516448 25:-1.508236 26:-1.077423 27:0.729064 28:1.106424 29:-0.497491 30:0.531480 31:1.703968 32:0.377493 33:-0.258284 34:-0.017569 35:-0.786329
-1 1:-1.776424 2:0.560404 3:0.145128 4:0.852880 5:0.539070 6:1.758327 7:1.161612 8:0.243697 9:-1.360655 10:-0.014978 11:-2.440016 12:-0.906691 13:0.299085 14:-0.820095 15:-1.637488 16:2.069345 17:2.539131 18:-2.367318 19:-1.980046 20:0.748575 21:0.050107 22:-1.171668 23:1.221122 24:3.209748 25:0.190491 26:-0.065278 27:0.036643 28:0.032809 29:-0.247574 30:0.111700 31:-1.099704 32:1.385906 33:-1.455590 34:-0.420292 35:-0.294842
-1 1:-0.345916 2:1.181122 3:1.497217 4:0.603637 5:-1.856225 6:-0.431330 7:-0.228427 8:-1.146915 9:2.222272 10:0.957413 11:0.177271 12:1.097522 13:0.037004 14:1.358268 15:-0.053320 16:-2.219255 17:-0.706467 18:-0.658866 19:0.082333 20:0.139791 21:-0.099897 22:-1.215783 23:-1.520075 24:0.222638 25:1.253414 26:1.252274 27:-0.072001 28:-0.257649 29:-0.220154 30:-0.893578 31:0.145172 32:-0.148173 33:0.755356 34:1.252936 35:0.911559
-1 1:-1.146921 2:-0.290905 3:-1.451913 4:0.687236 5:-0.913983 6:-1.012422 7:0.196790 8:3.865364 9:-0.528736 10:-0.017829 11:-1.605712 12:-0.375397 13:-0.210487 14:-2.130286 15:1.138893 16:0.295149 17:-0.397809 18:-1.664529 19:0.871590 20:-1.061555 21:1.412362 22:0.586674 23:1.567725 24:-0.353780 25:0.380485 26:0.832474 27:-0.976075 28:-0.697058 29:-0.834123 30:-0.412712 31:0.893671 32:-0.486872 33:0.251824 34:1.353186 35:0.031519
-1 1:1.055273 2:-0.332140 3:1.347771 4:-0.091910 5:-0.238326 6:-0.247959 7:-1.117888 8:1.061575 9:-0.924983 10:-0.344352 11:-0.209076 12:-0.566512 13:-0.877902 14:2.017685 15:-0.265310 16:2.315982 17:0.821433 18:1.764295 19:-0.157505 20:0.609245 21:1.745287 22:1.557100 23:-0.249111 24:0.110044 25:-0.115480 26:2.184068 27:1.235927 28:-0.897647 29:1.550039 30:0.146377 31:0.339173 32:-0.055430 33:-1.784064 34:-0.919504 35:0.014139
-1 1:1.011153 2:1.065061 3:0.424797 4:0.626487 5:-0.900929 6:0.133090 7:-2.216737 8:-0.927544 9:0.785305 10:-0.064077 11:0.014385 12:-0.014007 13:-0.554008 14:0.981223 15:-0.115317 16:-1.160155 17:-0.437727 18:2.581269 19:-0.746734 20:-0.662624 21:-1.457607 22:-0.636597 23:0.561347 24:-0.422594 25:-1.504434 26:-0.666273 27:0.739782 28:1.191219 29:-0.645751 30:-0.518300 31:-1.398975 32:-0.340267 33:-0.356242 34:-0.099795 35:0.912946
-1 1:1.218838 2:-0.209638 3:-0.404316 4:0.739784 5:0.214844 6:-1.022061 7:0.052856 8:0.366472 9:-0.922430 10:0.480142 11:0.916529 12:-0.269933 13:-0.290953 14:2.096682 15:-1.070118 16:2.225962 17:-1.583101 18:-1.266095 19:-1.234266 20:0.135423 21:-0.353415 22:1.352398 23:-1.859276 24:0.416440 25:0.350748 26:1.853920 27:0.210432 28:1.739082 29:0.858603 30:0.971638 31:-1.468107 32:0.867976 33:1.744339 34:1.029983 35:1.106950
-1 1:-1.639919 2:-0.773516 3:-1.045653 4:-0.822572 5:1.862259 6:-0.108761 7:-0.217647 8:-0.129552 9:-0.117326 10:-1.017224 11:0.134406 12:-0.599353 13:-1.401147 14:1.098307 15:0.202022 16:-0.547495 17:0.141771 18:-0.453900 19:-1.073306 20:-0.536567 21:1.048758 22:-0.541784 23:1.133392 24:1.407005 25:0.954979 26:-0.795505 27:0.651157 28:1.513115 29:0.327640 30:1.075361 31:-0.236532 32:-1.747041 33:0.616378 34:1.238747 35:1.803829
-1 1:-0.807433 2:-0.490469 3:0.437955 4:-0.129349 5:0.046594 6:-1.110235 7:0.539618 8:0.213781 9:0.326971 10:0.064706 11:0.161745 12:0.080684 13:-1.542870 14:-1.316348 15:-0.828183 16:0.079338 17:-1.245142 18:-1.155843 19:0.211790 20:-0.119448 21:-0.622733 22:0.996800 23:-1.387446 24:-0.439526 25:0.567883 26:-0.075552 27:-1.312928 28:-0.330788 29:0.459802 30:0.282484 31:-0.457158 32:-0.152810 33:1.850061 34:-0.199013 35:-0.274306
-1 1:2.011126 2:0.876095 3:0.346662 4:1.217831 5:-0.979436 6:-0.632167 7:-1.120120 8:1.174071 9:1.292197 10:-0.093498 11:-0.233967 12:0.089232 13:0.547384 14:2.001402 15:0.324493 16:-0.919761 17:-0.441117 18:1.267501 19:1.102449 20:-0.005373 21:-0.622459 22:-0.205625 23:0.130278 24:0.539925 25:-0.350268 26:0.512572 27:1.071671 28:0.367621 29:-0.584816 30:-0.048018 31:1.279644 32:0.512361 33:0.896963 34:-0.391080 35:1.497604
-1 1:0.310235 2:-1.237681 3:0.936261 4:-0.703762 5:-0.155410 6:1.678869 7:0.204586 8:-0.957326 9:-0.953322 10:0.612055 11:0.222557 12:-1.899861 13:-0.249134 14:0.763187 15:0.684954 16:1.110310 17:-0.065021 18:0.963615 19:0.186003 20:1.381414 21:0.413413 22:-0.579496 23:1.369987 24:-2.222770 25:1.753703 26:-0.152830 27:0.335108 28:0.532694 29:1.472161 30:1.157813 31:0.881847 32:0.325771 33:-1.084953 34:1.383631 35:-0.340960
-1 1:-0.121623 2:1.078008 3:0.781345 4:-2.012168 5:0.986667 6:-0.998534 7:0.244288 8:0.285990 9:-0.607780 10:0.264610 11:0.139887 12:0.149680 13:0.708114 14:0.747127 15:0.695045 16:0.813947 17:0.127001 18:-0.220300 19:-0.340137 20:-0.292418 21:-2.168874 22:1.436525 23:-0.212180 24:-1.868643 25:1.241629 26:-0.506796 27:1.277807 28:1.199371 29:0.199644 30:2.400146 31:-0.236239 32:-0.781124 33:0.114273 34:-0.672759 35:-0.777473
-1 1:-2.788780 2:0.332083 3:0.438532 4:0.442669 5:1.887269 6:0.231774 7:0.856891 8:2.252913 9:-1.483410 10:0.762073 11:-0.404607 12:0.827185 13:0.508053 14:-0.271089 15:-1.055704 16:-0.500027 17:-2.972028 18:-0.681709 19:-0.343457 20:-0.927286 21:0.788377 22:-0.770196 23:0.334851 24:-0.104742 25:-0.612331 26:-1.236339 27:-2.578286 28:0.652737 29:1.179491 30:0.275168 31:-1.285366 32:1.572078 33:0.153458 34:1.247467 35:1.239911
-1 1:0.052707 2:0.030933 3:-1.091146 4:-1.010927 5:2.106207 6:1.671073 7:-0.108568 8:-0.594098 9:-0.425723 10:0.027534 11:0.998969 12:-2.714268 13:2.715548 14:-0.910879 15:0.950291 16:1.067165 17:-1.242906 18:-0.212158 19:0.473787 20:2.333751 21:1.416634 22:-0.694630 23:1.192110 24:-0.519197 25:-0.118721 26:0.350780 27:0.390418 28:-0.252652 29:-0.765462 30:0.117448 31:0.244854 32:-1.621942 33:0.974502 34:-0.563179 35:-1.769831
-1 1:0.772969 2:-1.027042 3:0.440331 4:-1.139409 5:0.066668 6:0.870574 7:-1.104372 8:0.923334 9:0.975807 10:0.017661 11:0.987436 12:-0.794895 13:0.202633 14:0.375791 15:-0.961313 16:0.986565 17:-0.866677 18:-0.577476 19:-0.632261 20:0.412500 21:-0.781642 22:-0.397668 23:-0.978534 24:0.972574 25:-0.655291 26:0.822416 27:0.422642 28:-0.802667 29:-0.571277 30:-0.336174 31:0.973635 32:-0.685959 33:0.060333 34:0.426903 35:-1.529825
-1 1:-0.276575 2:-0.678163 3:-0.636111 4:-0.622798 5:0.311810 6:-1.268613 7:0.115617 8:-0.884980 9:-0.223844 10:-1.005264 11:0.388863 12:-0.322372 13:0.097901 14:0.321066 15:0.101404 16:-1.046966 17:-1.195991 18:0.739179 19:-0.426160 20:-2.837218 21:-0.878431 22:-0.155859 23:1.405158 24:-0.005309 25:-1.079368 26:-0.167195 27:0.878171 28:-0.682591 29:-0.304787 30:-0.043683 31:-0.322722 32:0.865547 33:-0.145818 34:0.714348 35:-0.403350
-1 1:0.339740 2:-2.537440 3:-1.643870 4:1.416429 5:-1.186489 6:-1.847794 7:0.442845 8:0.772466 9:-1.204819 10:-0.173197 11:0.702864 12:0.552922 13:0.233960 14:-0.230712 15:0.678756 16:-1.485173 17:-0.231929 18:0.807173 19:0.777245 20:-0.589008 21:1.067265 22:0.782434 23:-2.203035 24:-1.740032 25:0.813629 26:0.435707 27:0.425294 28:0.632668 29:-0.588915 30:-0.374979 31:-0.380323 32:-1.204054 33:-1.278023 34:1.580676 35:-0.734254
-1 1:1.052930 2:-0.039421 3:-1.062613 4:-0.383771 5:1.070991 6:0.882418 7:-0.377345 8:0.364095 9:-1.446275 10:-0.265581 11:-0.491689 12:1.039317 13:0.499279 14:-0.143827 15:-1.111963 16:0.401271 17:-1.122737 18:-1.036015 19:-0.921047 20:-2.110373 21:-0.860879 22:1.588005 23:-1.422007 24:-0.522813 25:-1.692829 26:0.633408 27:0.723894 28:0.971433 29:0.967988 30:1.880814 31:1.500580 32:-2.021348 33:-0.562433 34:1.057143 35:0.919157
-1 1:-2.645595 2:-2.174324 3:0.908331 4:-0.137803 5:-0.845012 6:-0.129651 7:2.077669 8:-0.301842 9:1.408963 10:1.108959 11:0.303689 12:-2.203190 13:0.275003 14:-0.889432 15:-0.564446 16:-0.019008 17:0.820687 18:0.864961 19:-0.979313 20:0.572188 21:-0.358061 22:0.074505 23:0.361976 24:-0.579939 25:1.746172 26:0.646502 27:0.574514 28:0.431697 29:0.570614 30:-0.214755 31:1.008570 32:-2.256622 33:1.097284 34:0.678167 35:-0.969871
-1 1:0.440024 2:0.124935 3:1.165749 4:-0.774129 5:-2.398739 6:0.013858 7:-0.439543 8:0.167591 9:-0.175982 10:-0.435115 11:0.926464 12:-1.308465 13:1.593128 14:-0.003605 15:0.968348 16:-0.734827 17:1.295889 18:-1.113603 19:-0.490382 20:-0.584204 21:-1.116853 22:0.207967 23:-0.757345 24:0.163809 25:-0.311105 26:0.038585 27:-1.203054 28:0.901995 29:1.366898 30:0.117598 31:-1.113594 32:0.144298 33:-0.727880 34:0.496235 35:0.504178
-1 1:0.022131 2:-0.299795 3:-0.334298 4:0.102384 5:-1.019297 6:-0.525117 7:-0.588856 8:-0.813735 9:-0.681711 10:1.184495 11:0.379084 12:0.439670 13:-0.060778 14:0.335281 15:-0.026367 16:0.391839 17:-0.220057 18:-0.829193 19:-0.269376 20:0.520121 21:-0.320687 22:-1.639631 23:0.833250 24:-0.693494 25:1.336394 26:-0.375867 27:-0.026195 28:-0.597609 29:0.109331 30:1.308307 31:-0.394297 32:-0.003469 33:-1.277541 34:-2.151817 35:-2.187996
-1 1:0.460884 2:-0.326569 3:0.470309 4:0.860830 5:0.562859 6:0.037521 7:0.337973 8:0.352024 9:-0.024197 10:-0.769887 11:0.246182 12:-0.232034 13:-0.992035 14:0.771841 15:-1.127288 16:-1.451478 17:0.691541 18:-0.440495 19:-1.409670 20:-1.021771 21:0.440085 22:-0.774246 23:0.252894 24:-1.138119 25:-0.385012 26:-1.086239 27:-0.623249 28:0.940052 29:-0.106685 30:-0.169588 31:-0.377842 32:-1.701803 33:-0.028170 34:0.488953 35:1.719716
-1 1:-0.393055 2:-0.885943 3:0.128590 4:0.561296 5:-1.482959 6:0.770583 7:0.190235 8:0.058902 9:-0.090558 10:-0.855218 11:0.698274 12:-1.145338 13:0.414386 14:-0.930178 15:1.618452 16:-1.405974 17:1.018690 18:1.853166 19:-1.221380 20:1.011014 21:0.375746 22:-2.075048 23:1.071899 24:1.146800 25:-0.607998 26:2.090724 27:0.410798 28:0.140249 29:2.360629 30:-0.312614 31:-0.142879 32:0.485621 33:-0.434377 34:0.628500 35:0.361486
-1 1:-0.651076 2:-1.137916 3:-1.451698 4:-1.675839 5:1.393232 6:-0.132094 7:0.358536 8:-0.681455 9:0.958253 10:-0.068053 11:-0.347157 12:0.217001 13:1.908495 14:-1.172701 15:-0.941633 16:1.231780 17:-0.865519 18:0.980394 19:1.449585 20:1.481279 21:-1.916896 22:0.598427 23:1.035804 24:0.799213 25:-0.567136 26:0.844846 27:-0.335598 28:-0.851949 29:-0.340129 30:-0.153598 31:0.426397 32:0.012333 33:0.686441 34:0.158027 35:0.234146
-1 1:0.765726 2:0.140056 3:-0.094274 4:-1.240979 5:-0.159392 6:-0.370209 7:0.015497 8:-0.464472 9:-0.154446 10:-1.179057 11:1.401952 12:0.191035 13:-1.887841 14:-0.622523 15:0.381601 16:-0.751566 17:-0.959663 18:0.217654 19:-0.589635 20:0.425978 21:0.238776 22:-0.425992 23:-2.228140 24:0.500949 25:1.005971 26:-0.378061 27:-0.325260 28:1.321840 29:0.845321 30:2.209755 31:-0.168052 32:-0.870040 33:-1.252102 34:-0.668646 35:-0.163787
-1 1:-2.317879 2:-1.454148 3:1.044492 4:-0.272408 5:1.163344 6:1.553581 7:0.620419 8:1.240939 9:1.916045 10:0.520533 11:1.252184 12:0.908233 13:-0.058176 14:0.146385 15:0.864943 16:-1.016460 17:0.348509 18:1.775054 19:0.342583 20:-1.200590 21:-0.341469 22:-0.030554 23:-0.448811 24:0.723754 25:-2.007937 26:1.616482 27:-1.156000 28:-2.390129 29:-0.370825 30:-0.935531 31:-0.030430 32:-1.890939 33:0.856526 34:0.341730 35:0.593275
-1 1:0.600655 2:-0.695759 3:1.936014 4:1.508958 5:-0.387930 6:1.273083 7:-0.937696 8:0.786547 9:0.718583 10:0.242765 11:-0.184089 12:-0.266534 13:-2.152371 14:-0.467664 15:0.719843 16:0.160544 17:0.009126 18:-1.369401 19:1.428960 20:1.069477 21:0.699133 22:2.347747 23:-1.781308 24:-0.296307 25:0.806689 26:-0.517419 27:-0.302087 28:-0.679336 29:1.052867 30:-1.357407 31:2.526609 32:0.303767 33:-0.720663 34:0.995649 35:-0.052669
-1 1:2.465183 2:0.657072 3:0.285569 4:-1.511436 5:-0.632753 6:-0.794897 7:0.838002 8:-1.600550 9:0.742563 10:-0.243890 11:0.992299 12:-0.523524 13:1.089872 14:0.440343 15:0.864511 16:0.098222 17:-0.208881 18:-0.667996 19:-0.138603 20:-0.094861 21:1.115642 22:-1.407572 23:0.244578 24:0.446986 25:1.295428 26:1.132092 27:-1.087956 28:-0.655292 29:0.077318 30:0.306968 31:1.112228 32:-2.244150 33:-0.553725 34:0.471770 35:-0.372728
-1 1:-1.869206 2:-0.399050 3:1.551421 4:0.188357 5:-0.417821 6:-0.547302 7:0.038735 8:-0.542510 9:2.650221 10:-0.099121 11:-0.392463 12:-0.403036 13:-0.166765 14:0.362533 15:0.003292 16:0.294207 17:1.001840 18:-1.906129 19:0.974079 20:-0.188194 21:-1.278561 22:0.512815 23:-1.233531 24:-1.212395 25:-0.060374 26:-2.417680 27:0.106606 28:-1.672638 29:1.898208 30:-0.972159 31:0.134456 32:-0.423243 33:-0.981257 34:-0.598633 35:0.064805
-1 1:-0.889355 2:-0.998065 3:1.275383 4:0.644401 5:0.710773 6:0.458278 7:0.031660 8:0.638442 9:-0.173584 10:0.399222 11:0.788624 12:0.735714 13:0.148818 14:0.020292 15:-0.324061 16:1.827571 17:-0.014159 18:-0.660721 19:1.153194 20:-0.873837 21:2.110509 22:0.859427 23:-1.118399 24:2.135413 25:-0.190501 26:-1.739742 27:0.402982 28:-0.343577 29:-0.045491 30:0.349843 31:1.973707 32:1.218706 33:0.227078 34:-0.005947 35:0.514387
-1 1:0.784198 2:0.381584 3:-0.029082 4:0.928632 5:1.236454 6:-0.289887 7:-0.722525 8:-0.305008 9:0.214635 10:-1.737999 11:-0.361901 12:0.620459 13:-1.211235 14:0.163696 15:0.435991 16:-1.180343 17:0.421792 18:1.656451 19:-0.258043 20:-0.042275 21:0.579871 22:1.109442 23:-0.422689 24:-1.419910 25:-0.028599 26:-0.852073 27:-0.004827 28:0.458829 29:-0.134578 30:0.717150 31:-0.402548 32:-1.798408 33:1.250345 34:-0.661125 35:0.155971
-1 1:-0.298630 2:0.282718 3:-2.029591 4:1.730696 5:0.820274 6:-0.927842 7:0.645343 8:-1.086466 9:-0.539901 10:-1.334637 11:-0.422853 12:-2.053042 13:-0.196618 14:0.465914 15:-0.604379 16:-0.719933 17:-1.151522 18:-1.250459 19:1.458795 20:0.959021 21:0.631450 22:0.410145 23:-0.498788 24:0.123030 25:-1.179103 26:-1.376706 27:-0.712897 28:-0.105312 29:-1.176578 30:0.114056 31:-1.742969 32:1.035800 33:1.665185 34:-1.428232 35:1.768700
-1 1:-1.636563 2:0.067784 3:1.257948 4:-0.310443 5:-0.377119 6:1.762082 7:-1.518741 8:0.885699 9:1.047056 10:-0.801478 11:-0.205841 12:0.987214 13:0.499687 14:2.197997 15:-1.340688 16:-0.387732 17:0.621434 18:1.371315 19:1.305856 20:-0.456187 21:0.337829 22:1.269914 23:0.442386 24:0.245708 25:-1.613479 26:0.174288 27:-0.061349 28:-2.199825 29:0.791405 30:0.732990 31:0.146651 32:-0.841892 33:1.907307 34:0.289582 35:0.328407
-1 1:-0.175954 2:1.398603 3:1.065296 4:-0.282289 5:0.990336 6:-0.876619 7:0.129035 8:-0.273883 9:0.309996 10:-0.087369 11:-0.499045 12:-0.650275 13:-0.457265 14:-0.824371 15:1.012971 16:-0.058211 17:0.208150 18:0.066769 19:-0.587167 20:0.321296 21:0.861806 22:-0.207809 23:-0.418474 24:0.234978 25:0.221113 26:-0.955650 27:1.428898 28:-1.091243 29:1.209041 30:-0.549528 31:0.016383 32:2.237074 33:-1.577858 34:-1.218093 35:-0.677788
-1 1:0.716107 2:-0.287835 3:-1.469581 4:-1.395373 5:-1.822882 6:-0.847254 7:-1.410286 8:-0.699038 9:0.912320 10:-0.023999 11:0.058455 12:0.133059 13:1.718095 14:-0.208006 15:0.791300 16:0.223361 17:0.511415 18:-0.328515 19:0.882248 20:-0.163792 21:1.183092 22:0.343006 23:-1.081188 24:0.449870 25:1.282951 26:-0.240711 27:-1.176996 28:-0.216083 29:0.693109 30:-0.142166 31:-0.619550 32:-2.195275 33:-0.490497 34:0.054184 35:0.645479
-1 1:-1.047646 2:0.611996 3:-1.085689 4:0.931619 5:0.350614 6:0.113281 7:-2.475708 8:-0.518311 9:1.806138 10:-1.889320 11:-0.112245 12:-0.359025 13:-0.461271 14:-1.413577 15:-1.249038 16:0.794430 17:0.607905 18:-0.577437 19:-0.579678 20:0.325448 21:0.672865 22:-0.716986 23:0.433273 24:-0.465414 25:-0.002903 26:-0.733898 27:-1.895672 28:0.089068 29:1.786067 30:1.423833 31:0.353216 32:-0.083373 33:0.740362 34:-1.115279 35:0.594945
-1 1:1.428433 2:0.894956 3:-0.256524 4:0.924251 5:-0.823630 6:-0.256644 7:-0.520476 8:0.032826 9:0.974377 10:-2.318578 11:-0.095240 12:-0.726680 13:-0.077075 14:0.297473 15:-2.418583 16:-0.495951 17:1.633510 18:0.831455 19:-0.569547 20:-0.922378 21:-1.140190 22:-0.740534 23:0.365319 24:-1.459872 25:1.536470 26:-0.578946 27:0.576156 28:-0.583520 29:-0.147708 30:0.731564 31:0.908399 32:1.407682 33:-0.993883 34:-0.278901 35:0.960189
-1 1:-0.940584 2:0.203113 3:0.160135 4:2.638781 5:0.904749 6:-1.638678 7:0.871539 8:1.673816 9:-1.084868 10:-1.494710 11:0.261822 12:-2.749211 13:0.421420 14:0.800995 15:-0.042101 16:0.447751 17:1.675086 18:-0.148888 19:-1.000604 20:1.102319 21:-0.760923 22:0.710850 23:-0.368259 24:0.331246 25:0.314722 26:-0.531541 27:0.943197 28:-0.740099 29:-0.757982 30:0.220935 31:-0.141894 32:-1.091200 33:-1.315271 34:-1.353482 35:0.129308
-1 1:0.454231 2:-0.111160 3:2.405063 4:1.067258 5:0.553572 6:0.439397 7:-0.168679 8:-0.837721 9:0.270496 10:2.160167 11:-0.180124 12:-1.010596 13:-1.323671 14:-0.954666 15:1.018494 16:1.784587 17:0.522616 18:-0.132511 19:1.496307 20:0.353990 21:0.199237 22:-1.547442 23:-1.306167 24:-0.453355 25:0.830898 26:0.475517 27:0.677887 28:1.129669 29:-0.630887 30:0.544428 31:1.242925 32:0.042582 33:1.136066 34:-0.273915 35:2.427194
-1 1:1.584151 2:0.429340 3:0.210111 4:0.375213 5:0.346842 6:-0.671550 7:-0.844418 8:0.512410 9:0.952549 10:-0.875181 11:-0.690915 12:0.938506 13:-0.192202 14:-0.243544 15:-0.647930 16:1.379754 17:1.057064 18:-1.867300 19:0.749568 20:1.346630 21:-0.175433 22:-1.045492 23:-0.919875 24:-1.780096 25:0.070000 26:-0.679693 27:0.587184 28:-1.583493 29:0.053035 30:-0.701469 31:1.964917 32:-0.321648 33:-0.063428 34:-0.740590 35:0.480608
-1 1:0.806713 2:-0.804766 3:0.716264 4:0.693008 5:0.115730 6:1.071814 7:0.394541 8:0.379789 9:0.096672 10:-0.878362 11:1.242758 12:0.027622 13:1.653615 14:-0.010290 15:0.793015 16:2.223540 17:-1.061292 18:-0.141543 19:0.695399 20:1.677028 21:-0.174298 22:0.113321 23:0.802780 24:0.846959 25:0.548127 26:-0.086621 27:-1.227542 28:1.006159 29:-1.383716 30:0.907828 31:-0.216358 32:-0.449077 33:0.731117 34:0.493553 35:1.177210
-1 1:-0.390180 2:2.445059 3:-1.771192 4:0.960258 5:1.227724 6:0.774684 7:-1.444901 8:-0.955930 9:0.681394 10:-0.126580 11:-0.122427 12:0.039745 13:-1.428930 14:-1.418649 15:1.602569 16:0.213559 17:-0.136491 18:2.050096 19:0.610842 20:0.786291 21:0.788008 22:-1.138850 23:1.144726 24:-0.727462 25:0.502849 26:1.289843 27:1.839911 28:-0.262935 29:-1.844142 30:-0.218284 31:-0.524625 32:0.183138 33:1.131214 34:-0.899620 35:0.952824
-1 1:-1.367957 2:-0.261718 3:-0.531930 4:0.108737 5:0.017302 6:-0.642722 7:-0.350192 8:0.847567 9:-0.081201 10:1.218622 11:0.319005 12:-0.187969 13:0.818538 14:-1.062355 15:-0.151375 16:-0.602101 17:-0.257012 18:-0.064737 19:-0.117104 20:-0.070753 21:1.292757 22:0.360987 23:-1.939548 24:-2.263445 25:1.256481 26:0.291596 27:0.560752 28:0.348040 29:0.090925 30:1.258675 31:0.395041 32:-0.907747 33:-0.126462 34:1.056921 35:2.230228
-1 1:-0.841451 2:-0.910229 3:-1.394980 4:-1.339214 5:0.401216 6:2.149376 7:0.417524 8:0.799675 9:0.948508 10:-0.437917 11:0.010095 12:0.382050 13:-1.622386 14:0.951785 15:-1.232619 16:-1.071685 17:-0.827593 18:-0.142237 19:0.291396 20:0.899055 21:-1.198973 22:-0.472721 23:0.630480 24:1.204726 25:1.934256 26:-0.751442 27:1.605188 28:-0.127018 29:0.804721 30:-0.073707 31:-0.430708 32:-0.694503 33:-0.191495 34:-2.492755 35:0.118503
-1 1:-1.890290 2:0.064908 3:0.168590 4:-0.342195 5:1.732572 6:-1.167009 7:0.126458 8:-2.199013 9:-0.398045 10:0.763804 11:2.070831 12:-0.461084 13:2.040680 14:0.123720 15:1.636126 16:-2.203907 17:0.124555 18:1.552519 19:-2.473665 20:1.165887 21:0.340570 22:-1.228338 23:-0.724461 24:0.322402 25:1.240794 26:0.845445 27:-2.297399 28:0.494977 29:1.083324 30:0.076614 31:-0.702243 32:0.974603 33:1.840854 34:-0.705264 35:-0.246944
-1 1:-1.531399 2:1.181094 3:-0.353412 4:-1.698889 5:0.652994 6:1.372473 7:0.646599 8:-0.743399 9:-0.295782 10:0.015498 11:-1.370559 12:0.970110 13:2.333932 14:0.168585 15:-1.052847 16:-1.673446 17:0.158625 18:0.260175 19:0.819324 20:-0.369554 21:1.037993 22:0.295584 23:-0.775198 24:-1.148824 25:0.354236 26:0.579915 27:-0.357521 28:-0.394635 29:0.570011 30:0.621827 31:0.587248 32:-1.371111 33:-1.462265 34:0.978344 35:0.230102
-1 1:-1.045394 2:0.531312 3:0.610955 4:0.543462 5:-0.976170 6:0.122904 7:0.874668 8:-2.468856 9:-0.512470 10:-0.415839 11:-0.475505 12:0.554914 13:-0.545512 14:-1.255306 15:0.794867 16:-1.417490 17:1.018731 18:0.391938 19:-0.418073 20:2.070326 21:-0.195311 22:-0.185877 23:-0.401201 24:-1.599735 25:0.296965 26:-0.250764 27:1.129718 28:-0.879544 29:-0.187021 30:0.076872 31:-0.220118 32:-0.199744 33:-0.261655 34:0.252212 35:-1.109992
-1 1:1.164085 2:1.127226 3:0.253458 4:0.575680 5:-0.604337 6:0.735877 7:1.334503 8:0.644378 9:-1.536253 10:1.737176 11:0.040524 12:-0.873015 13:2.230850 14:-1.054863 15:-0.418090 16:0.058429 17:0.738210 18:0.526353 19:0.435121 20:0.196551 21:-1.497173 22:1.037025 23:-0.916048 24:0.305645 25:-0.645877 26:0.953975 27:-1.285084 28:-0.407469 29:0.551967 30:0.397721 31:-0.335721 32:-1.199402 33:0.536278 34:-0.629609 35:-0.057694
-1 1:-0.822281 2:0.065895 3:-1.504265 4:-0.162212 5:0.980173 6:-0.698841 7:-0.359019 8:-0.513036 9:-0.419622 10:-0.825805 11:-0.896733 12:1.028138 13:0.635119 14:0.257372 15:0.210567 16:1.682581 17:-1.877010 18:-1.337951 19:-0.847509 20:0.339846 21:-0.934490 22:-0.807185 23:0.767893 24:0.884510 25:-0.307245 26:-0.749270 27:0.492438 28:-0.148587 29:0.017652 30:-0.188606 31:-1.770926 32:0.033734 33:0.550991 34:-0.113898 35:1.462633
-1 1:1.541299 2:1.922031 3:-0.733376 4:-1.150769 5:-1.733996 6:-0.870738 7:-0.211141 8:-0.285363 9:-0.088580 10:-1.151208 11:0.829014 12:-0.153381 13:-0.137592 14:-1.975844 15:-0.243924 16:-2.136895 17:-0.792543 18:-0.126350 19:-0.224766 20:-0.931813 21:0.121638 22:0.616396 23:-1.447457 24:-0.085604 25:1.231416 26:0.896483 27:-0.223043 28:-0.056566 29:-0.341848 30:0.653752 31:-1.861080 32:0.440945 33:0.539258 34:0.971677 35:0.689905
-1 1:0.145554 2:-0.171196 3:0.257227 4:0.967728 5:0.268924 6:0.993705 7:0.344913 8:-0.471103 9:-0.321430 10:-0.779831 11:-1.686077 12:-0.477381 13:0.047775 14:-0.059923 15:-0.624215 16:-0.915854 17:2.157502 18:-1.237424 19:0.020849 20:0.437939 21:-0.852056 22:-0.913072 23:-0.323484 24:0.809643 25:-1.115575 26:-0.763821 27:-1.284071 28:0.448215 29:1.488820 30:-0.851117 31:0.806952 32:0.893975 33:0.435438 34:-1.230165 35:-1.750506
-1 1:-0.853404 2:0.831371 3:0.187859 4:0.984916 5:1.650332 6:1.440212 7:-0.396288 8:-2.782869 9:-0.060452 10:0.155626 11:-0.015505 12:0.744356 13:1.477364 14:0.478351 15:0.164575 16:1.411653 17:0.784728 18:0.179767 19:0.119667 20:-0.939131 21:0.916699 22:0.332386 23:0.802649 24:-0.546737 25:-0.684285 26:-1.968950 27:-2.288501 28:-0.631167 29:-0.146719 30:-0.004635 31:-0.514103 32:-0.073415 33:1.384911 34:1.855657 35:-0.410885
-1 1:0.876565 2:2.167972 3:0.101980 4:-0.491543 5:0.991195 6:0.688778 7:-1.072685 8:0.628103 9:1.892785 10:-0.044774 11:0.276845 12:-1.253227 13:1.870005 14:0.246038 15:2.772895 16:0.418169 17:-0.229157 18:-0.042647 19:1.669764 20:-2.056821 21:-0.141236 22:-0.197409 23:-0.056523 24:0.005773 25:0.579349 26:-0.446245 27:-0.044234 28:-0.536940 29:1.544907 30:0.825298 31:-1.281913 32:-0.298395 33:0.637149 34:0.634807 35:-1.633251
-1 1:1.356677 2:-0.443577 3:-1.509957 4:0.746688 5:-0.050496 6:0.259569 7:-0.814199 8:-1.297957 9:0.202625 10:1.197727 11:1.505459 12:1.489644 13:-2.062608 14:-1.275103 15:0.578825 16:-0.293759 17:1.125508 18:3.031828 19:0.881394 20:0.618956 21:-0.483907 22:0.221582 23:-1.507599 24:0.697095 25:-0.212463 26:0.671513 27:0.251240 28:-0.010577 29:-0.592743 30:0.621099 31:-0.468727 32:0.869377 33:-0.623629 34:-0.423470 35:0.521589
-1 1:-0.672125 2:1.638432 3:-0.969901 4:-0.002021 5:1.386064 6:0.759198 7:-0.018502 8:2.491036 9:-1.323270 10:0.464627 11:-0.536241 12:-0.438205 13:0.465249 14:-0.754722 15:-1.549051 16:0.072138 17:0.314278 18:-0.457503 19:0.515082 20:1.368973 21:-0.649258 22:0.486283 23:0.175842 24:0.648173 25:-0.209737 26:-0.397149 27:-0.985253 28:1.379890 29:-0.282374 30:0.055491 31:0.527301 32:0.695227 33:0.721636 34:0.724166 35:-1.594416
-1 1:-1.041287 2:0.996554 3:-0.754576 4:1.519160 5:0.579381 6:-0.429615 7:1.140608 8:-0.359394 9:-0.469820 10:1.031177 11:1.042895 12:-0.485914 13:-1.065150 14:0.035496 15:0.100462 16:0.054349 17:0.030253 18:0.164298 19:0.493303 20:-2.040407 21:0.585466 22:-1.856703 23:0.925117 24:-1.044279 25:-0.189842 26:0.439851 27:0.160869 28:1.368939 29:0.345782 30:0.446019 31:1.107264 32:-0.608042 33:1.031276 34:-1.009828 35:-0.222348
-1 1:2.198096 2:-0.590688 3:-0.407348 4:0.770915 5:-1.579902 6:-2.007082 7:1.181423 8:-0.344738 9:0.942231 10:0.708977 11:1.005116 12:-0.126926 13:2.083229 14:0.157686 15:-0.142354 16:0.462600 17:-0.292361 18:-1.312169 19:-2.250909 20:1.079401 21:-0.100647 22:-0.556626 23:1.195284 24:-0.864066 25:-1.054203 26:0.761991 27:1.322981 28:-0.046187 29:-0.166060 30:1.469353 31:-1.440392 32:-0.670964 33:-1.040169 34:0.767666 35:0.606696
-1 1:1.770847 2:0.532438 3:0.184703 4:-0.014368 5:-0.232010 6:-2.911651 7:0.856434 8:-1.385569 9:1.360704 10:-0.863914 11:0.098386 12:-0.364116 13:0.370338 14:0.715966 15:0.204443 16:-0.180878 17:0.346994 18:0.050608 19:0.651894 20:0.468872 21:-0.654344 22:0.307628 23:-1.918737 24:-1.689503 25:0.758949 26:2.065013 27:-0.545131 28:-0.145719 29:-0.720031 30:2.236625 31:0.239548 32:-0.925063 33:-0.854131 34:1.320278 35:0.592744
-1 1:0.031062 2:0.051531 3:0.901396 4:0.957247 5:1.532679 6:0.397959 7:0.274685 8:-0.469061 9:-0.299699 10:0.300301 11:-0.117185 12:-2.540235 13:0.316993 14:-0.802686 15:1.564030 16:0.599143 17:0.158700 18:1.343993 19:0.878057 20:0.452855 21:1.356332 22:-0.137632 23:0.571660 24:-0.652588 25:-1.347306 26:1.179584 27:-1.054616 28:0.788028 29:0.543309 30:-0.256993 31:-0.983740 32:-1.936197 33:0.400260 34:-0.004999 35:1.499720
-1 1:0.734069 2:0.453593 3:0.912320 4:0.784705 5:0.814198 6:-1.066729 7:-1.652622 8:-1.149450 9:-0.762607 10:1.218982 11:1.067732 12:-0.815243 13:-1.429111 14:0.463886 15:1.485384 16:-0.367445 17:2.003006 18:0.526018 19:0.509286 20:-0.923170 21:0.744768 22:-1.013209 23:-0.429161 24:-1.087083 25:-0.251057 26:0.119320 27:0.390291 28:-0.714418 29:0.399654 30:0.036543 31:-2.218726 32:1.623783 33:2.228831 34:-0.842616 35:-2.139306
-1 1:0.338628 2:-0.692999 3:2.412346 4:0.314671 5:-0.429562 6:-0.095922 7:0.772584 8:-0.041568 9:0.208368 10:0.005886 11:1.523024 12:-1.754009 13:0.356165 14:2.395010 15:-1.006300 16:-1.793187 17:0.305993 18:0.195056 19:-0.409329 20:-0.922922 21:1.393117 22:-0.851118 23:0.201043 24:-0.398896 25:1.277588 26:-1.001672 27:0.456111 28:0.456644 29:-0.009941 30:0.102689 31:-1.171322 32:-0.866741 33:1.401670 34:0.912108 35:1.661707
-1 1:-0.256738 2:0.588744 3:0.011847 4:0.115796 5:0.197592 6:-0.273325 7:2.110980 8:-0.377236 9:2.713137 10:-0.075878 11:0.356618 12:1.336480 13:0.178328 14:-0.279518 15:0.021429 16:-1.962050 17:0.331116 18:1.309024 19:-1.308654 20:-0.084128 21:1.715854 22:1.259021 23:-0.571960 24:0.364651 25:-1.866904 26:0.670254 27:0.601372 28:0.987139 29:-0.335526 30:-0.857038 31:0.705528 32:-2.323941 33:-0.081556 34:-0.594128 35:0.020538
-1 1:0.036495 2:-0.631722 3:0.583482 4:-0.940406 5:-0.715913 6:-0.579945 7:0.153576 8:-0.801799 9:-0.586754 10:0.072783 11:-0.781618 12:-0.066850 13:-1.602404 14:0.866520 15:0.015187 16:-0.090163 17:0.980684 18:-1.921996 19:1.074558 20:-0.071183 21:-0.429380 22:-1.665655 23:-0.452591 24:-0.110605 25:1.153664 26:0.581703 27:-1.674698 28:0.067604 29:-1.216155 30:0.310917 31:-0.590057 32:-0.890915 33:1.456047 34:-1.078208 35:-0.849542
-1 1:0.128759 2:0.043062 3:1.364622 4:0.277073 5:-1.257569 6:-0.800712 7:0.555138 8:1.000875 9:0.722505 10:0.884386 11:0.854111 12:1.105342 13:-0.734242 14:-0.079019 15:-0.107246 16:-0.108369 17:-0.234373 18:2.021839 19:-0.246370 20:1.152259 21:1.586950 22:-0.359361 23:-0.539588 24:0.188936 25:-0.116915 26:0.432018 27:-0.279089 28:-0.119856 29:0.431641 30:1.672031 31:-0.421666 32:0.559728 33:-0.768721 34:0.006150 35:-1.065002
-1 1:0.249534 2:-0.728613 3:2.244383 4:0.517132 5:-1.614729 6:-0.457674 7:0.234509 8:1.637010 9:-1.981765 10:-0.956892 11:0.829969 12:1.575889 13:-1.573279 14:-0.341366 15:0.228759 16:-0.051468 17:-0.160858 18:-0.107875 19:1.044846 20:0.332576 21:0.014719 22:0.221573 23:1.012787 24:-0.737514 25:-0.479063 26:-1.258070 27:0.492658 28:0.899247 29:-1.167173 30:-1.546397 31:-2.259524 32:-0.340701 33:0.618151 34:2.304005 35:-0.123053
-1 1:0.480986 2:1.588973 3:-0.281573 4:0.917869 5:-0.365302 6:-1.210613 7:1.966499 8:0.119283 9:-0.426546 10:-0.010578 11:-1.223127 12:-0.625332 13:-2.336879 14:1.669827 15:1.598520 16:-0.901720 17:0.838754 18:-0.579446 19:-1.389125 20:0.099858 21:0.305811 22:-0.683204 23:-0.872490 24:-1.048734 25:0.976289 26:-1.888537 27:-2.505259 28:-0.789841 29:1.085101 30:1.086824 31:1.438566 32:0.888483 33:-0.737360 34:-0.931282 35:-0.025044
-1 1:-1.196514 2:-0.734174 3:0.576754 4:-0.663799 5:-1.330544 6:1.096714 7:0.745478 8:-0.819532 9:1.195053 10:0.751742 11:0.143241 12:-1.280958 13:-0.531569 14:-1.463168 15:0.819504 16:0.663035 17:-1.464941 18:0.618207 19:-1.065546 20:-1.771118 21:1.157741 22:0.577195 23:1.756305 24:0.352286 25:-0.441875 26:0.149701 27:0.750005 28:-0.947593 29:0.580357 30:1.637637 31:-2.572581 32:-0.036895 33:1.679350 34:0.683824 35:0.063565
-1 1:-1.201563 2:-0.128214 3:-0.375543 4:0.153131 5:0.340281 6:-0.770884 7:-1.217895 8:1.170724 9:-0.123609 10:1.155542 11:-0.549656 12:0.371046 13:-0.341969 14:0.338579 15:0.799660 16:0.531175 17:-0.155348 18:0.298410 19:0.180258 20:0.433564 21:-1.341640 22:0.558527 23:0.103116 24:1.200167 25:-0.601972 26:0.055382 27:0.101299 28:0.559010 29:0.855675 30:1.061614 31:1.240112 32:0.631733 33:1.249120 34:-0.989931 35:-0.928644
-1 1:0.017272 2:-0.535611 3:-0.714765 4:0.936155 5:-0.781662 6:-0.001981 7:-0.101045 8:0.983361 9:-1.370413 10:-1.233534 11:-0.914984 12:-0.010172 13:-1.071476 14:-0.543363 15:-2.302859 16:0.520253 17:1.278088 18:0.339339 19:0.378717 20:-0.834901 21:0.139002 22:1.181678 23:-0.151007 24:0.197705 25:-0.278110 26:0.668518 27:-0.413115 28:0.193893 29:0.204942 30:-0.671961 31:0.637363 32:-2.415549 33:-0.954826 34:-2.208401 35:-0.081438
-1 1:0.282821 2:0.363719 3:1.453718 4:0.467215 5:-0.055779 6:-0.316813 7:1.497443 8:-1.895403 9:0.617585 10:-1.358924 11:0.868601 12:0.168245 13:1.157234 14:-0.107183 15:0.436985 16:0.623713 17:1.566049 18:0.339733 19:0.588661 20:-0.049495 21:-1.414783 22:0.661142 23:1.119846 24:-1.449567 25:-0.876063 26:1.488885 27:-0.416259 28:0.380283 29:-0.259393 30:-0.649513 31:-0.675552 32:-0.073161 33:0.185753 34:-1.017638 35:0.320912
-1 1:-0.133278 2:-0.853480 3:0.791283 4:0.485057 5:-0.179774 6:0.427230 7:-0.708673 8:-0.695805 9:-1.073389 10:0.745119 11:-0.887414 12:-0.462393 13:1.397039 14:-0.180747 15:0.631137 16:0.600394 17:-1.005642 18:-0.497291 19:-0.756353 20:-0.775847 21:0.677250 22:0.035755 23:-2.288460 24:-0.786004 25:-1.626477 26:-0.463046 27:0.617773 28:-0.035139 29:1.143370 30:0.228259 31:-1.050553 32:0.461912 33:-0.444925 34:0.253702 35:1.130280
-1 1:0.322350 2:-1.608398 3:-0.236201 4:0.837151 5:-0.842791 6:-0.889768 7:-0.389720 8:1.354477 9:-0.153801 10:-0.216409 11:1.508416 12:2.467369 13:-1.878139 14:-0.208588 15:-0.026190 16:0.380826 17:1.140086 18:-0.083984 19:-1.051359 20:1.025684 21:-0.018131 22:-1.024896 23:0.462666 24:1.630739 25:0.541351 26:0.630373 27:0.312493 28:0.822584 29:-1.041435 30:1.253160 31:-1.849112 32:-1.389433 33:-1.223665 34:-2.594906 35:1.483121
-1 1:-0.211832 2:-0.199255 3:-1.368970 4:0.971072 5:0.452291 6:0.728851 7:1.396041 8:0.389163 9:-0.407365 10:0.690200 11:0.585454 12:0.776960 13:4.033799 14:0.294559 15:0.093120 16:-0.869432 17:0.652184 18:-0.570707 19:-1.746180 20:0.070951 21:0.210054 22:-1.289349 23:-0.892032 24:-0.201579 25:-2.360529 26:-0.297376 27:1.470419 28:-1.175199 29:0.457804 30:0.083637 31:-0.974761 32:0.182250 33:-0.604418 34:-0.691332 35:-0.519814
-1 1:-0.355007 2:0.675786 3:0.453648 4:-0.374458 5:1.929127 6:1.042608 7:-0.864726 8:-1.057204 9:0.303947 10:0.996219 11:0.659369 12:-0.167835 13:1.081475 14:-0.939058 15:-0.335156 16:-0.172595 17:-2.074997 18:0.128926 19:-0.492234 20:-0.022087 21:0.670266 22:-0.149990 23:0.947909 24:-0.201890 25:-0.783712 26:-0.130927 27:1.056514 28:0.987667 29:0.136369 30:0.758138 31:0.678163 32:-0.342535 33:-0.289951 34:-0.490463 35:-1.641005
-1 1:-0.127629 2:0.106504 3:0.071096 4:-0.252085 5:-0.972527 6:-0.028248 7:-1.106593 8:0.068483 9:-0.909954 10:1.133057 11:-0.806038 12:-0.091988 13:-0.595374 14:-0.908796 15:0.312139 16:-0.712024 17:-0.491769 18:-0.306079 19:-0.193326 20:1.288629 21:-0.936647 22:0.500770 23:0.464379 24:0.246598 25:-0.064492 26:-0.352861 27:0.190237 28:0.102316 29:1.525639 30:1.169191 31:0.087759 32:-0.070452 33:-0.071693 34:-0.538504 35:0.433916
-1 1:-0.837396 2:0.157885 3:-1.308494 4:0.128618 5:-0.568973 6:-0.658501 7:-0.516044 8:-0.394758 9:-1.161160 10:-0.438160 11:-0.058221 12:-1.456716 13:-0.782811 14:-0.577590 15:-0.429829 16:-0.189295 17:0.631618 18:1.646365 19:0.163438 20:0.130297 21:-0.455793 22:0.862240 23:-0.462681 24:0.324736 25:2.005130 26:-0.324132 27:-1.688794 28:-0.859169 29:-1.296668 30:-0.947620 31:0.172391 32:0.397580 33:1.511076 34:1.241686 35:-1.789918
-1 1:0.023612 2:1.144417 3:-1.918128 4:-1.459878 5:0.881507 6:1.678615 7:-0.603424 8:-0.202629 9:-0.197283 10:-0.012331 11:-1.040921 12:1.443884 13:0.475808 14:-0.102698 15:0.747290 16:-1.432571 17:-2.405691 18:-0.110242 19:0.281024 20:0.331533 21:-0.523703 22:-0.564658 23:0.018271 24:-2.657931 25:-1.522664 26:0.254270 27:-0.258425 28:0.096286 29:-0.439699 30:0.415079 31:0.660716 32:-0.756536 33:0.084192 34:-1.065948 35:-0.693226
-1 1:1.218638 2:-1.113181 3:-1.759853 4:0.577111 5:-0.309185 6:1.357715 7:1.007532 8:1.691228 9:0.802779 10:-1.384425 11:-0.288175 12:-0.990753 13:0.448593 14:0.714422 15:1.779936 16:0.456286 17:0.783200 18:-0.720866 19:1.699602 20:-2.206160 21:1.432025 22:-1.878344 23:-0.054321 24:0.181159 25:-2.713737 26:-0.294189 27:0.505357 28:-0.992176 29:2.865306 30:-2.196064 31:-0.236085 32:0.282861 33:0.300493 34:0.130596 35:0.651680
-1 1:-0.546418 2:-0.505748 3:1.006065 4:0.559205 5:0.197248 6:-1.020541 7:-2.588876 8:-0.047285 9:0.936805 10:-1.167606 11:0.843865 12:-1.120763 13:-0.796487 14:1.076240 15:-1.830171 16:-0.176328 17:0.728393 18:0.905099 19:-0.184141 20:1.200582 21:-0.072955 22:-0.905956 23:-1.223314 24:-1.006920 25:1.237349 26:-0.227214 27:1.638783 28:-1.770869 29:0.351841 30:-0.400416 31:-1.177494 32:0.376043 33:-0.585608 34:-0.139627 35:0.740924
-1 1:1.467679 2:0.271718 3:-0.967572 4:-0.033915 5:0.553333 6:-0.352444 7:-1.060290 8:-0.033012 9:-1.517552 10:-0.708530 11:0.228526 12:0.321204 13:-1.462677 14:-1.021480 15:1.320679 16:0.445734 17:1.629772 18:-0.727677 19:0.593122 20:1.844877 21:0.060894 22:-0.148689 23:-0.310951 24:-0.845377 25:0.615675 26:-0.714793 27:0.138305 28:0.655805 29:0.305553 30:-1.350820 31:0.889237 32:0.310989 33:0.123787 34:1.786953 35:0.458390
-1 1:0.535136 2:-0.087576 3:-0.049790 4:-1.115713 5:0.699967 6:-0.165625 7:-0.774133 8:-1.968932 9:0.561721 10:-0.071597 11:-1.478349 12:-1.002510 13:1.974810 14:1.226231 15:-0.251098 16:0.493951 17:-0.834818 18:-1.294264 19:0.001668 20:-0.200719 21:-1.564472 22:0.202094 23:1.053269 24:-0.907138 25:-0.959400 26:-1.294926 27:0.719303 28:-0.863456 29:-0.038076 30:0.448582 31:1.043884 32:-0.659720 33:0.328901 34:-1.163898 35:-0.606701
-1 1:0.017871 2:1.823683 3:1.264271 4:-2.895565 5:-1.237560 6:0.040759 7:-0.247825 8:-1.315851 9:0.486284 10:-0.271582 11:-0.832556 12:-0.455597 13:-0.075018 14:-0.356041 15:-0.011979 16:-0.129738 17:1.279646 18:0.678012 19:-0.249484 20:0.256049 21:-0.011070 22:0.702110 23:-0.607652 24:-1.306091 25:0.702860 26:-0.990126 27:-0.068639 28:0.192343 29:0.106835 30:-0.824493 31:-0.628377 32:0.045745 33:-2.905817 34:-1.292122 35:-0.980806
-1 1:2.215666 2:-0.077471 3:0.710200 4:-0.699722 5:-0.123379 6:0.569784 7:0.077732 8:0.194274 9:-0.331929 10:1.197699 11:-0.513884 12:1.614237 13:-0.466643 14:0.579238 15:0.610093 16:-1.216881 17:-0.475429 18:-0.712170 19:-0.616609 20:0.602160 21:-0.805843 22:1.091246 23:1.252617 24:0.285304 25:0.815842 26:0.565098 27:2.061137 28:0.744888 29:-1.545787 30:0.393113 31:-1.153474 32:-0.500692 33:0.369818 34:-1.326501 35:0.808062
-1 1:-0.389353 2:1.408821 3:-0.318888 4:2.344230 5:-1.245748 6:-1.374554 7:-1.353468 8:-0.110842 9:-0.447581 10:0.590860 11:-0.488144 12:-1.313810 13:-0.090556 14:0.779085 15:1.781565 16:0.961504 17:0.978937 18:0.358921 19:-0.273625 20:-0.461219 21:1.597017 22:-1.043711 23:-0.674941 24:-1.052014 25:0.893074 26:-0.928760 27:0.494020 28:0.802776 29:-0.441672 30:0.130549 31:2.082890 32:0.590099 33:-0.689610 34:1.366296 35:-0.767571
-1 1:-1.212658 2:2.134085 3:0.994838 4:-1.623878 5:-0.561964 6:-0.886665 7:1.580890 8:0.408759 9:-0.647560 10:-0.365837 11:0.975322 12:0.275497 13:2.144681 14:-0.477472 15:-0.701242 16:-1.971503 17:-0.091005 18:-0.523983 19:-0.042961 20:-1.532502 21:1.472485 22:0.444632 23:-0.859600 24:0.472924 25:1.271381 26:-0.041385 27:-0.394734 28:-0.424269 29:1.850965 30:0.463247 31:1.812332 32:0.074053 33:0.127844 34:0.432778 35:-0.358109
-1 1:-1.594014 2:1.396263 3:0.903596 4:0.946357 5:0.117649 6:-0.673972 7:1.662915 8:0.656360 9:0.494910 10:-1.146987 11:-1.102842 12:-0.433958 13:0.365348 14:0.597141 15:-0.171364 16:0.107726 17:-0.498377 18:0.561352 19:-0.163438 20:2.052548 21:0.370664 22:0.205190 23:1.658080 24:1.110263 25:1.900704 26:-1.484934 27:0.768599 28:1.234800 29:-1.383268 30:0.129886 31:-0.773905 32:-0.611509 33:0.739393 34:0.991677 35:0.368204
-1 1:-0.246541 2:2.014070 3:-1.045728 4:0.503478 5:-0.407275 6:0.121403 7:-0.845692 8:0.000197 9:0.733572 10:1.281167 11:-0.997279 12:1.251876 13:0.502161 14:-1.605729 15:-0.434822 16:-1.910987 17:-0.766331 18:-0.049490 19:-1.331694 20:-0.427553 21:1.604431 22:-1.052871 23:2.882170 24:-0.372551 25:-0.267510 26:-2.351636 27:-0.092483 28:0.024314 29:-0.526238 30:0.339804 31:0.412239 32:0.995826 33:0.349775 34:1.068282 35:-1.054462
-1 1:-1.206369 2:-0.976383 3:0.516518 4:0.608204 5:0.116125 6:1.146867 7:1.549138 8:-1.637111 9:0.780271 10:-0.335114 11:-0.783761 12:0.302396 13:-0.190568 14:1.855856 15:-2.311770 16:0.866720 17:1.298215 18:0.363756 19:-0.758825 20:1.157900 21:-1.342317 22:-1.222543 23:0.550318 24:0.103591 25:0.969594 26:-1.278429 27:-0.896872 28:-0.983409 29:0.687818 30:-1.418110 31:-0.230713 32:-2.601394 33:2.236602 34:-0.062158 35:0.115047
-1 1:-0.737675 2:-1.112873 3:1.901640 4:-0.189025 5:1.780289 6:-1.600449 7:2.402549 8:-2.278967 9:-0.054677 10:1.190563 11:0.720674 12:-1.997993 13:0.549227 14:-0.528973 15:-0.896998 16:0.550466 17:0.581421 18:1.721325 19:-0.323299 20:0.174042 21:0.004669 22:0.458102 23:0.286864 24:-0.638075 25:-1.074390 26:0.328598 27:0.918665 28:1.199941 29:-1.395165 30:2.108701 31:2.650304 32:0.350836 33:-0.511533 34:1.412263 35:-1.776662
-1 1:0.830965 2:0.003844 3:-0.385873 4:-1.062288 5:-0.972747 6:0.960926 7:-0.177841 8:-1.091928 9:0.364156 10:-0.509958 11:-0.979030 12:-1.564136 13:0.691978 14:0.841155 15:-1.037205 16:0.220760 17:-0.621089 18:1.100691 19:0.372448 20:0.575408 21:-0.742105 22:-1.274222 23:-0.018819 24:-0.587616 25:-0.512041 26:-1.191929 27:-0.008796 28:1.542376 29:-0.091874 30:-0.381992 31:-1.284716 32:0.517607 33:0.861051 34:-0.295400 35:-1.370473
-1 1:-1.515837 2:0.604392 3:1.329619 4:-0.650023 5:0.667993 6:1.307177 7:-1.595562 8:-0.983035 9:-0.400852 10:-0.540219 11:-0.062163 12:-0.060046 13:-1.360895 14:0.067209 15:1.967696 16:-0.926815 17:0.086284 18:0.210256 19:-1.240809 20:0.542096 21:-2.062363 22:2.319052 23:-2.402773 24:-0.988474 25:0.609898 26:0.063041 27:-0.403392 28:-0.282367 29:-1.841354 30:1.006781 31:0.024770 32:0.891632 33:-0.507393 34:-0.482954 35:0.038156
-1 1:-0.034214 2:0.010346 3:-2.771306 4:0.928523 5:1.634744 6:-0.125098 7:-0.346734 8:-0.182416 9:1.013739 10:-0.797052 11:-1.125886 12:-1.557252 13:-0.444764 14:-1.655891 15:0.511487 16:-0.534064 17:-1.500167 18:0.170388 19:0.699067 20:0.831350 21:0.047013 22:1.080150 23:1.496241 24:-0.363805 25:-1.614895 26:-0.389775 27:0.771546 28:-0.248957 29:-0.253577 30:0.203922 31:0.708368 32:-1.084141 33:-0.713027 34:-0.137354 35:-1.373729
-1 1:0.176989 2:0.639153 3:-0.032831 4:-0.446278 5:0.569921 6:1.946603 7:-1.222116 8:-1.300171 9:-1.482835 10:0.331928 11:-0.148867 12:-0.467422 13:0.762621 14:-0.659722 15:1.641077 16:0.181779 17:1.156620 18:0.565860 19:2.550138 20:-0.959451 21:-0.167643 22:1.752515 23:0.255061 24:1.564378 25:1.669449 26:0.032768 27:1.300938 28:-0.980510 29:0.218458 30:1.409153 31:0.833206 32:-0.277557 33:0.368552 34:1.514070 35:-0.395415
-1 1:-1.138761 2:-1.005995 3:-0.038022 4:0.815270 5:-0.336358 6:-0.886279 7:1.816547 8:1.874227 9:0.562143 10:0.408160 11:1.209755 12:-0.934583 13:1.066637 14:-0.387768 15:1.016081 16:-0.545201 17:0.156335 18:0.911561 19:-0.269643 20:-0.447309 21:1.045604 22:1.381323 23:-1.579958 24:-0.059528 25:-1.827721 26:-0.676858 27:0.801012 28:-0.462123 29:-0.056079 30:0.345030 31:1.477578 32:-0.510214 33:-1.222617 34:-1.139640 35:-0.080892
-1 1:1.642250 2:-0.469200 3:0.697004 4:0.225547 5:0.901524 6:-0.144828 7:0.537404 8:-0.704546 9:1.646098 10:-0.154892 11:1.140173 12:-0.618059 13:-0.444135 14:-0.207286 15:1.425688 16:0.836484 17:0.192736 18:-1.607973 19:1.180793 20:0.033335 21:0.539669 22:-1.105548 23:1.610958 24:0.480829 25:-0.148408 26:1.123715 27:0.146111 28:-0.930373 29:1.184164 30:0.245243 31:2.278777 32:-0.932918 33:1.540668 34:-0.416415 35:0.401380
-1 1:0.779261 2:-0.203039 3:0.779445 4:2.115769 5:-0.075415 6:1.115011 7:-1.207183 8:-0.659688 9:1.263562 10:-0.941318 11:0.614247 12:-0.123692 13:1.106834 14:-0.563363 15:-0.113750 16:0.422931 17:-0.541598 18:1.215518 19:0.018357 20:1.405648 21:-0.278973 22:0.018905 23:-0.341660 24:-3.623284 25:1.689300 26:0.402519 27:-1.638253 28:-0.224015 29:0.133938 30:0.219592 31:-2.489300 32:-1.236133 33:1.950620 34:-1.402980 35:1.030528
-1 1:-0.450294 2:0.595530 3:-0.919232 4:-0.152503 5:1.100002 6:-0.313415 7:-0.361357 8:-0.043047 9:0.103615 10:0.458768 11:1.123742 12:-1.429814 13:0.134531 14:0.162179 15:0.594143 16:-0.519420 17:-0.924735 18:-1.187521 19:1.655226 20:0.469102 21:-0.312928 22:-0.096886 23:0.361409 24:-1.217386 25:-1.848170 26:0.479728 27:-0.022018 28:0.872601 29:1.030819 30:-0.418780 31:-0.030388 32:1.989201 33:0.614534 34:-0.269402 35:-0.267367
-1 1:1.363163 2:0.442829 3:0.117336 4:0.729570 5:0.431151 6:0.235597 7:1.742084 8:-1.182366 9:1.083519 10:-0.613587 11:-1.178245 12:-0.846560 13:-0.242592 14:1.982273 15:-0.194953 16:-0.695859 17:-0.986032 18:1.033294 19:-1.171630 20:-1.247017 21:-1.035756 22:0.501442 23:-0.206262 24:-1.292712 25:1.857386 26:0.704673 27:-0.577634 28:0.062386 29:-0.060214 30:-0.532919 31:1.012389 32:0.504188 33:-0.403104 34:0.163408 35:0.139187
-1 1:2.232729 2:-0.062569 3:0.458099 4:-0.682762 5:0.768904 6:1.548461 7:-0.530349 8:-0.775426 9:1.194294 10:1.291213 11:0.430348 12:-0.466500 13:0.480795 14:1.360682 15:-1.639006 16:-0.602648 17:0.555596 18:0.441270 19:0.490313 20:1.177855 21:1.002883 22:-0.733084 23:-0.074040 24:-0.072829 25:-0.036558 26:0.319580 27:2.043233 28:0.717024 29:0.007027 30:0.035540 31:-0.246772 32:-0.335621 33:-0.024465 34:0.795506 35:-1.445633
-1 1:0.032789 2:1.940060 3:-0.977650 4:-2.077852 5:-0.353964 6:-1.130541 7:-0.956602 8:-1.609416 9:0.185404 10:-1.514222 11:-0.625491 12:0.297152 13:1.524659 14:-0.905672 15:-0.371837 16:0.975715 17:-1.118405 18:-1.474305 19:1.265530 20:-0.922003 21:-1.251661 22:1.949317 23:1.449516 24:0.822328 25:1.867198 26:-0.886942 27:0.302784 28:-0.160306 29:0.522150 30:1.038243 31:-2.405616 32:-0.013634 33:-0.665872 34:-0.951473 35:0.221306
-1 1:-1.092393 2:-0.269455 3:0.323283 4:-0.704100 5:-0.039245 6:-0.098849 7:1.355132 8:-0.941882 9:0.033078 10:2.861136 11:1.889829 12:0.550627 13:-0.211840 14:-0.491224 15:1.070844 16:-1.485133 17:0.478300 18:-0.011161 19:0.037842 20:-3.394417 21:-0.715823 22:-1.959209 23:-0.059751 24:1.768349 25:1.129475 26:-2.044347 27:-0.583133 28:-0.273080 29:-0.270587 30:-1.516218 31:-0.359445 32:-0.240196 33:-0.534839 34:-0.535021 35:-1.866623
-1 1:0.524862 2:-0.614423 3:-0.566652 4:2.656872 5:-0.201394 6:0.442477 7:-0.751138 8:-0.967641 9:-0.181882 10:1.096301 11:0.707715 12:0.653056 13:-0.792894 14:-0.299752 15:-0.553562 16:-0.917059 17:-0.107740 18:0.777324 19:1.938589 20:-1.006906 21:-0.141697 22:-2.258755 23:-0.206550 24:0.383066 25:-1.230316 26:-0.164891 27:0.390919 28:0.547681 29:-0.199391 30:1.093732 31:1.341341 32:-0.082764 33:0.094959 34:-1.483976 35:0.760846
-1 1:1.341989 2:1.218219 3:-0.329698 4:0.739537 5:0.125964 6:-0.918377 7:0.404212 8:-1.465957 9:0.662477 10:-0.268302 11:1.205813 12:0.274715 13:0.557669 14:1.253107 15:-0.254353 16:-0.167052 17:0.619822 18:-0.601754 19:0.513485 20:0.094425 21:0.062461 22:0.222602 23:-0.282154 24:0.454273 25:-1.653389 26:-0.204101 27:-0.744124 28:-1.731685 29:1.198691 30:0.517507 31:0.119387 32:-1.053733 33:0.009874 34:1.026915 35:-0.154942
-1 1:-0.269790 2:-0.019289 3:0.733174 4:-1.347058 5:-1.769465 6:-0.846949 7:-1.114786 8:0.600831 9:-0.403538 10:2.021362 11:-2.587899 12:-0.070601 13:0.443308 14:0.747303 15:-0.695191 16:-1.023096 17:0.252060 18:1.387771 19:0.051808 20:-0.741600 21:-0.401730 22:1.233017 23:-0.186178 24:-1.317208 25:-1.094536 26:-0.222966 27:-0.286565 28:1.531616 29:-0.857709 30:0.971899 31:-0.956991 32:1.061262 33:0.473098 34:1.160075 35:-0.676593
-1 1:0.723521 2:-1.133655 3:-1.616325 4:1.948241 5:-0.909453 6:1.177398 7:0.628967 8:1.091417 9:1.159294 10:-0.123697 11:-0.454135 12:-0.222582 13:1.611349 14:1.618178 15:1.459370 16:-0.228102 17:0.889814 18:-0.915786 19:-0.121393 20:-0.152315 21:-0.726528 22:-1.158845 23:0.976191 24:-0.354619 25:-1.900041 26:1.599126 27:0.086552 28:1.046193 29:0.721137 30:-0.594311 31:1.835353 32:-0.089126 33:1.118288 34:-0.298559 35:-1.028463
-1 1:-0.162581 2:-0.257520 3:-0.554790 4:-0.740525 5:-0.379399 6:0.076205 7:1.469747 8:-0.251378 9:1.029081 10:-1.081769 11:-0.834165 12:-0.487919 13:1.144037 14:-0.251271 15:-2.269882 16:0.395810 17:-0.765281 18:0.818685 19:-0.969184 20:-0.516669 21:-0.911998 22:-1.506180 23:0.329350 24:-0.340827 25:0.949688 26:-0.040764 27:-0.138880 28:0.979171 29:-1.251870 30:1.590306 31:0.315956 32:-0.864484 33:0.183945 34:-0.444569 35:-0.694289
-1 1:0.705324 2:-0.396418 3:-0.524166 4:-1.481789 5:1.645931 6:0.319377 7:2.970275 8:-0.262674 9:-0.203642 10:-0.163621 11:-0.291967 12:-0.267939 13:-1.105851 14:-0.429526 15:0.937854 16:0.106971 17:-0.700286 18:-0.816243 19:-0.280483 20:-0.362299 21:-1.430295 22:-1.362354 23:0.345065 24:-0.272151 25:1.571232 26:-1.045493 27:-1.171553 28:-1.105635 29:0.989319 30:0.771706 31:-0.713487 32:-0.349539 33:-0.673900 34:2.172083 35:-0.027847
-1 1:1.393237 2:-0.901908 3:1.072121 4:-0.458773 5:-0.148454 6:-0.491936 7:0.766612 8:-1.569008 9:-0.126863 10:0.126262 11:1.264130 12:-0.899434 13:-0.254696 14:-0.112410 15:-0.584899 16:0.343779 17:0.725170 18:0.359244 19:-0.668526 20:-0.534048 21:-0.315873 22:-0.124969 23:-1.323802 24:-0.667411 25:0.322902 26:3.735043 27:0.182114 28:-0.013177 29:1.141366 30:-1.874119 31:-0.901244 32:-0.710281 33:0.078604 34:0.218709 35:-2.183716
-1 1:0.426667 2:0.555490 3:0.385646 4:-0.293962 5:0.116231 6:1.029609 7:-0.141498 8:0.259496 9:1.084251 10:0.718725 11:-0.362532 12:0.776909 13:-0.813049 14:0.385673 15:1.399050 16:0.151143 17:0.047382 18:0.636868 19:1.236701 20:-0.828750 21:-0.847889 22:-0.365812 23:-0.318233 24:-0.769455 25:-0.088947 26:0.687146 27:-0.444673 28:-0.561685 29:-0.520359 30:-0.992627 31:-1.180311 32:-2.432607 33:0.890970 34:-1.183420 35:0.567309
-1 1:-1.027050 2:-0.143464 3:0.068565 4:-0.237642 5:1.959576 6:-0.964606 7:0.421342 8:0.278077 9:-0.095203 10:0.627373 11:1.323739 12:0.024331 13:-0.980961 14:-0.270375 15:0.264610 16:-2.326084 17:0.028781 18:1.085218 19:0.301638 20:0.206636 21:-2.196090 22:-2.871935 23:0.385550 24:0.028120 25:-0.764149 26:0.542896 27:-0.577184 28:0.484678 29:0.728542 30:0.710641 31:-0.927047 32:-0.063659 33:0.135963 34:-0.193244 35:-0.199220
-1 1:-0.845901 2:0.180877 3:0.666318 4:1.199051 5:-0.234527 6:-1.077449 7:-0.954422 8:-1.803510 9:0.925725 10:-0.340705 11:1.326610 12:0.491846 13:-0.412567 14:0.591356 15:-2.265275 16:0.453806 17:-1.702138 18:1.387904 19:0.511734 20:-1.066412 21:-0.121450 22:1.126868 23:0.465000 24:0.847442 25:0.152378 26:1.076105 27:0.485399 28:-1.550727 29:-0.957564 30:-1.202833 31:-0.683746 32:0.478818 33:2.600669 34:1.919981 35:-0.918932
-1 1:-0.898961 2:0.262906 3:-1.635274 4:0.307003 5:1.253439 6:-2.149836 7:0.018238 8:1.178674 9:0.711273 10:-0.689423 11:1.082779 12:0.621485 13:0.542617 14:-0.179151 15:-0.476583 16:0.724742 17:0.825831 18:0.485267 19:-1.206766 20:-1.077186 21:1.331893 22:-0.217377 23:0.126364 24:-1.047695 25:-0.373662 26:-0.745415 27:-0.043780 28:-0.996768 29:0.404862 30:-1.079661 31:-1.787050 32:-1.431861 33:-0.939416 34:0.650076 35:-0.230311
-1 1:-1.326388 2:-0.907351 3:0.758295 4:0.132815 5:0.213536 6:-0.643390 7:-0.196907 8:-1.578240 9:-0.139968 10:-0.557541 11:-0.643987 12:1.617246 13:1.174995 14:0.727957 15:-1.183996 16:0.999244 17:-1.538069 18:1.521538 19:1.138441 20:1.310700 21:-2.530296 22:0.884960 23:1.155267 24:-0.220789 25:-1.246024 26:-1.061416 27:-0.538011 28:0.336176 29:0.652612 30:0.537051 31:-0.547065 32:-1.154751 33:1.827373 34:1.638506 35:-0.440978
-1 1:1.889846 2:-1.159097 3:0.364674 4:-0.787163 5:-0.048989 6:0.391220 7:-1.831967 8:0.874260 9:-0.340915 10:0.688994 11:0.714107 12:-0.896380 13:0.476594 14:-0.252905 15:1.084939 16:-2.238934 17:-1.229812 18:0.053102 19:0.314909 20:0.308603 21:0.174948 22:-0.788300 23:0.236400 24:-0.113303 25:-0.564305 26:1.455258 27:1.214447 28:-0.260521 29:0.895902 30:0.102193 31:-0.274722 32:0.235616 33:0.438448 34:-1.795419 35:-0.225981
-1 1:-2.253779 2:-0.376587 3:-0.344049 4:-0.854978 5:2.086159 6:0.845991 7:0.452603 8:-0.418412 9:-0.216497 10:2.129682 11:0.721408 12:1.385905 13:0.133116 14:-0.212064 15:-0.253414 16:0.076592 17:-0.704695 18:1.604673 19:0.103368 20:0.959722 21:-0.120658 22:1.204184 23:0.688073 24:0.499440 25:0.897749 26:-0.203905 27:-0.372802 28:-1.063650 29:0.169932 30:1.902554 31:-0.027777 32:-0.450518 33:1.105330 34:0.524734 35:-0.216208
-1 1:-1.475413 2:0.645961 3:-0.105967 4:0.224362 5:2.047072 6:1.399032 7:-0.411489 8:0.099058 9:0.301315 10:1.300729 11:-1.651016 12:-0.368946 13:-1.374797 14:1.182439 15:-2.739643 16:0.194992 17:1.345425 18:-0.238937 19:-0.690572 20:-0.401684 21:-0.776705 22:0.007059 23:0.867132 24:-1.024603 25:1.990895 26:0.045611 27:-0.206566 28:-0.891790 29:0.208899 30:-0.362720 31:0.963789 32:-1.198645 33:0.296912 34:-1.651617 35:0.402657
-1 1:0.809162 2:-0.897819 3:-1.131634 4:2.047544 5:-1.578399 6:0.120538 7:0.384698 8:-0.098059 9:0.546425 10:1.730118 11:-0.774504 12:0.863449 13:-1.233474 14:0.296869 15:-0.581988 16:-0.231748 17:0.448650 18:0.493397 19:0.077654 20:-0.055706 21:-2.365263 22:1.572117 23:2.021262 24:-1.844750 25:0.339490 26:0.187765 27:1.177759 28:-0.019967 29:1.910834 30:-2.345653 31:1.262784 32:-0.751780 33:-0.097504 34:0.290879 35:-0.398937
-1 1:1.469265 2:-0.545366 3:0.458874 4:-1.031978 5:-0.062098 6:0.902603 7:1.372859 8:-0.699787 9:-1.030534 10:0.048952 11:2.170828 12:0.367391 13:-0.390682 14:0.272418 15:-0.245250 16:0.225492 17:0.029713 18:-0.457736 19:0.334542 20:1.014699 21:1.724372 22:0.749375 23:-1.426140 24:-0.911120 25:-0.832821 26:-0.806520 27:-0.081520 28:-0.012543 29:-1.764308 30:-0.036070 31:-0.420135 32:2.262581 33:1.250422 34:-0.385803 35:0.567402
-1 1:1.973109 2:-0.222677 3:-1.192385 4:-1.328408 5:0.904519 6:1.965185 7:-1.183591 8:0.552082 9:1.566815 10:0.664469 11:0.777810 12:-0.690202 13:0.414476 14:0.112945 15:-1.802979 16:-0.703306 17:-0.850689 18:0.683307 19:1.701304 20:-1.126343 21:-0.432116 22:0.699335 23:-2.456188 24:-0.304859 25:0.129922 26:0.180896 27:0.809108 28:-0.487033 29:-0.508109 30:-0.230110 31:-0.394476 32:-1.209269 33:0.486867 34:-0.026423 35:-1.468552
-1 1:-0.329831 2:1.026238 3:-0.338266 4:1.319120 5:0.086738 6:-0.260168 7:0.682607 8:-0.082199 9:-0.702977 10:-1.897883 11:2.273606 12:0.748604 13:0.087493 14:-0.253028 15:-0.589016 16:0.223975 17:0.695815 18:1.239100 19:-1.072348 20:0.391616 21:-0.323908 22:0.024423 23:0.601527 24:0.857425 25:-0.318739 26:-0.177221 27:-0.431065 28:-0.406408 29:-0.110043 30:-0.926674 31:0.385954 32:1.174473 33:1.670412 34:0.262667 35:-0.279350
-1 1:-0.447016 2:-0.270505 3:0.161516 4:0.241964 5:0.279622 6:-0.662250 7:-0.475250 8:0.439812 9:0.510453 10:0.644072 11:-0.884966 12:0.043093 13:0.483164 14:0.890694 15:0.412713 16:2.436895 17:-1.334323 18:-0.418245 19:-0.157580 20:-0.615566 21:0.847989 22:-0.556467 23:-0.837727 24:-1.328235 25:0.436111 26:-0.932450 27:0.679128 28:-1.523352 29:-2.505589 30:-0.474190 31:1.646697 32:0.047583 33:0.642042 34:-0.418386 35:-0.555492
-1 1:0.831946 2:0.636030 3:0.822512 4:0.450677 5:0.783796 6:-1.339486 7:1.821159 8:-0.057587 9:0.438108 10:-1.845433 11:-0.077146 12:-0.881782 13:-2.437787 14:0.694829 15:0.904621 16:-2.287507 17:0.400293 18:0.760264 19:1.231674 20:1.096178 21:0.700165 22:-0.775961 23:-0.305039 24:1.210528 25:-1.548820 26:0.480686 27:-0.214832 28:0.446192 29:0.578735 30:-2.463499 31:1.069758 32:0.269456 33:0.952226 34:-1.083182 35:1.015460
-1 1:0.746836 2:-0.888351 3:2.055782 4:0.697485 5:-0.119546 6:1.036079 7:-0.397316 8:0.354739 9:-0.037599 10:0.267589 11:-0.156615 12:-1.209341 13:-0.133183 14:-0.641481 15:-1.166785 16:-0.288388 17:-1.309217 18:-0.144922 19:0.342118 20:1.689655 21:-1.035191 22:0.308550 23:-0.669148 24:-0.536053 25:-1.754760 26:1.704973 27:-0.657992 28:0.126798 29:1.103865 30:-1.015945 31:-0.384123 32:-0.886514 33:3.053379 34:-0.581962 35:-0.011418
-1 1:0.403621 2:0.721441 3:-0.156710 4:-0.610342 5:1.960449 6:0.397692 7:-0.118365 8:-1.398616 9:1.311462 10:0.477050 11:0.074220 12:0.876022 13:1.851758 14:1.885799 15:0.895910 16:0.011686 17:-0.815841 18:-0.604885 19:-0.720202 20:-0.067579 21:-0.237706 22:-0.313615 23:-0.283312 24:2.499629 25:-0.631050 26:-0.577684 27:-0.484658 28:-0.430576 29:-0.956318 30:-0.501124 31:0.552168 32:-1.748501 33:-0.325257 34:-1.087658 35:-0.622672
-1 1:0.675315 2:0.755341 3:0.362627 4:0.540929 5:0.267869 6:0.132801 7:0.995958 8:-0.181470 9:-0.953327 10:-0.794518 11:-0.717396 12:1.714522 13:-0.140834 14:1.422873 15:0.230092 16:-1.261952 17:-0.302411 18:0.879307 19:1.564209 20:0.472942 21:0.332867 22:-1.872695 23:0.367805 24:0.648683 25:-0.711216 26:0.894140 27:-1.335600 28:-0.223404 29:0.616991 30:0.518067 31:-0.889393 32:0.775505 33:-1.282400 34:1.454879 35:-0.522290
-1 1:0.851445 2:0.084411 3:-0.072118 4:-1.520297 5:-0.040804 6:-0.300501 7:0.171287 8:0.423199 9:0.882483 10:-0.078936 11:-0.817212 12:0.299171 13:0.700428 14:1.320485 15:0.319558 16:0.204064 17:-0.126540 18:-0.083637 19:1.024508 20:-0.179817 21:-0.255246 22:-2.335393 23:-0.658049 24:1.485944 25:0.370898 26:-2.276427 27:1.061277 28:1.033334 29:-0.731224 30:0.569482 31:0.240945 32:0.292567 33:-1.088218 34:0.952277 35:-1.106692
-1 1:1.774401 2:0.024590 3:0.068118 4:0.778906 5:1.130444 6:0.717045 7:-1.149826 8:0.701466 9:0.557896 10:-0.894907 11:-0.272935 12:-0.230760 13:-2.085900 14:-1.034877 15:1.418414 16:-0.249857 17:-0.517477 18:-1.082518 19:1.259600 20:-0.483230 21:0.125139 22:-2.022621 23:0.031025 24:2.512228 25:-0.007907 26:0.057428 27:0.998820 28:2.441633 29:-0.096386 30:-1.834804 31:0.359718 32:0.381736 33:0.089143 34:1.592977 35:-2.134477
-1 1:0.475106 2:0.392412 3:0.428096 4:0.107940 5:0.393637 6:0.482290 7:-0.218406 8:-0.747942 9:0.621084 10:0.151793 11:2.252041 12:0.632900 13:0.990073 14:-0.068944 15:0.623796 16:1.029862 17:0.113772 18:-0.307905 19:-1.179776 20:-1.745927 21:-0.298749 22:1.607757 23:-0.288896 24:0.887519 25:0.788926 26:1.165072 27:0.177073 28:0.494996 29:-0.497863 30:1.639792 31:0.182324 32:-0.141070 33:0.621647 34:-0.257765 35:-0.749797
-1 1:-0.367502 2:0.688186 3:-0.182189 4:0.446297 5:1.240464 6:0.274060 7:-1.484511 8:2.283387 9:1.037019 10:1.284066 11:0.696127 12:0.843398 13:0.357750 14:1.146067 15:-0.255710 16:0.366367 17:1.427476 18:-0.312175 19:-0.845484 20:-0.022586 21:-0.135633 22:-0.543507 23:0.055417 24:-0.061470 25:1.940446 26:-1.248059 27:-0.939997 28:-0.184950 29:-0.362779 30:0.145566 31:-0.773093 32:0.238975 33:0.019614 34:1.394766 35:1.907381
-1 1:-0.697179 2:-1.348139 3:-0.820275 4:0.233591 5:-0.011774 6:-0.559484 7:-0.835933 8:1.587811 9:0.482182 10:1.219602 11:-1.130557 12:-1.151267 13:-1.359391 14:-0.177536 15:0.017873 16:-0.468136 17:1.413336 18:1.828091 19:-0.381027 20:1.429985 21:1.871742 22:0.510399 23:-1.308808 24:1.039732 25:-0.608849 26:0.241859 27:0.755503 28:-0.251028 29:0.407838 30:0.273191 31:1.703750 32:0.548132 33:-0.114073 34:-0.446149 35:0.554378
-1 1:-0.034918 2:0.230069 3:0.497850 4:-0.036716 5:1.236511 6:0.817115 7:0.517834 8:-0.093077 9:-1.517936 10:0.270241 11:0.437517 12:0.006110 13:0.479370 14:0.202287 15:-0.359528 16:0.092788 17:-1.323359 18:-0.203570 19:-0.403213 20:-1.756180 21:0.772669 22:0.380609 23:0.407475 24:0.858732 25:-0.262311 26:-2.384221 27:-0.410326 28:-0.982887 29:0.840965 30:0.095145 31:-0.327586 32:0.815577 33:1.460352 34:-0.978980 35:-0.339867
-1 1:-0.316257 2:0.452045 3:-1.479539 4:1.087987 5:-0.583721 6:0.572204 7:-0.133573 8:0.105309 9:-0.377406 10:-0.808984 11:2.147454 12:0.501049 13:-1.622492 14:0.248243 15:-2.071284 16:1.922170 17:2.159125 18:-1.509553 19:-0.283687 20:0.706948 21:-0.148365 22:1.429640 23:-1.131024 24:0.734173 25:-0.273100 26:0.206078 27:-0.576970 28:0.320327 29:-1.248263 30:0.105286 31:0.059727 32:-0.153078 33:-0.028532 34:1.218372 35:0.886762
-1 1:-1.098288 2:-1.825506 3:-0.331427 4:1.381749 5:0.568566 6:1.345189 7:0.160702 8:-0.736709 9:-0.928689 10:-0.910437 11:1.359521 12:0.682031 13:0.751014 14:0.884429 15:-0.840905 16:0.760745 17:-0.395839 18:0.718491 19:1.206680 20:-0.337009 21:0.824950 22:-1.689190 23:-0.556501 24:0.134813 25:-0.101476 26:-0.157004 27:-0.086022 28:0.068470 29:-0.046147 30:-1.070740 31:0.272000 32:-1.651989 33:0.612889 34:0.294655 35:0.309595
-1 1:0.219452 2:-0.897213 3:1.852948 4:-0.189515 5:-0.962861 6:-1.171253 7:-3.007076 8:-1.029318 9:-0.669718 10:0.885802 11:1.288791 12:1.690177 13:1.032448 14:-1.225250 15:-2.487495 16:-0.686745 17:-0.753612 18:0.761171 19:-0.498450 20:-1.555268 21:0.229581 22:-0.308889 23:0.471755 24:1.281252 25:-1.432264 26:-0.471905 27:0.312443 28:0.162189 29:-0.149062 30:0.498751 31:-1.770856 32:0.803648 33:0.258741 34:1.487059 35:0.679418
-1 1:-0.209773 2:0.164595 3:-0.945862 4:1.182421 5:-0.326434 6:-0.460051 7:0.070344 8:0.949111 9:-0.060370 10:-0.327799 11:-1.758282 12:0.985103 13:-0.448065 14:-0.682486 15:0.664953 16:0.004750 17:-0.718235 18:0.288651 19:0.925470 20:-0.983203 21:1.075012 22:0.444138 23:-1.445145 24:-0.722324 25:0.278295 26:-0.904312 27:0.127871 28:0.101279 29:1.638728 30:0.063301 31:1.018246 32:1.181975 33:1.485091 34:0.885918 35:-1.639701
-1 1:0.758903 2:-0.694161 3:-0.167508 4:1.020300 5:1.193223 6:-1.090625 7:0.339253 8:1.182369 9:1.246843 10:-0.010195 11:-1.664892 12:1.309694 13:0.884526 14:0.138140 15:-0.040413 16:0.466970 17:-0.337267 18:-0.489878 19:-0.474979 20:1.264611 21:1.036671 22:0.305873 23:0.813214 24:0.806593 25:2.179952 26:-0.900125 27:-1.228332 28:-0.137341 29:-1.047230 30:-0.066601 31:-0.827889 32:-1.460672 33:0.317474 34:-0.710783 35:-1.098085
-1 1:1.642453 2:1.596825 3:-1.237092 4:0.087988 5:-0.760193 6:0.012225 7:1.398756 8:0.483346 9:-0.301025 10:-0.700329 11:0.111824 12:0.638724 13:1.048018 14:-1.045344 15:-1.259836 16:0.973066 17:-0.106329 18:-0.387386 19:-0.357231 20:0.797658 21:-0.537019 22:0.369051 23:0.071003 24:0.092320 25:-0.968774 26:-0.692830 27:0.298253 28:-0.654580 29:0.537818 30:0.320835 31:-1.970469 32:0.012807 33:1.775145 34:0.044811 35:-1.589808
-1 1:0.157977 2:0.255315 3:-1.446853 4:-0.207756 5:-0.501411 6:0.708378 7:-0.134851 8:0.830014 9:-0.605163 10:0.066223 11:0.203130 12:-0.078018 13:0.930724 14:-2.857861 15:-0.482453 16:0.844969 17:1.090589 18:-0.818228 19:1.047266 20:0.522864 21:0.196576 22:-0.245906 23:-1.152170 24:1.080982 25:0.286860 26:0.352933 27:1.033924 28:0.837660 29:-0.123686 30:-0.163621 31:0.641654 32:0.171735 33:-0.276578 34:-0.887793 35:-0.240211
-1 1:1.189515 2:-0.858665 3:1.389991 4:1.249413 5:-1.068995 6:-0.474578 7:-1.020450 8:-0.858730 9:0.468545 10:0.014958 11:0.881998 12:-1.395308 13:0.784521 14:-1.407623 15:-0.221808 16:0.562976 17:-0.042697 18:-0.480162 19:-1.751658 20:0.404557 21:1.122332 22:-0.997772 23:-1.562578 24:-0.877585 25:1.526561 26:-0.162071 27:1.275713 28:-2.015936 29:0.303181 30:0.583399 31:-0.319427 32:1.819038 33:-0.937824 34:-0.782854 35:1.350321
-1 1:-0.101630 2:0.786967 3:-0.856017 4:-0.599027 5:0.408062 6:-1.125111 7:1.952369 8:1.116873 9:0.956301 10:-0.154220 11:-1.176906 12:0.002452 13:0.764753 14:0.058148 15:0.233558 16:-0.305625 17:-1.091247 18:0.610431 19:0.118581 20:-1.012937 21:0.486036 22:0.609972 23:-0.900410 24:-0.044542 25:1.354962 26:-0.964354 27:2.222677 28:-0.120213 29:0.905248 30:1.315236 31:0.418763 32:0.845704 33:2.741102 34:-0.418781 35:-1.139939
-1 1:0.178384 2:-1.484041 3:0.248899 4:-0.065201 5:1.017984 6:0.381747 7:0.164982 8:-0.935403 9:1.741270 10:0.072792 11:0.381067 12:0.429874 13:0.211670 14:1.059892 15:0.244157 16:-1.342221 17:0.735641 18:-0.604069 19:-0.066540 20:-0.231876 21:-0.832000 22:-0.789923 23:2.333705 24:0.124845 25:-0.962156 26:1.529523 27:-0.028061 28:-0.967272 29:-1.788071 30:0.399322 31:1.106763 32:0.607276 33:0.533329 34:0.020271 35:0.898127
-1 1:1.047071 2:1.333300 3:-0.681570 4:1.306948 5:0.660179 6:0.020193 7:-0.107287 8:0.686156 9:-1.330357 10:1.445541 11:-0.084054 12:-1.155939 13:0.417620 14:0.163058 15:-2.781059 16:0.400353 17:1.272139 18:1.178873 19:-0.853228 20:1.229391 21:-0.993520 22:0.189870 23:-0.766835 24:-1.006173 25:0.703450 26:-1.810939 27:0.303264 28:0.842909 29:0.726722 30:-0.121093 31:-0.336531 32:0.862687 33:-0.373109 34:0.058464 35:0.695994
-1 1:0.125153 2:-0.141214 3:-1.045955 4:-0.962632 5:0.756180 6:0.229644 7:-0.167513 8:0.870367 9:1.635317 10:1.187616 11:1.299795 12:-1.190694 13:1.096323 14:-1.261377 15:-0.842147 16:-0.538208 17:-0.823572 18:1.042098 19:-0.107368 20:-2.223142 21:-1.655667 22:-0.725483 23:-0.255643 24:-1.914300 25:-0.632181 26:-0.296228 27:-0.335972 28:-0.222743 29:-0.673485 30:0.759044 31:-0.021483 32:-1.370488 33:-1.120219 34:-1.495541 35:-0.223847
-1 1:-0.975675 2:-2.578024 3:1.244678 4:0.359555 5:1.006843 6:-0.851617 7:-0.678244 8:1.261784 9:0.656679 10:0.917895 11:0.367541 12:0.449788 13:0.195694 14:0.616918 15:0.315420 16:0.839483 17:0.733628 18:0.499457 19:2.430678 20:-0.677917 21:0.493019 22:-2.198647 23:-0.315525 24:-0.058674 25:-0.893547 26:0.453506 27:-0.010188 28:1.381054 29:-0.392763 30:2.206679 31:0.823288 32:0.801010 33:-0.085596 34:0.449427 35:0.746489
-1 1:1.071537 2:-0.899832 3:-0.722641 4:-0.572308 5:0.990178 6:-1.066627 7:-0.853776 8:-0.092394 9:0.642322 10:0.465469 11:0.564761 12:0.005329 13:-0.252724 14:0.833795 15:0.571255 16:-0.102396 17:-0.672357 18:0.242649 19:-1.001933 20:2.111611 21:0.259108 22:-1.995049 23:0.870408 24:-0.608092 25:-0.490535 26:1.209725 27:-0.048156 28:1.476013 29:-2.639043 30:0.328643 31:0.941809 32:0.391187 33:1.123137 34:0.332047 35:0.085667
-1 1:0.891129 2:-1.243425 3:0.438403 4:-0.533562 5:0.603989 6:-0.549644 7:0.277956 8:1.643936 9:1.616594 10:0.567671 11:-0.283108 12:0.277360 13:-0.021402 14:-0.106083 15:0.130281 16:-0.123027 17:-1.486424 18:0.543142 19:-1.000888 20:1.083497 21:0.974656 22:0.355322 23:0.599159 24:0.445441 25:0.162190 26:1.219722 27:-1.288824 28:0.089755 29:-0.914547 30:-0.395033 31:1.551023 32:1.174904 33:-1.255841 34:-0.120590 35:0.580630
-1 1:-0.278668 2:1.431535 3:0.133401 4:-0.323274 5:0.350712 6:0.059983 7:-1.880713 8:0.338991 9:-0.266985 10:0.822929 11:0.817179 12:0.237096 13:-1.100575 14:-0.373829 15:-1.141485 16:-2.303439 17:-0.132073 18:-1.790284 19:0.186383 20:0.515430 21:0.210933 22:0.475485 23:0.182224 24:0.673484 25:-0.257453 26:1.610927 27:0.319642 28:0.673344 29:-0.021778 30:-0.505866 31:-1.261058 32:0.484618 33:1.040071 34:1.188140 35:-0.794115
-1 1:0.166670 2:0.000424 3:-0.099275 4:0.539357 5:0.564330 6:0.319996 7:0.652878 8:-0.192156 9:1.473654 10:-0.743503 11:0.094625 12:0.150776 13:-0.592814 14:0.673829 15:1.183114 16:0.553708 17:-1.235933 18:0.019031 19:-1.268978 20:-1.128617 21:0.534476 22:-0.761849 23:0.508833 24:0.703037 25:0.212582 26:1.253746 27:-1.006289 28:-1.152965 29:1.605003 30:0.227751 31:0.890209 32:-1.273466 33:-0.265856 34:0.708559 35:-0.716452
-1 1:-0.422103 2:-1.307274 3:-0.780967 4:-0.715605 5:0.611154 6:1.501817 7:-0.155347 8:-1.130332 9:0.011622 10:-0.231361 11:-0.014695 12:0.651409 13:-0.135783 14:-0.141155 15:-1.823526 16:-1.040901 17:0.651999 18:0.008780 19:0.243964 20:1.230290 21:-1.160041 22:-0.836665 23:0.598429 24:1.766922 25:-1.082303 26:-0.011719 27:0.186800 28:0.295948 29:-2.702442 30:-0.397219 31:-0.230430 32:-0.900562 33:-0.522134 34:1.686159 35:0.774085
-1 1:0.027017 2:-0.214712 3:0.645480 4:1.627127 5:0.106471 6:-0.688436 7:1.411840 8:-2.860729 9:-1.341226 10:0.190280 11:0.547631 12:0.518523 13:-0.313152 14:-0.565064 15:0.501653 16:-0.205652 17:-0.528762 18:0.021063 19:-1.679119 20:-1.037414 21:-1.464828 22:-1.032827 23:0.608293 24:0.723527 25:0.290616 26:-0.283791 27:0.490468 28:1.122215 29:1.402317 30:0.651519 31:-1.166798 32:1.159387 33:0.195962 34:0.766061 35:-0.502511
-1 1:0.034370 2:0.395331 3:1.311147 4:-0.579732 5:-0.178459 6:0.760957 7:0.963065 8:1.310546 9:1.348221 10:0.378327 11:-0.002430 12:1.494378 13:0.224288 14:0.468064 15:1.459359 16:1.789029 17:1.360763 18:0.098162 19:-0.813035 20:-1.001823 21:-0.086286 22:-0.167249 23:-0.871413 24:-0.618899 25:-0.284741 26:0.949137 27:-0.129404 28:-2.311747 29:-2.263045 30:-0.274575 31:-0.023859 32:0.070165 33:2.073724 34:0.062040 35:0.105059
-1 1:0.994634 2:0.327398 3:-1.254698 4:-1.266422 5:0.526269 6:-1.331465 7:0.622492 8:-0.454251 9:-0.396883 10:-0.798607 11:-0.390666 12:-1.399335 13:1.170254 14:-1.179295 15:2.035844 16:0.968528 17:-1.450062 18:0.568653 19:-1.019563 20:-0.019413 21:-1.122397 22:0.557225 23:1.474661 24:-0.281451 25:0.039079 26:0.177657 27:0.985958 28:0.202981 29:-1.364766 30:-0.979075 31:-0.004446 32:-0.465156 33:1.757599 34:1.466026 35:-1.070734
-1 1:-0.158087 2:0.511180 3:-0.505986 4:-0.993570 5:-1.055193 6:-1.357550 7:0.052357 8:-0.551347 9:0.941566 10:0.796887 11:1.288294 12:-1.209965 13:-0.769119 14:0.453523 15:-0.168356 16:0.530860 17:-0.107278 18:1.004182 19:2.539030 20:0.650678 21:-0.267644 22:1.184408 23:0.198316 24:-1.071837 25:0.327901 26:0.506079 27:0.272791 28:-0.495706 29:-1.345393 30:-0.586183 31:0.769684 32:0.300210 33:1.289839 34:1.406986 35:-1.422058
-1 1:-1.136828 2:0.110517 3:0.518699 4:-0.048601 5:-0.618226 6:-0.746037 7:0.660927 8:-1.967247 9:0.146774 10:-1.099021 11:-0.578162 12:-1.018018 13:-0.363332 14:-1.260846 15:-0.258295 16:0.751952 17:1.892674 18:-0.279724 19:-0.270912 20:-0.790319 21:2.211589 22:1.193732 23:-0.857869 24:0.460158 25:1.796117 26:-0.854442 27:0.188113 28:0.520489 29:0.467087 30:0.125329 31:1.179418 32:0.114461 33:1.960118 34:-2.029670 35:0.865663
-1 1:-0.133130 2:-1.403437 3:0.172981 4:0.529849 5:0.888117 6:0.230925 7:1.291750 8:0.918617 9:0.366811 10:-0.251846 11:0.140229 12:-1.931789 13:-0.109227 14:0.806273 15:-0.401589 16:0.167383 17:1.680870 18:2.608172 19:-0.620181 20:-0.930038 21:-0.409998 22:-0.823808 23:-1.787082 24:-0.225439 25:-0.393530 26:-1.004055 27:-0.998263 28:1.013361 29:1.200873 30:1.775365 31:0.997867 32:0.077156 33:0.126644 34:-1.828883 35:-0.583946
-1 1:-0.683926 2:-0.060464 3:0.695009 4:0.574186 5:-0.166317 6:-1.156711 7:0.317179 8:-0.173718 9:0.175193 10:0.902831 11:-0.664371 12:0.453281 13:0.204865 14:-0.313328 15:-0.292534 16:0.354637 17:0.289953 18:1.176931 19:-0.069201 20:-0.909640 21:-1.219683 22:-0.237195 23:0.137922 24:1.259381 25:-0.072825 26:-0.505652 27:-0.492328 28:-0.813115 29:0.380044 30:0.099219 31:1.745395 32:-0.480870 33:0.950891 34:0.458440 35:-0.767056
-1 1:0.534001 2:0.279972 3:-0.005696 4:-1.308124 5:0.169477 6:-1.036628 7:-0.947341 8:0.136535 9:0.960308 10:-1.588486 11:0.244061 12:-0.768671 13:-1.837008 14:-0.011517 15:0.193317 16:0.636657 17:-0.643930 18:-0.223202 19:-0.895232 20:-0.321110 21:-0.219199 22:-0.353856 23:2.429687 24:-0.138343 25:0.556235 26:0.161643 27:0.226398 28:1.129993 29:0.650586 30:0.510238 31:-1.005856 32:1.681491 33:0.698616 34:1.738255 35:-0.639415
-1 1:-0.017204 2:1.715205 3:1.255369 4:0.028828 5:-0.014066 6:1.436470 7:-0.726680 8:-0.302765 9:1.018807 10:1.608000 11:2.816591 12:-2.191710 13:-0.608001 14:-0.611383 15:1.102424 16:-1.221384 17:-0.038339 18:1.412338 19:-0.117003 20:-0.324570 21:0.667420 22:-0.891749 23:1.955926 24:0.765059 25:-0.220231 26:-0.458588 27:1.461191 28:-1.788514 29:0.716594 30:-1.943889 31:0.490599 32:-0.017267 33:0.140885 34:1.344807 35:-1.202741
-1 1:0.323826 2:0.552970 3:-0.692419 4:0.692217 5:0.313927 6:-2.007259 7:0.874411 8:-1.831409 9:-1.995307 10:-1.567271 11:0.814436 12:-1.003193 13:-0.480969 14:-1.064238 15:-1.165218 16:0.629014 17:0.660320 18:0.320345 19:0.438615 20:-0.658175 21:-2.537581 22:-0.093316 23:-0.125878 24:-0.479046 25:-0.534589 26:-0.191133 27:-1.455792 28:0.340431 29:-0.801148 30:-0.116440 31:-1.477755 32:-0.346576 33:0.970075 34:0.569869 35:0.684077
-1 1:1.046852 2:1.077281 3:1.969073 4:-0.855866 5:-1.787211 6:-2.080529 7:0.552464 8:-0.911695 9:1.544948 10:-1.065229 11:1.995522 12:-0.294894 13:0.055181 14:-0.023631 15:1.489031 16:0.745648 17:-0.146477 18:-0.300885 19:0.496464 20:1.799903 21:-0.973956 22:-0.741803 23:0.187568 24:1.497424 25:-0.257951 26:-1.666915 27:0.504201 28:-2.870910 29:-1.403953 30:-0.822660 31:0.202536 32:2.020653 33:-1.265181 34:0.059411 35:-0.976700
-1 1:0.239585 2:-1.250490 3:0.387634 4:-1.371599 5:-0.253551 6:-0.953998 7:-0.668331 8:0.168969 9:-0.678866 10:1.030262 11:-0.226430 12:-0.171875 13:0.506245 14:0.845203 15:-1.471870 16:0.559454 17:1.055476 18:0.334909 19:0.291572 20:0.557437 21:0.188632 22:1.056537 23:0.105872 24:0.168852 25:0.880179 26:-0.783952 27:0.412408 28:-0.400530 29:-0.590001 30:1.218870 31:-0.810579 32:1.116106 33:-0.565359 34:-0.277630 35:0.826346
-1 1:0.653126 2:-0.146144 3:0.160345 4:-0.773886 5:0.523320 6:-1.828001 7:0.763260 8:0.469757 9:-1.054560 10:0.237473 11:-0.386169 12:-0.525415 13:1.447171 14:-1.308676 15:1.355518 16:0.053848 17:-0.909588 18:-0.806870 19:-0.187070 20:-0.210075 21:1.622653 22:1.758434 23:0.195251 24:0.589481 25:0.071799 26:-1.333488 27:0.557895 28:-0.918728 29:1.215714 30:2.941963 31:-1.523906 32:1.051689 33:-0.349449 34:0.655984 35:0.450463
-1 1:-1.396458 2:-1.963723 3:0.203777 4:0.806301 5:1.595996 6:0.467020 7:-0.614034 8:0.280525 9:-0.893907 10:-0.382579 11:0.637169 12:0.461932 13:-1.219105 14:0.191970 15:0.393729 16:0.390157 17:0.802650 18:0.055517 19:-0.098226 20:1.668405 21:-2.255482 22:1.009403 23:0.355088 24:-0.420701 25:0.846780 26:-1.924270 27:-0.016186 28:-0.288766 29:-1.238586 30:0.605335 31:1.175068 32:0.681667 33:0.141980 34:0.304138 35:0.231236
-1 1:-0.817665 2:-2.581355 3:-0.552297 4:-1.044253 5:0.378210 6:0.022157 7:1.220036 8:0.449202 9:-0.277253 10:1.142491 11:1.049365 12:-0.626781 13:0.569389 14:-0.522902 15:-0.817069 16:0.128845 17:0.612370 18:-1.412276 19:1.700119 20:-0.008173 21:-1.018019 22:1.007410 23:-0.716749 24:-0.105228 25:-0.302799 26:0.205547 27:-1.017258 28:0.005705 29:-0.078587 30:-1.280945 31:0.397683 32:-1.259111 33:-1.154289 34:-0.485303 35:0.569241
-1 1:-0.991660 2:1.386431 3:1.520356 4:0.659122 5:-0.549331 6:1.762250 7:-0.167593 8:1.614007 9:-0.114323 10:-0.500173 11:1.839169 12:0.360889 13:-0.393318 14:-0.972557 15:1.087816 16:-1.019032 17:-0.200970 18:0.421936 19:0.391621 20:-0.136104 21:-0.352101 22:-0.882648 23:-1.449926 24:1.211618 25:-1.354316 26:-1.416862 27:2.484670 28:0.370931 29:0.057388 30:0.868167 31:-1.943469 32:-0.116120 33:1.411504 34:1.403137 35:1.767040
-1 1:0.675099 2:-0.504882 3:-0.646269 4:0.008340 5:1.151307 6:0.051387 7:1.093460 8:1.128930 9:0.224408 10:-1.264679 11:-0.487504 12:0.187486 13:0.164480 14:0.448177 15:-0.798228 16:0.968973 17:1.980540 18:0.000832 19:-0.379255 20:0.340124 21:1.427988 22:0.272047 23:0.286993 24:1.168677 25:0.570818 26:-1.334958 27:0.532071 28:0.337040 29:1.705545 30:0.937442 31:-1.126652 32:0.883848 33:0.783578 34:-1.485774 35:0.456545
-1 1:-0.168265 2:-1.282885 3:0.688233 4:0.378656 5:0.955728 6:0.019675 7:0.726005 8:1.201146 9:-0.061303 10:1.774921 11:-0.696242 12:1.109355 13:0.810496 14:-1.057291 15:-0.849729 16:-0.136164 17:0.130427 18:-1.445320 19:-1.264861 20:-0.584241 21:0.551570 22:0.040051 23:0.024702 24:-0.463278 25:0.636673 26:0.860471 27:0.813350 28:0.189537 29:0.927933 30:0.337358 31:1.524358 32:0.524133 33:-0.128028 34:-0.276372 35:-0.378828
-1 1:-0.011834 2:-0.546795 3:1.228909 4:-0.835481 5:0.046554 6:-0.225468 7:0.181055 8:1.238927 9:-0.477304 10:-0.713295 11:-0.930321 12:-0.439228 13:-1.014112 14:0.182274 15:0.709811 16:0.783302 17:1.356520 18:-0.716027 19:-0.343115 20:1.783894 21:-0.655859 22:-0.532608 23:-1.288062 24:1.609988 25:-0.524174 26:2.147107 27:0.783108 28:-0.101123 29:1.430092 30:-1.566494 31:-0.042912 32:-1.272613 33:-1.191730 34:-0.329467 35:-0.209043
-1 1:0.704725 2:-0.224672 3:-0.480121 4:-1.290918 5:-0.491958 6:1.171639 7:1.330742 8:-0.785428 9:0.258316 10:-0.204191 11:1.615932 12:-0.522532 13:-1.673230 14:-1.794846 15:0.822892 16:0.905970 17:1.612773 18:0.288612 19:0.694384 20:0.903978 21:-1.737382 22:0.081272 23:0.984256 24:-1.484548 25:2.194574 26:-1.218829 27:0.779621 28:-0.360925 29:-1.282438 30:0.949601 31:1.188756 32:0.412359 33:0.329323 34:0.740561 35:0.876526
-1 1:0.784399 2:-0.342573 3:0.339613 4:0.403913 5:0.699525 6:0.210399 7:0.116224 8:-0.122626 9:-0.488047 10:0.652984 11:0.413620 12:1.609499 13:0.867016 14:0.141541 15:0.243614 16:0.448240 17:0.258550 18:-0.348313 19:-0.913049 20:-0.775709 21:-0.204502 22:-1.397548 23:1.397647 24:0.629304 25:0.044685 26:0.551348 27:0.405741 28:0.582000 29:-0.588321 30:0.813283 31:-0.024890 32:-0.179630 33:-0.070240 34:0.435398 35:0.316026
-1 1:-0.777559 2:-0.104990 3:-0.268360 4:-0.432248 5:0.722634 6:0.705038 7:1.191605 8:0.251631 9:-0.055574 10:0.635609 11:1.241266 12:-0.537074 13:1.312304 14:-0.414728 15:-0.482791 16:0.087974 17:-1.218295 18:-1.611839 19:1.320042 20:-0.791512 21:0.160428 22:-1.250071 23:0.241311 24:1.400262 25:-0.592705 26:-0.366139 27:-1.195089 28:0.175834 29:-1.007071 30:1.032920 31:1.234152 32:-0.609706 33:-0.653303 34:-0.428496 35:0.478499
-1 1:0.329023 2:0.031055 3:-0.567078 4:-0.110025 5:-0.853495 6:2.953969 7:0.503088 8:-0.042279 9:0.044451 10:-0.663851 11:-0.540196 12:-1.584812 13:0.534252 14:0.393906 15:-0.018953 16:0.177540 17:-0.903239 18:1.322824 19:0.316092 20:2.498626 21:-1.284540 22:-0.592356 23:-0.213322 24:-1.820630 25:-1.606737 26:-0.592241 27:0.745140 28:3.081506 29:1.968530 30:-0.507656 31:0.193608 32:1.503534 33:-0.776862 34:-0.174738 35:0.223552
-1 1:-0.800563 2:-0.127814 3:-0.130523 4:-0.065759 5:1.295761 6:0.616811 7:-0.882083 8:0.716999 9:0.070004 10:-0.478548 11:-0.281134 12:-0.846169 13:-0.610094 14:-0.845591 15:0.332720 16:-0.821757 17:-0.441599 18:-0.203958 19:0.646024 20:0.235801 21:3.827329 22:-1.067190 23:0.363897 24:0.605058 25:1.170976 26:-1.437846 27:-1.063766 28:-0.150932 29:-0.608636 30:-0.638410 31:-1.226128 32:-0.171585 33:-0.122041 34:-0.058577 35:0.250164
-1 1:1.284371 2:-1.548750 3:0.192198 4:-0.011698 5:-0.144127 6:-0.479457 7:-0.427715 8:0.341787 9:1.186976 10:0.695211 11:-0.901031 12:0.824320 13:0.080854 14:0.385470 15:0.574899 16:0.226853 17:-0.112576 18:0.003066 19:0.214871 20:1.353687 21:1.673696 22:-1.372203 23:1.686902 24:-1.669277 25:-0.211704 26:0.935930 27:-1.780097 28:0.916359 29:-0.383503 30:-1.049879 31:-0.251083 32:-0.135607 33:0.440689 34:2.414034 35:0.264320
-1 1:-0.074021 2:1.267383 3:-0.608302 4:0.850974 5:-1.843864 6:0.154811 7:-0.159192 8:-0.445833 9:-0.131477 10:0.363457 11:1.933996 12:-1.110094 13:-0.044561 14:-0.631723 15:-1.931924 16:-0.558126 17:1.358316 18:-1.310867 19:-0.331941 20:-0.178165 21:0.529899 22:-0.429945 23:0.177779 24:-0.151962 25:-1.114033 26:-0.886632 27:0.270200 28:-0.174577 29:0.105260 30:1.652745 31:-1.345070 32:-0.577079 33:1.446157 34:0.578870 35:1.040261
-1 1:-0.897759 2:-0.266606 3:0.767564 4:1.242778 5:-0.673713 6:0.231749 7:-0.561812 8:-0.060232 9:1.313743 10:0.039012 11:-1.194624 12:0.204201 13:2.156327 14:-0.150730 15:0.273425 16:0.660787 17:-1.483700 18:-0.095262 19:1.434013 20:-0.329429 21:0.617938 22:0.399122 23:2.634099 24:0.510773 25:1.174216 26:-0.646666 27:0.943296 28:-0.027367 29:1.783351 30:-0.879871 31:1.613906 32:1.106164 33:-0.934885 34:-1.340219 35:0.845275
-1 1:-0.809881 2:-0.364824 3:0.207757 4:0.271094 5:1.791236 6:-0.006754 7:-2.003084 8:-0.186415 9:-0.060791 10:0.870327 11:-0.776094 12:-0.213041 13:1.700077 14:-0.195090 15:-0.253429 16:0.472889 17:-0.488392 18:0.008783 19:-0.363573 20:-0.969002 21:1.328689 22:0.351700 23:0.366107 24:0.080099 25:0.984552 26:0.758722 27:0.690574 28:-0.029852 29:-1.064935 30:-1.105395 31:-0.657188 32:0.928174 33:-0.920281 34:0.187484 35:0.017131
-1 1:-0.628178 2:0.834432 3:1.512905 4:1.603041 5:-0.099110 6:-0.240615 7:-0.864842 8:-0.534966 9:0.640899 10:-0.787136 11:0.096578 12:-0.006701 13:-0.375231 14:-1.237418 15:-1.287981 16:-0.791207 17:0.494708 18:-0.045770 19:-1.289484 20:0.990933 21:-0.672386 22:-1.417419 23:-0.886608 24:-0.670300 25:0.280304 26:0.406016 27:-0.120797 28:-0.028923 29:2.328515 30:-0.635567 31:0.625684 32:-1.798990 33:-0.072479 34:0.450668 35:0.760368
-1 1:0.310005 2:-0.649877 3:-0.663360 4:-1.124444 5:0.514235 6:0.048459 7:-0.023210 8:-1.175015 9:-0.509217 10:-0.916740 11:-1.568521 12:-0.419018 13:-1.106092 14:1.999636 15:2.095334 16:-0.898745 17:-0.041233 18:-0.392931 19:1.771411 20:-1.422833 21:-0.229929 22:0.288253 23:0.019040 24:-0.724355 25:-1.056536 26:0.520874 27:-0.018554 28:-1.732281 29:0.166932 30:1.103199 31:-0.178665 32:0.253465 33:-1.219665 34:0.418931 35:-0.169752
-1 1:-1.699378 2:-1.454941 3:-0.800222 4:-0.334998 5:0.870249 6:-0.404840 7:-1.457618 8:1.440659 9:0.054840 10:1.006666 11:-1.217569 12:-0.332974 13:-0.058027 14:-0.222105 15:-0.083913 16:-0.315951 17:-1.065869 18:-0.813950 19:0.480313 20:1.361856 21:0.202962 22:-0.225192 23:-0.207431 24:0.692826 25:0.015339 26:-1.337759 27:0.208196 28:0.485198 29:1.466049 30:-0.401957 31:0.677936 32:0.314919 33:-0.970795 34:1.372235 35:1.076633
-1 1:-2.100022 2:-0.410426 3:0.187009 4:-0.007983 5:-0.188458 6:0.142207 7:0.476981 8:-1.672155 9:-0.268278 10:-0.919549 11:-1.549490 12:-0.197747 13:-0.064528 14:0.040479 15:-0.159062 16:-1.084367 17:-0.238509 18:-0.060203 19:0.889379 20:0.335194 21:0.051898 22:-0.525255 23:1.359436 24:-0.789101 25:-0.963584 26:0.549140 27:1.925230 28:-2.049399 29:-0.118893 30:0.016958 31:0.105614 32:-1.049307 33:-0.168342 34:-1.492432 35:-0.821151
-1 1:0.352990 2:-0.029474 3:-0.428855 4:-0.230131 5:0.348471 6:-0.451522 7:-0.922705 8:0.187904 9:-0.318018 10:1.088798 11:-1.474700 12:0.284890 13:-0.502579 14:0.416025 15:1.168861 16:-1.184905 17:-0.233786 18:-0.101337 19:-0.677331 20:-0.579847 21:-0.475195 22:0.121250 23:0.507697 24:-0.729817 25:-1.141670 26:-1.187987 27:0.652226 28:-0.678682 29:0.294138 30:-1.028380 31:-1.472608 32:0.339382 33:0.776144 34:0.569436 35:2.382480
-1 1:-0.747858 2:-0.375973 3:-1.912013 4:1.304462 5:0.206030 6:-0.918044 7:0.801246 8:-0.382714 9:0.544808 10:-0.424932 11:0.590743 12:1.383231 13:0.131217 14:-0.478734 15:1.318007 16:-1.102546 17:1.794798 18:0.461109 19:0.490329 20:1.849365 21:-1.798192 22:-0.852686 23:1.590822 24:1.889057 25:2.049244 26:-0.325204 27:0.126662 28:0.240769 29:-1.486688 30:0.968712 31:0.902744 32:-0.032415 33:0.010330 34:-0.614903 35:-0.375116
-1 1:-0.797468 2:-0.036315 3:-0.529752 4:0.362056 5:0.488513 6:1.842604 7:1.741316 8:-2.273004 9:0.057698 10:0.445154 11:1.386936 12:0.198169 13:0.156169 14:1.089390 15:1.792586 16:0.611409 17:-1.342636 18:0.013837 19:-0.530420 20:1.375306 21:0.372177 22:0.146148 23:-2.181325 24:0.237166 25:2.342959 26:1.594459 27:-1.511630 28:0.268605 29:-0.004413 30:0.860920 31:0.606041 32:0.932465 33:-0.466032 34:1.337246 35:-1.179310
-1 1:0.398531 2:0.418069 3:0.642641 4:0.173337 5:-0.159988 6:0.980575 7:0.166923 8:-0.290694 9:0.642343 10:-1.091044 11:0.635229 12:-0.229010 13:0.530999 14:2.194066 15:0.828503 16:1.630185 17:0.099900 18:1.411835 19:1.725975 20:-0.105335 21:0.560308 22:-1.412712 23:-0.053746 24:-0.149103 25:-0.302319 26:-0.170312 27:0.421035 28:-0.067635 29:0.205886 30:-0.367878 31:0.963500 32:-0.674077 33:-1.059740 34:-1.918052 35:-1.260636
-1 1:-1.363960 2:1.568915 3:1.113805 4:0.387709 5:-1.868899 6:1.461901 7:0.625719 8:0.065199 9:-0.662161 10:1.230373 11:0.415912 12:0.532355 13:-0.443260 14:-0.187514 15:0.449279 16:-0.569147 17:1.117428 18:0.333515 19:0.876540 20:1.293901 21:-1.501718 22:-1.568075 23:-0.875906 24:0.701674 25:-0.456578 26:1.102530 27:1.324937 28:1.231283 29:-1.794318 30:0.206685 31:-0.522649 32:0.591954 33:-0.527707 34:0.287960 35:0.240071
-1 1:0.314057 2:0.383698 3:1.247164 4:-0.163054 5:-0.114362 6:0.035093 7:0.173271 8:1.800485 9:-0.116262 10:-0.272196 11:1.179183 12:0.009500 13:0.196680 14:-0.809816 15:-0.566240 16:0.741458 17:0.052746 18:1.251433 19:-0.869879 20:-0.483648 21:-0.542480 22:-0.091695 23:0.361605 24:1.050505 25:-0.180807 26:1.734780 27:-1.030470 28:-0.457387 29:-2.750747 30:0.370448 31:0.609485 32:-1.043848 33:-0.877798 34:-0.160119 35:0.382228
-1 1:1.140546 2:0.351867 3:-0.541753 4:1.301710 5:-2.510901 6:1.820865 7:0.903801 8:-1.301604 9:-1.544569 10:0.726908 11:-0.160289 12:-0.435725 13:0.216454 14:-0.650273 15:-0.929106 16:-0.215168 17:0.515477 18:-0.846609 19:0.122691 20:-0.747421 21:0.486839 22:-0.024438 23:-0.276734 24:-1.434718 25:-1.335838 26:-0.433900 27:-1.133987 28:-1.112036 29:1.194139 30:-1.902246 31:-1.531715 32:1.892687 33:-2.435268 34:1.249038 35:-0.903467
-1 1:0.955993 2:0.352845 3:-1.216015 4:0.122061 5:-0.668020 6:0.506681 7:1.575893 8:-0.770620 9:0.525761 10:1.709591 11:1.072712 12:-0.617481 13:1.598856 14:-0.791097 15:0.025772 16:-1.656015 17:0.499839 18:1.821928 19:-1.799625 20:-1.077251 21:0.191265 22:0.076064 23:-0.866836 24:1.351502 25:0.348483 26:0.982430 27:-0.711104 28:-1.239896 29:0.529954 30:-0.031678 31:-0.876561 32:0.332505 33:-0.809831 34:-0.056472 35:1.734967
-1 1:0.499915 2:-0.540619 3:0.963363 4:0.429044 5:0.131970 6:-2.336057 7:1.285508 8:0.465198 9:0.251412 10:0.370729 11:0.809859 12:-1.126861 13:-0.566423 14:0.110075 15:-0.970497 16:-0.244216 17:0.496693 18:-0.614877 19:0.154566 20:0.734875 21:-0.545583 22:0.980579 23:0.299496 24:1.732534 25:-0.625515 26:-1.169841 27:0.533279 28:-0.123758 29:-0.300266 30:1.343882 31:0.376852 32:2.648157 33:1.875516 34:1.793804 35:1.327843
-1 1:0.462575 2:0.795039 3:-1.097550 4:-0.952435 5:0.322619 6:2.934596 7:0.073797 8:1.031341 9:0.602974 10:1.509064 11:0.274843 12:0.378597 13:0.033798 14:-1.534360 15:0.197036 16:-0.277579 17:-0.299641 18:-0.725786 19:-0.351842 20:-0.797422 21:-0.946727 22:0.847068 23:1.754229 24:-0.379103 25:0.683803 26:0.815427 27:-0.085822 28:-1.038352 29:0.114336 30:-0.557117 31:0.361488 32:-0.212059 33:-0.537052 34:-0.630659 35:-0.358246
-1 1:-0.209349 2:0.136252 3:0.411226 4:-1.298040 5:0.380249 6:-0.473686 7:-0.989696 8:-0.300735 9:1.288950 10:-0.449884 11:1.794140 12:0.327323 13:0.961655 14:0.621678 15:2.039721 16:-1.723895 17:0.875500 18:0.147645 19:-0.413474 20:1.490451 21:0.544092 22:-0.137527 23:1.929131 24:-0.677675 25:0.147791 26:-1.905691 27:0.276113 28:-0.441295 29:-0.914363 30:0.245105 31:-0.079846 32:0.640155 33:-0.091620 34:0.301450 35:-0.352672
-1 1:-0.600840 2:-0.215290 3:-0.883716 4:-0.389748 5:0.562884 6:-0.841716 7:1.800795 8:0.556469 9:-1.526764 10:-0.069838 11:2.273929 12:-0.742718 13:-0.416859 14:1.214221 15:1.271205 16:-0.184950 17:1.431496 18:0.889460 19:-0.406473 20:-2.298959 21:-0.490543 22:1.499332 23:0.858751 24:-0.093532 25:0.983723 26:-0.034976 27:-1.075455 28:1.158718 29:0.623885 30:-0.303981 31:0.803832 32:-0.120735 33:-0.466659 34:0.133252 35:0.235010
-1 1:0.828219 2:-1.069445 3:0.635933 4:-0.082296 5:-1.000248 6:1.436538 7:-0.943826 8:1.521573 9:1.754677 10:2.144225 11:-1.100609 12:0.581491 13:-0.923312 14:-0.917269 15:-0.409897 16:0.389130 17:-0.071890 18:1.977160 19:-1.927174 20:0.236088 21:1.026766 22:0.750937 23:-0.067824 24:-0.331491 25:-0.178815 26:-0.353279 27:0.332859 28:0.948352 29:2.375744 30:0.395877 31:2.046325 32:1.583509 33:-0.601455 34:1.259567 35:-0.853103
-1 1:-1.661295 2:0.303278 3:-0.425057 4:0.031040 5:-0.983739 6:0.685155 7:0.813060 8:-0.159032 9:1.300880 10:-0.815972 11:-0.703543 12:0.163677 13:1.459671 14:0.074928 15:-1.057923 16:0.151666 17:-1.394966 18:2.498855 19:-0.319617 20:-1.206979 21:-0.566851 22:-1.607479 23:-0.190155 24:-0.125562 25:-0.304245 26:-1.069431 27:0.336369 28:-0.069607 29:1.150187 30:0.805489 31:-0.377594 32:0.534749 33:-0.658861 34:0.128121 35:0.800768
-1 1:-0.142504 2:1.143214 3:0.026253 4:-0.514741 5:0.945067 6:-0.143015 7:0.724682 8:-0.559272 9:-0.553448 10:-0.023475 11:0.156839 12:1.130437 13:-0.045164 14:-0.281984 15:-1.550598 16:-0.745871 17:-1.296149 18:-1.917816 19:0.247193 20:-0.192476 21:-1.348550 22:-0.820277 23:-0.233469 24:-0.524890 25:-1.073016 26:0.032206 27:0.098682 28:0.342663 29:0.826426 30:-0.099790 31:1.118412 32:-0.152585 33:0.812700 34:0.813742 35:1.342357
-1 1:-0.806062 2:-0.649280 3:-1.209609 4:0.451774 5:0.343714 6:-1.190394 7:0.295254 8:0.075578 9:-0.283406 10:-1.139368 11:-0.653968 12:1.503647 13:0.702064 14:-0.958790 15:0.229091 16:0.184756 17:1.476511 18:-0.461953 19:1.340623 20:0.897001 21:-0.510929 22:0.299777 23:1.405655 24:0.118504 25:0.343911 26:-0.949380 27:0.197059 28:0.922335 29:-0.094422 30:1.378554 31:-1.555193 32:0.240607 33:-0.896795 34:1.765611 35:1.365688
-1 1:-0.129450 2:0.672870 3:-2.173863 4:0.872071 5:0.484620 6:-0.524819 7:0.447162 8:0.799557 9:0.388827 10:1.095201 11:0.887897 12:-2.165482 13:-1.086781 14:2.206584 15:-0.352305 16:-1.186946 17:-0.131445 18:-0.961327 19:0.331650 20:-1.494695 21:0.063697 22:-0.749891 23:0.206914 24:-0.492410 25:-0.675591 26:-0.677768 27:0.567559 28:-1.157728 29:-0.560159 30:-0.101311 31:-0.519048 32:1.202475 33:0.501786 34:0.222885 35:1.082258
-1 1:1.140357 2:0.812509 3:-0.516702 4:0.407929 5:0.915144 6:-0.223941 7:0.023840 8:0.947623 9:0.143653 10:-0.039182 11:-0.176448 12:0.866230 13:0.048800 14:-0.449763 15:-2.387386 16:0.624279 17:-1.487085 18:1.279440 19:0.494875 20:-0.690240 21:-0.430605 22:-0.581342 23:0.109230 24:0.791933 25:-0.097164 26:0.982774 27:-0.889999 28:-0.141212 29:0.951858 30:-0.091757 31:0.323959 32:0.280897 33:-0.576842 34:0.111788 35:0.921420
-1 1:-1.406469 2:-1.004963 3:0.526605 4:-1.070695 5:-0.351655 6:0.087846 7:0.650284 8:-0.054471 9:-1.389356 10:-1.573480 11:0.379763 12:0.606903 13:0.248302 14:-1.175560 15:-0.433810 16:-0.473446 17:-2.115245 18:0.856973 19:-0.964015 20:-0.971881 21:0.534140 22:1.621570 23:1.836995 24:0.592358 25:-1.197695 26:0.379597 27:0.716224 28:0.787492 29:0.036492 30:0.530722 31:-1.819128 32:1.497555 33:-1.708591 34:1.812380 35:0.277332
-1 1:-1.027483 2:-1.023512 3:0.430274 4:1.624482 5:0.145763 6:0.210593 7:0.611772 8:-0.824708 9:-0.585431 10:1.038795 11:-2.566942 12:-0.824259 13:0.059698 14:1.051584 15:0.277146 16:0.279643 17:1.065566 18:-0.430244 19:-2.722243 20:-0.115971 21:-0.851268 22:0.269633 23:-1.413588 24:1.736367 25:0.329812 26:0.559234 27:0.250816 28:-0.524631 29:1.032159 30:-0.754655 31:0.382342 32:-1.226628 33:-0.645082 34:-0.181497 35:0.348801
-1 1:-1.157850 2:0.332248 3:0.401340 4:-0.347691 5:0.727704 6:0.035434 7:-1.529647 8:-0.929814 9:-0.527656 10:-1.267619 11:-0.185705 12:-1.981799 13:-0.244858 14:0.236166 15:-0.538310 16:0.393688 17:1.531058 18:1.200779 19:-0.722534 20:-0.399460 21:-1.554964 22:-2.440509 23:-0.719398 24:1.180357 25:-1.462954 26:-0.333939 27:1.055745 28:1.485824 29:1.825022 30:-1.021890 31:-0.275519 32:-0.128074 33:-0.276780 34:0.061491 35:0.648469
-1 1:1.082875 2:-0.613264 3:-1.837338 4:-0.380629 5:-0.330607 6:-0.532779 7:-0.379057 8:-0.016680 9:-0.364830 10:-0.565827 11:0.321436 12:0.587876 13:0.624062 14:1.025790 15:0.694991 16:1.253386 17:0.538034 18:0.614663 19:-1.731179 20:-0.878869 21:-0.723104 22:1.126665 23:-1.040948 24:2.345852 25:-1.946044 26:-0.017439 27:0.445850 28:-0.583363 29:1.381085 30:0.293410 31:-0.312621 32:1.038529 33:0.233649 34:-0.547660 35:-0.992585
-1 1:-1.722004 2:-0.111698 3:-0.001265 4:-1.056911 5:-0.540694 6:-0.791896 7:-1.903149 8:-0.689257 9:1.121517 10:1.138549 11:-0.366106 12:-1.525560 13:1.887459 14:-0.436899 15:0.356239 16:0.768145 17:-0.519194 18:1.183191 19:0.628474 20:0.883245 21:-0.658224 22:1.278280 23:-1.649168 24:1.990627 25:-0.475345 26:-1.196715 27:0.359607 28:-0.603929 29:1.384136 30:-0.125854 31:-0.158585 32:-2.038506 33:0.404610 34:-0.525935 35:-0.357589
-1 1:-1.734009 2:0.584989 3:1.187810 4:-0.304190 5:0.650133 6:-1.468424 7:-0.127151 8:0.170145 9:0.082478 10:-0.382727 11:0.934296 12:-0.001802 13:-1.565341 14:-0.406985 15:-1.372113 16:-1.518909 17:-0.682650 18:0.673740 19:-0.369672 20:0.819604 21:-1.605125 22:-0.911669 23:1.216337 24:-0.228769 25:0.203239 26:1.866119 27:0.160142 28:-0.749711 29:0.288654 30:0.163924 31:0.872451 32:-0.821296 33:-0.568884 34:-0.724566 35:-2.420942
-1 1:-0.168337 2:-1.290706 3:-0.173863 4:-0.240874 5:-0.354349 6:1.471956 7:-0.147943 8:0.013232 9:-0.262808 10:-0.363605 11:0.800028 12:0.849226 13:1.240296 14:-2.212254 15:0.779649 16:-1.195734 17:0.522638 18:-0.101446 19:-2.075732 20:1.067615 21:0.392080 22:0.529823 23:2.976858 24:-0.770050 25:-1.475515 26:-0.553784 27:-1.889736 28:1.053654 29:-0.425685 30:0.826136 31:-0.532922 32:0.327842 33:0.224624 34:-0.274546 35:-1.021412
-1 1:-0.139046 2:0.040920 3:-0.349302 4:-0.600548 5:2.307527 6:1.483454 7:-0.783043 8:-0.912705 9:-0.831711 10:0.769899 11:0.369568 12:-1.604085 13:-0.886321 14:-1.415536 15:-0.832916 16:2.807287 17:0.143923 18:-0.243647 19:-0.936739 20:0.113364 21:0.249199 22:-0.813879 23:1.072068 24:-0.735269 25:0.348988 26:0.771591 27:-0.586860 28:1.040911 29:0.015130 30:0.330457 31:-0.136869 32:-1.730930 33:-0.497472 34:0.968332 35:-0.076368
-1 1:-0.774065 2:0.693550 3:-1.534228 4:-0.423674 5:0.295363 6:-1.264340 7:-0.475751 8:-0.910002 9:-1.667362 10:0.101610 11:-0.181868 12:-1.056971 13:0.833514 14:0.553281 15:0.261465 16:-0.799196 17:-0.826296 18:0.591037 19:-0.726192 20:0.307245 21:-0.036231 22:-0.307811 23:-0.422343 24:-0.827339 25:-0.318718 26:-0.076708 27:-0.407164 28:-0.705354 29:0.006698 30:-0.462628 31:-1.038765 32:0.037729 33:1.108460 34:0.379321 35:-0.857040
-1 1:-0.021836 2:-0.989787 3:-1.574510 4:-0.453602 5:0.494873 6:0.862769 7:-0.123714 8:0.694930 9:-0.968865 10:-0.050979 11:1.784482 12:-0.955055 13:-0.722363 14:-0.501793 15:-0.016173 16:0.167443 17:1.196329 18:-0.311010 19:1.151642 20:0.971108 21:-0.725057 22:0.555075 23:2.257575 24:-0.674023 25:0.836779 26:-0.393651 27:-0.046902 28:-2.668954 29:-1.197282 30:-0.765341 31:1.361861 32:-2.364888 33:-0.167883 34:-0.385650 35:-1.680603
-1 1:0.900061 2:0.321578 3:-0.958072 4:0.439581 5:-0.190367 6:0.065464 7:-1.761054 8:-0.302861 9:0.987069 10:0.055948 11:1.241233 12:1.905829 13:0.330200 14:-1.090206 15:-0.192845 16:-0.057069 17:-0.909347 18:1.296414 19:1.420294 20:-1.484064 21:-1.597656 22:0.799008 23:-0.059350 24:-0.440867 25:-2.155953 26:0.773144 27:0.557303 28:-0.953379 29:-1.520010 30:3.014171 31:1.125199 32:-1.035895 33:0.897299 34:0.082171 35:0.726866
-1 1:-1.246053 2:-0.989263 3:0.304965 4:0.096383 5:-0.841430 6:-0.897688 7:-0.264218 8:0.103570 9:1.450023 10:2.019206 11:0.947696 12:-2.139830 13:0.160285 14:0.319521 15:1.464915 16:-1.612004 17:-0.246633 18:0.548281 19:-0.414248 20:-0.467201 21:-0.207907 22:-0.377310 23:-0.037576 24:-0.137020 25:-0.048162 26:1.895097 27:0.117343 28:-0.013570 29:1.533146 30:-1.821786 31:-0.409391 32:1.488728 33:-0.027392 34:0.707761 35:-0.928005
-1 1:1.139989 2:-1.090805 3:-1.269412 4:1.475359 5:-0.859208 6:0.499369 7:0.897362 8:0.777814 9:-0.896834 10:2.589197 11:0.817096 12:-1.133061 13:-1.232107 14:0.732530 15:-1.926940 16:-1.528825 17:1.084309 18:-0.863514 19:-0.615603 20:-0.025031 21:-1.407810 22:-1.098876 23:-2.253747 24:2.043298 25:1.043976 26:-0.694026 27:-1.175679 28:-0.711164 29:-0.683767 30:0.440183 31:-1.338652 32:-0.824611 33:1.332436 34:-0.524252 35:0.886212
-1 1:-1.609254 2:0.082554 3:-0.626761 4:0.133773 5:-1.069710 6:-1.088430 7:-1.672693 8:-1.178324 9:0.786738 10:-0.792739 11:-1.098577 12:-0.139548 13:-0.685805 14:0.671468 15:0.797005 16:-0.523994 17:0.736535 18:-0.392034 19:-1.195321 20:-0.861697 21:1.206674 22:0.337776 23:0.141310 24:0.954192 25:0.297728 26:-0.482118 27:-1.314290 28:-1.096134 29:0.389551 30:-0.271835 31:0.535439 32:-1.663088 33:0.590742 34:1.737402 35:1.093548
-1 1:-0.126099 2:1.189476 3:0.618677 4:0.042513 5:1.069313 6:-0.127154 7:-0.301609 8:-0.907649 9:0.112184 10:-0.155511 11:1.290985 12:1.165167 13:-1.528315 14:0.491332 15:-1.302188 16:-2.060648 17:0.387329 18:0.636544 19:3.047450 20:-2.022051 21:-0.930009 22:0.402408 23:1.019313 24:0.607586 25:1.443595 26:0.124160 27:0.514424 28:0.077463 29:-1.176250 30:2.088194 31:-0.693552 32:-0.039548 33:0.183903 34:-0.812540 35:-0.095193
-1 1:-1.071925 2:-0.868763 3:0.495918 4:1.493060 5:-0.640780 6:-0.783708 7:0.977834 8:0.393171 9:0.634952 10:-0.718903 11:1.731522 12:-0.806978 13:0.680288 14:0.024122 15:0.908991 16:1.212099 17:1.067067 18:2.323149 19:0.580389 20:2.278579 21:-0.426195 22:0.834153 23:-0.481220 24:0.147933 25:2.019203 26:-0.863688 27:-0.765441 28:-0.685202 29:0.620380 30:-1.951419 31:2.045420 32:0.777309 33:-0.971634 34:0.392226 35:0.644824
-1 1:0.347638 2:0.594435 3:-0.392412 4:0.659062 5:-0.848319 6:1.881532 7:-1.125076 8:1.589866 9:-1.671616 10:0.560127 11:-0.845591 12:-1.057770 13:0.758543 14:-0.172571 15:-0.112784 16:-0.418910 17:-0.630732 18:-1.159231 19:-1.287930 20:0.562967 21:-1.106050 22:-0.506103 23:2.529885 24:-0.207003 25:-1.079869 26:-0.171330 27:-2.158034 28:0.212215 29:-1.245195 30:-1.173669 31:0.285493 32:-1.623820 33:0.386633 34:0.147872 35:0.466400
-1 1:0.052033 2:-0.882655 3:1.032583 4:0.624258 5:-0.797994 6:1.021270 7:-0.256364 8:-0.427392 9:0.869771 10:0.620006 11:0.428496 12:-0.545017 13:1.377897 14:-0.209204 15:-1.595466 16:0.958319 17:0.350730 18:-0.338918 19:-1.342884 20:-0.949321 21:0.633066 22:0.111072 23:0.409189 24:-0.201707 25:0.771438 26:-0.608214 27:-0.214420 28:1.335420 29:-0.970380 30:1.255354 31:1.043184 32:0.781167 33:-0.592207 34:-1.881190 35:-0.217344
-1 1:-1.565318 2:0.253791 3:3.555291 4:0.098983 5:0.186701 6:0.222296 7:-0.451246 8:0.958945 9:-0.287647 10:0.526609 11:1.105453 12:-0.986986 13:0.661152 14:0.355916 15:-1.725519 16:0.679111 17:0.230219 18:0.695199 19:-0.350289 20:0.287085 21:-1.239230 22:0.419354 23:-1.381938 24:-0.614204 25:-0.315964 26:-0.330532 27:-0.966144 28:-0.071871 29:-0.175047 30:-1.212891 31:1.248152 32:-0.480141 33:-0.996051 34:0.578772 35:0.045678
-1 1:-2.916081 2:2.027299 3:-1.899453 4:-1.453045 5:-0.543302 6:2.606019 7:0.035159 8:0.111633 9:-0.276935 10:0.019547 11:0.523385 12:1.413278 13:-0.017580 14:0.515942 15:1.021593 16:0.219084 17:0.364007 18:0.280967 19:1.456562 20:-0.388468 21:1.600432 22:-0.807575 23:0.104121 24:-0.557704 25:0.315809 26:-0.214948 27:1.297705 28:0.640649 29:-0.456013 30:-0.310496 31:0.311008 32:-0.127954 33:1.146407 34:-0.023578 35:-0.454479
-1 1:-0.507336 2:-0.132916 3:-0.484059 4:0.769120 5:-0.792236 6:-1.314273 7:-1.245306 8:-0.205205 9:-1.210714 10:-1.054933 11:-0.355115 12:0.364578 13:-0.046231 14:-0.654690 15:1.642318 16:1.613881 17:-0.512957 18:-0.131046 19:-1.174826 20:0.451302 21:-0.379674 22:-0.973654 23:0.605885 24:-0.000397 25:1.942832 26:-0.791450 27:0.752193 28:0.978900 29:-0.499506 30:-0.790100 31:1.089076 32:-2.421993 33:-0.381338 34:-0.622832 35:0.806690
-1 1:0.062544 2:-0.106656 3:0.779414 4:-1.317338 5:-0.513195 6:-0.097124 7:0.638331 8:0.493157 9:-0.053199 10:0.667816 11:0.895004 12:-2.088418 13:1.893328 14:0.509460 15:-0.590438 16:-0.515223 17:0.120335 18:2.750830 19:-0.431245 20:-0.372181 21:1.680008 22:0.442600 23:-0.073208 24:0.723574 25:-0.589354 26:-1.099309 27:-1.137942 28:-1.528337 29:2.520549 30:-0.040721 31:-1.416613 32:-1.530150 33:1.515682 34:-2.306600 35:1.405355
-1 1:1.237841 2:-0.268652 3:-1.605190 4:1.282834 5:-1.577552 6:1.672358 7:0.107711 8:-0.708977 9:-0.880671 10:-0.413197 11:-0.238325 12:0.474207 13:0.531379 14:-2.079503 15:0.196660 16:-0.269754 17:2.516501 18:0.268478 19:-0.035750 20:0.154498 21:1.283710 22:0.769776 23:-0.963326 24:0.168767 25:-0.670539 26:2.555746 27:1.348994 28:0.333340 29:-1.899520 30:0.424649 31:-0.403423 32:-1.292349 33:0.592895 34:-1.186045 35:-1.635957
-1 1:0.947565 2:-1.704245 3:-0.710418 4:-1.017305 5:-1.338507 6:0.673341 7:0.603651 8:-1.167798 9:-0.255719 10:0.352691 11:-0.194757 12:-1.118751 13:-0.324139 14:0.239326 15:-0.332635 16:-1.017429 17:1.404684 18:1.976318 19:-1.001522 20:-0.430284 21:-1.061064 22:-2.124776 23:-1.645839 24:-1.041559 25:0.946819 26:0.934772 27:0.794772 28:0.743215 29:-0.797627 30:-0.047094 31:-0.088207 32:-1.077070 33:0.433865 34:-3.011992 35:-0.382564
-1 1:-1.052904 2:-0.102012 3:1.191971 4:0.890958 5:-2.024393 6:0.870878 7:-0.664540 8:0.754527 9:-0.805726 10:-0.886518 11:-0.523337 12:-1.294644 13:1.474294 14:0.985008 15:0.084733 16:0.401069 17:1.436738 18:0.907509 19:0.788863 20:-0.481271 21:1.025192 22:0.299793 23:-0.592970 24:-0.782017 25:1.218519 26:-0.593286 27:-2.434555 28:0.110747 29:1.422037 30:1.583826 31:-1.208492 32:-0.463362 33:0.383630 34:0.054321 35:-0.369776
-1 1:-0.219240 2:0.516478 3:0.043701 4:1.397349 5:0.526966 6:-1.714688 7:-2.028304 8:-0.371308 9:0.943064 10:0.323826 11:-1.589838 12:0.036918 13:0.125424 14:0.395995 15:1.506897 16:-2.338063 17:-2.781671 18:-0.148682 19:0.179685 20:0.036438 21:0.633232 22:0.754179 23:0.633047 24:0.772370 25:1.513687 26:-1.485703 27:0.506629 28:-0.954004 29:0.761916 30:-1.566115 31:-1.703114 32:-0.190606 33:-0.491108 34:-0.680369 35:0.844506
-1 1:-1.337579 2:0.807399 3:-0.141834 4:1.238416 5:0.568424 6:-0.397973 7:-1.166235 8:0.193290 9:-1.235821 10:-1.174468 11:-0.320251 12:0.266582 13:-0.367194 14:-0.358076 15:-0.316708 16:-0.317113 17:-0.516070 18:-0.003427 19:0.738366 20:-0.585991 21:-0.041504 22:0.435859 23:-2.209619 24:0.190436 25:0.429404 26:-0.007945 27:-0.321395 28:-1.433480 29:0.190640 30:1.087492 31:-1.097823 32:0.883044 33:1.388935 34:-0.104216 35:1.533693
-1 1:-0.371685 2:-2.129152 3:1.356861 4:-0.718168 5:-1.362153 6:0.547889 7:2.173355 8:1.709561 9:0.870040 10:-0.538435 11:-0.772098 12:1.218792 13:0.274614 14:0.746124 15:0.598301 16:0.659827 17:-1.787758 18:1.620931 19:1.132252 20:0.914457 21:1.377417 22:1.300976 23:0.532275 24:-0.900550 25:-0.304174 26:-1.151175 27:0.281702 28:-1.023540 29:0.095452 30:-1.216385 31:-0.644238 32:-0.600629 33:-0.824496 34:1.317431 35:0.221656
-1 1:-1.722533 2:0.152180 3:0.966465 4:0.233389 5:1.047664 6:-2.381900 7:0.674942 8:-1.042447 9:-0.933102 10:0.564794 11:-1.157991 12:-0.099376 13:-0.217861 14:0.068222 15:-0.380381 16:-0.037320 17:-1.539254 18:-0.961478 19:-1.945076 20:-0.053494 21:1.060126 22:0.957391 23:0.351486 24:-2.741058 25:1.831407 26:-0.130474 27:-0.006700 28:-1.004988 29:0.402997 30:0.820741 31:0.805002 32:0.556550 33:0.372147 34:-0.119698 35:0.651805
-1 1:1.961589 2:0.724894 3:-0.167742 4:-1.447198 5:1.443852 6:-0.883591 7:0.121254 8:0.112723 9:0.272699 10:-0.928147 11:-1.646100 12:-0.143774 13:-0.012074 14:0.884539 15:-0.913450 16:0.457954 17:-0.035080 18:-0.174409 19:1.025979 20:1.181325 21:0.635706 22:0.369558 23:2.687104 24:-0.160391 25:-0.828852 26:-0.155313 27:1.283821 28:-1.124724 29:1.021039 30:-0.240531 31:0.487088 32:-1.174660 33:0.137266 34:-0.569676 35:-0.897635
-1 1:0.650689 2:-0.766960 3:-0.845411 4:0.440237 5:-0.822916 6:1.132979 7:-0.834286 8:1.764362 9:2.075138 10:0.575230 11:0.705351 12:2.113631 13:-0.310753 14:-0.031390 15:0.744263 16:-0.121141 17:0.392759 18:-1.157242 19:0.004569 20:-0.634027 21:-0.532012 22:-0.345863 23:-0.113306 24:1.538501 25:0.107763 26:-0.028493 27:-0.453112 28:-0.151073 29:-0.812705 30:0.339638 31:1.384625 32:-1.869933 33:-0.089547 34:0.671715 35:-0.756032
-1 1:-1.523755 2:1.101928 3:-0.021234 4:0.822077 5:0.225904 6:-0.460594 7:1.335943 8:0.562713 9:-0.544716 10:0.714198 11:-0.695452 12:1.653776 13:-0.008842 14:2.178866 15:-1.095326 16:0.262076 17:-0.375902 18:1.306599 19:1.357016 20:0.028425 21:-0.373486 22:-0.707045 23:1.411206 24:-0.154634 25:0.725542 26:2.172366 27:1.504148 28:-0.004518 29:-0.571124 30:-0.575416 31:1.400967 32:-0.284725 33:0.457666 34:1.508194 35:0.823386
-1 1:-1.260532 2:0.536973 3:-0.582411 4:0.741272 5:1.213394 6:0.984469 7:1.131293 8:-0.889794 9:0.315144 10:-0.073761 11:2.069234 12:0.216172 13:-1.201605 14:0.643386 15:0.460992 16:-0.668738 17:0.721739 18:3.044180 19:0.095251 20:-2.319038 21:0.189261 22:-0.120989 23:0.726221 24:-0.435435 25:-2.235401 26:-0.209762 27:-2.432770 28:-1.312199 29:0.461266 30:0.904421 31:-0.774288 32:-0.336385 33:0.577381 34:-0.751745 35:0.224787
-1 1:0.676413 2:-0.169325 3:0.139377 4:1.863515 5:-0.111853 6:-0.337466 7:1.001543 8:-0.281855 9:-0.998885 10:1.960148 11:0.186448 12:-0.124428 13:-0.966149 14:-1.438755 15:-0.847494 16:-0.265329 17:1.962245 18:1.247850 19:0.308576 20:-1.077006 21:0.819953 22:0.497530 23:-0.020577 24:-0.159150 25:0.011548 26:-0.102435 27:-0.172983 28:1.610984 29:0.877930 30:-0.001902 31:0.163812 32:-1.371806 33:-1.062732 34:-0.407812 35:-0.963258
-1 1:0.965442 2:-0.896754 3:-0.237409 4:-1.026305 5:0.383090 6:0.347814 7:0.744147 8:-0.739631 9:-0.870670 10:-0.781697 11:0.576081 12:-1.441168 13:-0.826493 14:-0.310820 15:0.620025 16:-0.164029 17:0.781933 18:-0.010835 19:0.178801 20:-0.227256 21:-0.677526 22:-0.129495 23:0.758060 24:0.313531 25:-1.827189 26:0.158258 27:-0.217567 28:-1.042102 29:0.084135 30:0.819499 31:-1.060308 32:-0.583637 33:-0.032799 34:-1.359837 35:-2.362936
-1 1:-1.742129 2:-0.551107 3:-0.739062 4:-0.021892 5:-1.042757 6:-0.476179 7:-1.557934 8:-0.164626 9:1.019579 10:-0.081794 11:1.196792 12:-0.778408 13:-0.706116 14:0.044829 15:-0.062065 16:-0.167730 17:-0.186715 18:-1.191589 19:0.626514 20:-0.866555 21:-1.028973 22:-0.967569 23:0.216297 24:-0.428311 25:0.340676 26:-0.183381 27:0.835397 28:-0.327062 29:-0.651397 30:0.160251 31:-0.363658 32:2.150511 33:-0.759459 34:-0.633375 35:-0.477672
-1 1:0.176570 2:0.756000 3:0.086591 4:-0.754175 5:0.681243 6:1.854905 7:-0.679927 8:-1.118635 9:0.906742 10:-0.659736 11:-0.735537 12:0.647351 13:0.626206 14:-1.330102 15:-1.326820 16:0.625639 17:0.999962 18:0.598773 19:-0.467731 20:-1.323495 21:-0.970078 22:0.138469 23:-0.729029 24:-0.200799 25:-0.193409 26:2.678551 27:0.616816 28:0.350269 29:0.948188 30:1.126210 31:-1.459729 32:-0.516376 33:0.088488 34:0.417149 35:0.747739
-1 1:-0.045407 2:-1.528972 3:1.786013 4:2.343298 5:0.264955 6:1.472289 7:-1.071200 8:0.309619 9:-0.097875 10:-1.159768 11:-2.048825 12:-0.391023 13:0.061816 14:1.335374 15:-0.671103 16:-0.321798 17:-0.017550 18:-1.158824 19:0.013301 20:-0.827488 21:-1.303789 22:-1.683035 23:0.290352 24:-2.325276 25:-0.408439 26:-0.081878 27:1.033309 28:-0.717122 29:-1.576327 30:-1.179514 31:0.229484 32:-0.236764 33:-0.722094 34:0.963416 35:0.518647
-1 1:-0.512756 2:-0.350503 3:0.741523 4:1.501554 5:-1.219704 6:-0.446400 7:-0.178976 8:-1.204891 9:0.208863 10:-1.133836 11:0.846883 12:1.885038 13:-0.689987 14:-0.525889 15:0.438224 16:0.595967 17:1.793702 18:-1.382455 19:-0.245949 20:3.006738 21:0.585904 22:0.842094 23:-0.164828 24:0.409521 25:-0.494288 26:-0.910479 27:-0.299789 28:-0.666762 29:2.294364 30:-0.591373 31:-0.023700 32:-0.059306 33:0.034523 34:0.588637 35:0.132210
-1 1:-1.668603 2:-0.391009 3:0.233181 4:-0.766638 5:-0.501079 6:-2.917328 7:0.274463 8:0.271784 9:0.829490 10:-0.383204 11:-0.730984 12:-1.373874 13:0.096249 14:1.309311 15:-1.137811 16:0.187637 17:-0.452679 18:-0.556620 19:0.142884 20:0.281972 21:-0.056428 22:0.154398 23:0.828915 24:-0.172843 25:-1.380055 26:-0.896735 27:-0.458057 28:-1.375419 29:1.274674 30:0.858680 31:0.670353 32:2.419874 33:0.609572 34:0.892870 35:-1.310129
-1 1:-0.549968 2:-1.130524 3:0.618885 4:0.623798 5:-0.713252 6:-1.297982 7:0.822004 8:0.245673 9:0.241003 10:0.819524 11:-0.043966 12:-2.392142 13:0.178876 14:1.626355 15:-0.255831 16:1.139737 17:0.913076 18:0.039140 19:0.835085 20:-1.178231 21:0.030055 22:-0.205848 23:0.737124 24:-0.687438 25:-0.077174 26:0.239960 27:-1.423238 28:-0.609029 29:0.012634 30:-0.929663 31:-0.248081 32:0.722705 33:0.341346 34:0.773615 35:-0.124596
-1 1:0.219183 2:-1.340417 3:-0.258956 4:1.175385 5:-1.766943 6:-1.032139 7:0.445532 8:0.099690 9:0.351247 10:0.525487 11:-1.061285 12:-0.985971 13:-0.735216 14:0.640917 15:-0.177270 16:-0.895205 17:1.729055 18:-0.495458 19:1.052094 20:0.015716 21:1.589636 22:-0.573671 23:1.033090 24:-0.721065 25:-0.614766 26:0.478995 27:0.155097 28:-0.156401 29:-0.302462 30:-0.513793 31:0.631244 32:-1.099632 33:0.473863 34:0.547875 35:-1.884147
-1 1:0.164894 2:-1.919870 3:-0.322356 4:1.757271 5:-0.142720 6:-0.302429 7:-1.578996 8:-0.566091 9:-1.741367 10:0.495980 11:-0.340809 12:-1.236615 13:0.398963 14:-1.604665 15:1.807866 16:-0.491291 17:0.102880 18:0.353616 19:0.813469 20:1.125491 21:1.270801 22:-0.769003 23:-0.408150 24:0.739858 25:-0.605165 26:0.448461 27:-0.387667 28:0.339820 29:-0.194081 30:-0.471096 31:-0.200493 32:-0.721550 33:1.794833 34:0.285989 35:-0.371377
-1 1:0.429076 2:0.825697 3:-1.448613 4:0.055912 5:-0.112666 6:0.366485 7:-0.202169 8:1.368546 9:-0.178026 10:-0.663600 11:0.741925 12:1.398495 13:-0.168708 14:-1.927162 15:0.450978 16:1.249440 17:-0.015116 18:0.591484 19:-0.240404 20:-0.018638 21:-0.186456 22:-1.940598 23:-0.163663 24:0.764283 25:-1.055233 26:-0.070596 27:3.016371 28:-0.865843 29:0.738252 30:-0.617425 31:0.647211 32:-0.091069 33:-2.493435 34:-1.491996 35:0.284866
-1 1:-1.520502 2:-0.729459 3:-3.581786 4:0.813263 5:-0.327709 6:-0.651938 7:0.225070 8:-0.703102 9:-1.745416 10:2.742181 11:0.712657 12:-0.752045 13:0.784627 14:0.125420 15:-0.411220 16:-1.208869 17:1.661945 18:-1.572481 19:-0.188824 20:-0.083053 21:-0.103868 22:0.373663 23:-1.038745 24:1.545048 25:0.785063 26:-0.088303 27:1.514908 28:-0.500024 29:1.637142 30:-1.473466 31:-0.770271 32:0.852960 33:0.725342 34:0.371364 35:-0.151522
-1 1:-0.269625 2:-0.077378 3:-0.659836 4:-1.272961 5:-0.013210 6:-0.857892 7:-0.223933 8:-0.073509 9:-0.624162 10:2.180467 11:-1.025869 12:0.596384 13:-0.290755 14:1.766438 15:1.159508 16:-0.469099 17:0.089401 18:-2.709549 19:-1.491959 20:-0.792384 21:0.348828 22:0.633899 23:0.402144 24:-2.760950 25:1.973863 26:0.769171 27:0.435347 28:0.904799 29:0.450965 30:0.241624 31:2.061669 32:-1.876199 33:-0.210220 34:0.869038 35:-2.071199
-1 1:-1.202782 2:1.466738 3:-0.146467 4:0.163121 5:0.121286 6:0.903575 7:0.167551 8:-0.115072 9:0.211111 10:-1.638478 11:0.877953 12:0.089878 13:1.050161 14:-1.068028 15:1.279900 16:-1.200120 17:0.183154 18:1.206149 19:-0.820969 20:-0.431063 21:0.061765 22:-0.005528 23:-0.046104 24:-0.079626 25:-1.091148 26:1.273856 27:0.367223 28:0.276287 29:0.827856 30:-0.395824 31:-0.413668 32:-1.276816 33:0.315790 34:0.329751 35:0.694212
-1 1:1.141825 2:0.631748 3:-0.024922 4:0.254694 5:-0.013241 6:-2.254486 7:0.585456 8:0.778626 9:-0.291762 10:-0.061850 11:0.044032 12:0.772093 13:-0.379426 14:-1.807438 15:-0.552559 16:-0.152307 17:-0.045702 18:0.382461 19:-0.303789 20:2.138023 21:0.422021 22:-0.661134 23:-0.528701 24:-0.208821 25:-1.486157 26:3.113073 27:-0.963537 28:0.908561 29:0.566865 30:0.842703 31:-0.395424 32:-0.026512 33:1.359389 34:1.316853 35:-0.380641
-1 1:-0.533320 2:1.914196 3:2.982214 4:-1.104768 5:0.211507 6:0.638764 7:1.007787 8:-0.858508 9:0.000405 10:0.265645 11:-0.824537 12:-2.202302 13:1.419400 14:0.299299 15:-0.557541 16:0.813162 17:0.523691 18:-1.092463 19:-0.149301 20:0.243458 21:0.530871 22:1.238514 23:1.507569 24:0.954758 25:0.510567 26:0.503146 27:-0.239602 28:-2.652592 29:-1.846004 30:0.172751 31:0.346565 32:0.927250 33:1.844747 34:2.084099 35:1.664262
-1 1:-0.414258 2:-0.489369 3:0.549412 4:-1.040515 5:-0.016249 6:1.529558 7:0.302135 8:-1.207523 9:0.039461 10:-0.263320 11:1.859294 12:0.619312 13:0.000432 14:0.598117 15:-2.121077 16:-0.471695 17:-1.277311 18:-0.318471 19:0.125012 20:-2.413437 21:1.253756 22:-1.839873 23:-1.313851 24:-0.165066 25:2.598910 26:0.117762 27:0.106961 28:-0.257725 29:-1.027523 30:-2.546587 31:-0.789240 32:1.987490 33:-0.165588 34:0.547210 35:-0.127771
-1 1:0.861563 2:-0.785910 3:1.166102 4:1.178095 5:-1.732870 6:-0.403570 7:0.588946 8:-0.887676 9:-0.506971 10:0.803008 11:0.275105 12:1.442468 13:-1.727247 14:-0.397430 15:-1.298346 16:-0.759350 17:-1.103680 18:-0.277490 19:0.361853 20:-1.937970 21:-1.653540 22:0.195714 23:-0.334996 24:-0.340862 25:0.624890 26:0.326233 27:-0.173675 28:-0.160837 29:-0.543745 30:-0.522771 31:-0.994870 32:1.306326 33:0.327189 34:-0.102701 35:-0.099035
-1 1:2.136593 2:-1.047710 3:0.633834 4:0.235213 5:0.496939 6:0.104128 7:1.630344 8:1.387914 9:0.993907 10:-1.366977 11:0.460513 12:0.029687 13:0.343268 14:1.267457 15:0.491995 16:-1.204906 17:-0.683606 18:0.855666 19:0.497350 20:1.168474 21:0.641081 22:1.029442 23:-0.879165 24:-1.876730 25:0.099321 26:-0.373701 27:-0.382496 28:-0.428428 29:-2.573871 30:-0.058840 31:0.241502 32:-0.675366 33:-0.996114 34:0.099064 35:0.129443
-1 1:-1.931619 2:0.819758 3:-0.408626 4:-0.195073 5:-0.376788 6:0.381824 7:-1.027673 8:1.078376 9:-0.680646 10:-0.802860 11:0.985558 12:-0.155318 13:0.049343 14:-0.671692 15:-0.141639 16:0.354930 17:0.997640 18:0.207491 19:-0.933524 20:0.346191 21:0.879433 22:0.162490 23:-0.833041 24:-0.846867 25:-0.404654 26:-1.255032 27:-0.277392 28:-0.044826 29:-3.156030 30:0.167602 31:-2.235608 32:-1.236430 33:-1.537892 34:-0.232449 35:1.476998
-1 1:-0.636622 2:-1.385341 3:1.000940 4:0.878074 5:0.234986 6:-0.749743 7:0.153863 8:0.459441 9:1.117729 10:0.332098 11:1.609880 12:-0.313926 13:-0.768134 14:-0.368443 15:0.088305 16:-2.713171 17:-1.039367 18:-1.688317 19:-0.717638 20:-1.387268 21:-1.008120 22:1.032468 23:0.052977 24:0.106746 25:0.630444 26:-0.646168 27:-0.648653 28:0.731463 29:-2.004532 30:-0.406612 31:0.242823 32:-0.358626 33:0.343775 34:1.614578 35:0.075664
-1 1:0.675807 2:0.321995 3:-0.176177 4:-2.655333 5:-0.490560 6:1.958246 7:-0.927049 8:-0.002572 9:0.859034 10:-0.306089 11:0.260008 12:0.814373 13:-0.160489 14:2.132631 15:1.021713 16:-0.293553 17:-0.221122 18:-0.200903 19:-0.376679 20:-0.748694 21:-0.190904 22:0.329603 23:0.538566 24:-0.609774 25:-0.230671 26:0.175297 27:1.156971 28:-2.689169 29:-0.806086 30:-0.582471 31:-0.090602 32:0.884387 33:-1.043662 34:-0.014212 35:0.988456
-1 1:0.070776 2:-1.593272 3:0.158211 4:1.311389 5:1.198713 6:-0.378804 7:0.766991 8:0.673518 9:-0.269461 10:-0.275679 11:-1.074387 12:-0.649888 13:-0.694210 14:1.814927 15:-0.585970 16:0.267144 17:-0.876545 18:0.292495 19:0.860088 20:-0.389334 21:0.533716 22:0.153252 23:0.112254 24:-1.474199 25:-1.010888 26:1.057678 27:-0.147781 28:-1.888565 29:1.208760 30:-1.316550 31:0.567929 32:-1.090174 33:-0.102804 34:0.603542 35:1.435691
-1 1:-0.214860 2:-0.405023 3:1.421533 4:-1.441557 5:-0.727448 6:1.062374 7:0.030963 8:-0.444777 9:0.005150 10:-0.468591 11:-1.778086 12:-1.939892 13:-1.796973 14:0.639390 15:-0.151935 16:0.434437 17:0.209139 18:-0.920726 19:0.161781 20:0.481880 21:-0.616760 22:-1.269295 23:-0.470863 24:0.057332 25:-2.418040 26:-0.050974 27:0.517687 28:-0.420632 29:0.174702 30:0.396894 31:1.025017 32:-0.069661 33:1.270626 34:1.677319 35:-0.234956
-1 1:2.248710 2:1.743577 3:-0.819528 4:1.442601 5:-0.511229 6:1.692280 7:1.351446 8:0.319852 9:-1.756208 10:1.265232 11:0.971244 12:-0.483126 13:1.862639 14:-0.404724 15:2.141179 16:0.121638 17:-0.399941 18:0.014558 19:1.030808 20:1.165583 21:-0.692487 22:0.545413 23:-0.164611 24:0.320275 25:0.618634 26:-0.175627 27:-1.151860 28:0.852527 29:0.241590 30:0.598786 31:-0.622144 32:-0.746137 33:-0.091325 34:1.501399 35:-0.676025
-1 1:-0.439280 2:-0.321064 3:0.299882 4:-0.810164 5:0.045303 6:-0.273844 7:0.187743 8:0.702322 9:-1.487944 10:-0.670085 11:-0.437234 12:0.848862 13:1.498312 14:-0.038464 15:0.320634 16:-0.580861 17:0.546189 18:-0.190157 19:-0.823072 20:-0.451408 21:-0.236641 22:0.112192 23:-0.499918 24:0.277179 25:-1.109135 26:-1.122134 27:0.292718 28:-0.110421 29:-0.494827 30:-1.955436 31:-0.939432 32:1.113046 33:1.193135 34:1.237086 35:0.116860
-1 1:0.919583 2:-0.670602 3:0.127952 4:-0.490642 5:-2.427464 6:0.866548 7:0.099456 8:1.207168 9:1.032943 10:0.539255 11:-0.861074 12:0.045847 13:-1.756231 14:1.395915 15:1.489899 16:-1.622049 17:-0.950612 18:-1.308069 19:1.682366 20:0.291914 21:-1.130747 22:0.151561 23:0.255894 24:-1.975827 25:0.123087 26:1.536061 27:-2.046188 28:-1.022213 29:-1.206810 30:0.822721 31:0.496290 32:1.064319 33:1.266647 34:0.602993 35:-0.926299
-1 1:-0.042027 2:-0.554540 3:-0.583284 4:0.472859 5:0.703143 6:-1.266638 7:-2.028085 8:-0.445735 9:-0.280712 10:0.029989 11:0.735035 12:0.164688 13:-0.542813 14:-0.361296 15:0.873603 16:0.005823 17:0.547583 18:-0.099911 19:-0.145214 20:-0.825758 21:0.349012 22:-0.891026 23:-0.484138 24:0.470020 25:-0.433124 26:-0.773353 27:0.701775 28:-1.215931 29:-2.531387 30:-1.881307 31:-0.900466 32:-0.613769 33:-0.258463 34:1.029902 35:-1.045033
-1 1:-0.428746 2:1.698986 3:0.026759 4:0.222246 5:-0.926082 6:0.059206 7:0.740942 8:0.126281 9:0.397358 10:0.434493 11:-0.178129 12:-0.540336 13:0.566457 14:-1.636894 15:-0.423691 16:0.116483 17:0.200859 18:0.785183 19:-0.068807 20:-1.483395 21:0.814394 22:-2.925939 23:1.673360 24:1.772133 25:0.690778 26:-0.535747 27:-0.731220 28:-1.032008 29:1.718973 30:0.367649 31:1.575484 32:1.283569 33:0.134563 34:-1.321937 35:-0.283286
-1 1:2.066184 2:1.046351 3:1.065595 4:1.444495 5:-0.392929 6:-2.028531 7:-0.414445 8:0.040607 9:0.515844 10:1.608925 11:0.049327 12:0.715106 13:0.006551 14:-0.831038 15:-1.188760 16:0.747387 17:-1.044930 18:1.591938 19:1.298268 20:0.508834 21:-1.433800 22:0.828845 23:0.114322 24:0.484237 25:-1.169766 26:1.349646 27:1.046648 28:-0.920726 29:-0.782418 30:-0.622031 31:-0.011339 32:-0.677661 33:-0.736896 34:0.055100 35:0.085899
-1 1:0.145655 2:-0.294650 3:1.571845 4:-0.252896 5:1.945702 6:0.366461 7:-1.027426 8:-1.353973 9:-0.340301 10:0.041349 11:1.026421 12:-2.466695 13:-0.748556 14:0.644937 15:-1.009122 16:0.092814 17:-1.108697 18:0.923165 19:-0.172637 20:1.162900 21:-0.167490 22:-0.185615 23:0.900567 24:0.074999 25:1.075921 26:0.645583 27:0.754205 28:0.286994 29:1.682308 30:1.447834 31:-0.067905 32:-0.282928 33:0.968774 34:-1.122473 35:-0.927179
-1 1:0.854435 2:0.228227 3:0.915919 4:0.099987 5:0.683906 6:0.846903 7:-1.585122 8:0.555848 9:0.754022 10:-0.201949 11:-0.560131 12:1.351338 13:0.341846 14:0.294172 15:0.615884 16:-0.647927 17:0.403889 18:0.806479 19:0.079947 20:2.145072 21:1.343000 22:0.796497 23:0.443039 24:-1.324958 25:-0.474325 26:1.138931 27:-0.095245 28:-1.908946 29:-1.987506 30:0.660022 31:0.353669 32:-0.754804 33:-1.198701 34:-1.766977 35:-1.188526
-1 1:-1.333439 2:-0.752107 3:0.684475 4:-0.061729 5:-2.817329 6:0.843627 7:0.912350 8:-1.678487 9:-0.839226 10:-0.201500 11:-2.036861 12:0.486632 13:-0.855987 14:-0.817460 15:-0.667728 16:-1.572223 17:-0.320656 18:-1.114065 19:-0.870717 20:-0.404189 21:0.198925 22:-0.124894 23:-0.117906 24:0.569724 25:0.761259 26:-0.857004 27:-0.139419 28:0.435255 29:1.019726 30:-0.710099 31:-0.906322 32:0.124395 33:0.648758 34:0.950832 35:0.217274
-1 1:0.287032 2:0.665135 3:-0.370551 4:0.226549 5:0.886851 6:0.229546 7:-1.280396 8:1.002814 9:-1.102512 10:-0.713707 11:-1.669414 12:0.207277 13:-1.435600 14:-0.147469 15:-1.116006 16:1.917075 17:-0.405560 18:1.202550 19:-0.377831 20:-1.825937 21:0.031223 22:1.515361 23:-0.352944 24:1.064844 25:1.139146 26:-0.978126 27:0.360097 28:-1.420740 29:-0.090769 30:-0.554178 31:0.689513 32:-0.460847 33:0.534443 34:1.324084 35:-0.900462
-1 1:-1.292996 2:-0.804625 3:-0.340941 4:0.468235 5:0.212943 6:-0.937814 7:-0.961427 8:-1.524983 9:0.481115 10:-0.483144 11:0.069497 12:-1.579995 13:-0.980413 14:-0.052833 15:0.512580 16:-0.994758 17:-0.171138 18:-0.332379 19:-2.601627 20:1.001721 21:0.235386 22:0.513809 23:-0.004830 24:0.558107 25:1.252224 26:-0.431029 27:-0.113445 28:2.615487 29:-0.807837 30:0.025515 31:-0.739487 32:-0.487933 33:-0.689644 34:-0.032801 35:0.934061
-1 1:0.540725 2:1.030211 3:-1.153608 4:-0.244757 5:0.929391 6:-1.055979 7:-1.240993 8:0.430041 9:-0.121140 10:0.453440 11:-0.383027 12:-0.532471 13:-0.211320 14:-0.951937 15:-0.189420 16:-0.460898 17:2.148280 18:-1.580260 19:-1.014678 20:0.158256 21:-1.538815 22:0.296996 23:1.780025 24:-2.335058 25:-0.096581 26:0.761955 27:0.855520 28:-0.129500 29:-0.646603 30:-0.458877 31:-2.213303 32:-0.594996 33:-1.050195 34:-0.773261 35:1.595576
-1 1:1.420493 2:0.144642 3:1.745485 4:0.919356 5:0.467499 6:-0.324176 7:0.648979 8:-0.208520 9:1.090404 10:1.427238 11:-0.287185 12:-0.870352 13:0.513189 14:-1.248504 15:-1.643012 16:1.518782 17:0.548470 18:0.329647 19:-0.724498 20:0.545952 21:0.903706 22:-0.531735 23:-0.272744 24:-1.278967 25:-0.657422 26:1.160491 27:0.873797 28:-1.543083 29:-1.937238 30:-0.340320 31:-0.195441 32:-0.647723 33:0.957681 34:-0.750871 35:-1.462596
-1 1:-1.270288 2:2.278271 3:-1.127288 4:0.876543 5:0.255317 6:-1.771757 7:0.171213 8:-0.627627 9:-0.467622 10:0.053103 11:0.109119 12:0.122466 13:-0.666345 14:1.435511 15:0.569749 16:-0.066135 17:1.151978 18:0.429758 19:-0.574734 20:0.180165 21:-1.147829 22:0.431486 23:-1.429291 24:-0.427456 25:1.239757 26:-0.660886 27:0.056539 28:-0.570038 29:-0.717467 30:1.423985 31:0.803700 32:0.478216 33:0.890143 34:0.666086 35:-0.441926
-1 1:0.608649 2:0.374073 3:0.021455 4:0.928883 5:-0.173661 6:0.567225 7:-0.100486 8:-1.102016 9:-0.043304 10:0.292740 11:0.726230 12:-1.041828 13:1.078941 14:0.080299 15:0.212237 16:-0.376010 17:-1.716288 18:-0.437220 19:-0.597073 20:1.014086 21:0.014880 22:-1.262404 23:-1.275341 24:0.830036 25:-2.231608 26:1.237313 27:0.726770 28:-1.127968 29:1.353787 30:-0.935678 31:-0.048754 32:0.046712 33:-2.196367 34:-0.002559 35:-1.186086
-1 1:0.583815 2:-1.393833 3:0.214886 4:-0.721135 5:-0.498824 6:1.993132 7:1.161293 8:0.124575 9:1.477060 10:0.095761 11:1.594195 12:0.583837 13:-0.591173 14:-0.120995 15:-0.604211 16:1.373151 17:1.110837 18:1.493468 19:-0.331015 20:0.969867 21:0.425241 22:-0.721230 23:-1.711402 24:0.024227 25:2.667924 26:-0.395043 27:-0.373156 28:1.301575 29:0.302976 30:0.350697 31:-0.359973 32:2.202858 33:-0.082794 34:-0.677959 35:-1.602733
-1 1:0.494619 2:1.970858 3:0.686382 4:0.959861 5:1.764432 6:-0.494136 7:-0.654459 8:0.809790 9:1.177986 10:-0.153391 11:-0.117633 12:1.168758 13:0.890289 14:1.551500 15:1.159557 16:0.651478 17:-0.903565 18:-1.794201 19:-0.290618 20:1.090802 21:-1.078221 22:-1.479772 23:0.182756 24:1.089815 25:-2.019158 26:-0.628478 27:-1.920041 28:-0.133868 29:-0.655809 30:-0.011664 31:0.272497 32:-0.587019 33:0.458688 34:0.854888 35:-0.123517
-1 1:-0.341091 2:0.923937 3:1.191026 4:-0.369805 5:0.397466 6:0.938397 7:-0.204062 8:1.958559 9:0.244925 10:0.817135 11:0.645123 12:-1.397175 13:0.824703 14:0.977631 15:1.054657 16:-1.353237 17:0.386607 18:-1.601058 19:2.667098 20:0.132405 21:-1.666976 22:1.674811 23:0.108865 24:0.193379 25:-1.584550 26:-0.485606 27:0.973403 28:0.289856 29:-0.122450 30:1.495956 31:-0.314347 32:-0.219371 33:-0.257232 34:0.406916 35:0.231066
-1 1:-0.616308 2:-0.033552 3:1.235863 4:1.390508 5:-1.005372 6:-1.913566 7:0.571639 8:-0.427495 9:-0.733326 10:-0.747094 11:-1.181351 12:0.971420 13:-1.187040 14:0.513958 15:-1.496078 16:1.707494 17:0.447399 18:-0.962770 19:-1.235070 20:1.754424 21:-0.633264 22:-1.004511 23:0.136940 24:0.558745 25:0.377178 26:-0.553216 27:0.100443 28:-0.728482 29:-0.462409 30:-0.637685 31:0.396451 32:-0.940322 33:-0.247510 34:0.467015 35:-0.331731
-1 1:-0.675138 2:-0.743071 3:0.272222 4:-0.094474 5:1.494374 6:0.207889 7:0.938985 8:-0.134322 9:-0.673035 10:0.535056 11:0.395343 12:-0.586691 13:-0.360821 14:-0.053886 15:-1.317826 16:-0.397552 17:0.473899 18:-0.739854 19:-1.652174 20:-0.190807 21:-0.746215 22:1.496227 23:-0.250399 24:-0.344779 25:-0.945479 26:0.247848 27:-1.590224 28:-1.650649 29:1.331367 30:-0.790847 31:-0.264816 32:1.154375 33:0.057948 34:-0.494725 35:-0.133362
-1 1:-0.942414 2:-1.111258 3:0.645153 4:0.654767 5:-1.059326 6:0.925898 7:-0.111516 8:0.698570 9:1.317701 10:1.520898 11:0.410691 12:0.869822 13:-1.143712 14:0.996775 15:-0.516587 16:-1.689900 17:-0.138572 18:-0.083833 19:0.431095 20:-0.103656 21:0.060726 22:1.738143 23:-0.616053 24:-0.186940 25:-0.906244 26:-0.381652 27:1.792229 28:1.586369 29:1.464553 30:1.011527 31:0.228002 32:0.085711 33:-1.694166 34:1.466658 35:0.953429
-1 1:-0.153136 2:-0.242573 3:2.521998 4:0.105284 5:-0.684828 6:0.112275 7:-0.083040 8:-1.590174 9:-0.125287 10:-0.015588 11:0.639704 12:0.671693 13:1.666899 14:-0.656826 15:1.328624 16:-0.003430 17:-0.612617 18:0.550684 19:-1.144752 20:-1.646822 21:1.493052 22:0.780414 23:0.449202 24:0.705249 25:1.147885 26:-1.434830 27:2.273672 28:-1.437316 29:0.327168 30:-1.078582 31:0.556143 32:0.329944 33:0.376609 34:-1.686938 35:0.120884
-1 1:0.812672 2:-1.069184 3:0.317264 4:-1.812809 5:-1.340336 6:-0.777367 7:-0.708305 8:-1.215932 9:-0.482250 10:-0.365859 11:0.406030 12:1.284612 13:1.414088 14:-1.248628 15:0.014652 16:1.299905 17:-0.869643 18:0.148089 19:1.212006 20:-1.087716 21:-1.465369 22:-0.277555 23:-0.516837 24:-1.850468 25:-0.103045 26:-1.017315 27:-0.209767 28:1.838332 29:0.739375 30:1.197310 31:1.752749 32:-0.152144 33:-1.086692 34:-0.053110 35:1.178250
-1 1:-0.102103 2:-0.214288 3:-0.127480 4:-0.940253 5:-0.100604 6:-1.384703 7:-0.254731 8:0.345101 9:-1.422277 10:0.270825 11:-1.577795 12:-0.833936 13:-0.365039 14:0.007741 15:-1.706668 16:-0.207336 17:-0.148976 18:1.212408 19:-1.057491 20:0.615493 21:0.615421 22:-0.566723 23:-0.329852 24:-0.830427 25:1.323292 26:0.504266 27:0.256573 28:1.477027 29:0.102511 30:-1.237207 31:1.441371 32:-1.611757 33:-1.781796 34:-1.461735 35:2.370261
-1 1:0.223129 2:-0.247359 3:-0.096215 4:2.155435 5:2.219699 6:0.267991 7:-0.153523 8:-0.177882 9:1.895504 10:0.582613 11:-0.510511 12:0.304420 13:-1.832204 14:-0.014453 15:-0.041871 16:1.530286 17:-1.454300 18:0.250868 19:1.222758 20:-0.581039 21:1.886023 22:0.865171 23:-0.634547 24:-1.766899 25:-1.608720 26:0.339584 27:2.162879 28:0.357430 29:-0.722208 30:0.840666 31:0.931941 32:0.806161 33:1.082393 34:1.467176 35:-0.726203
-1 1:0.288243 2:-0.701525 3:-0.539555 4:0.276928 5:-0.450042 6:-1.978734 7:0.106387 8:-0.541269 9:0.554920 10:0.627565 11:0.942733 12:1.088594 13:0.652762 14:-1.010364 15:0.501394 16:-0.467119 17:-0.577595 18:0.518797 19:0.773376 20:-0.003986 21:-0.428975 22:0.693266 23:2.164321 24:0.018215 25:-1.309278 26:0.278310 27:0.293460 28:-0.285608 29:-0.761939 30:-0.760511 31:-1.622548 32:1.598295 33:0.966494 34:-1.501199 35:-1.231858
-1 1:0.147195 2:-0.778468 3:-0.905359 4:0.637243 5:-2.174773 6:0.755518 7:-0.629327 8:-0.647111 9:0.141200 10:-0.688753 11:-1.510616 12:0.447099 13:-0.397706 14:-0.306126 15:-0.888952 16:0.324875 17:-0.437021 18:0.504401 19:-0.245046 20:1.495630 21:0.669818 22:-0.703177 23:-0.403615 24:-0.256227 25:-0.448609 26:0.583770 27:-1.053236 28:-0.374439 29:1.202654 30:-0.343345 31:-0.560939 32:0.899548 33:0.352165 34:-0.249188 35:0.192426
-1 1:0.548004 2:-0.816183 3:0.848116 4:-1.316574 5:0.515192 6:1.851891 7:-0.160979 8:-1.233104 9:1.260279 10:2.135460 11:-1.556936 12:-0.281985 13:-1.664084 14:2.005196 15:-1.334721 16:0.251240 17:-0.505824 18:0.554689 19:-0.772161 20:0.948491 21:0.224037 22:1.015009 23:0.628734 24:-0.399942 25:-0.020011 26:-1.379728 27:0.322536 28:2.462256 29:-0.204381 30:0.696668 31:-0.211935 32:0.554605 33:-0.289521 34:-0.380144 35:0.230675
-1 1:0.343470 2:0.736898 3:0.070083 4:0.451230 5:-1.858865 6:0.352940 7:0.356064 8:-0.005417 9:0.328299 10:-1.743623 11:-2.075571 12:0.151365 13:0.132932 14:-0.712356 15:0.002952 16:1.848160 17:1.030145 18:1.301380 19:-0.033403 20:0.411092 21:-0.186024 22:-0.924833 23:0.665102 24:-0.923812 25:0.177650 26:1.294680 27:-0.444037 28:1.005858 29:0.590467 30:1.073033 31:0.820893 32:-1.648009 33:-0.595281 34:-0.206324 35:2.314118
-1 1:-0.218427 2:-1.693560 3:-0.102462 4:-1.621280 5:0.086475 6:0.069897 7:-0.356657 8:-1.172031 9:-0.582461 10:0.770292 11:-0.774411 12:-0.268813 13:-1.251962 14:0.837458 15:-0.256499 16:1.133163 17:-1.460335 18:0.842244 19:-1.885146 20:0.304632 21:0.035893 22:-0.454765 23:0.093865 24:0.364302 25:-1.042723 26:0.409349 27:-1.560267 28:0.229462 29:1.122856 30:-1.540601 31:3.114332 32:0.700942 33:-2.006922 34:-0.093884 35:-0.315275
-1 1:1.487908 2:1.620579 3:-0.373500 4:0.043591 5:-2.019610 6:-0.024737 7:-1.141566 8:0.779362 9:1.434020 10:0.342082 11:-0.526604 12:0.587190 13:0.078970 14:-0.194698 15:0.039870 16:1.084508 17:-0.138501 18:0.302306 19:-0.275607 20:-1.034949 21:1.249933 22:-1.564744 23:-0.898052 24:-0.806717 25:0.398675 26:-0.352661 27:-0.783319 28:0.159457 29:-0.139096 30:1.106682 31:-0.524412 32:-2.485841 33:0.221960 34:1.349549 35:0.063441
-1 1:-1.335962 2:1.725558 3:1.155453 4:-0.309167 5:-0.162444 6:0.257700 7:0.418290 8:0.168743 9:-0.132515 10:1.293230 11:-1.256693 12:0.282652 13:2.117657 14:2.222100 15:-0.486583 16:-0.215557 17:0.719136 18:0.231744 19:-0.060547 20:-0.698175 21:0.313710 22:0.353696 23:0.642035 24:-0.322777 25:0.181349 26:-0.896320 27:-0.422956 28:-0.502002 29:1.570102 30:1.015133 31:0.964690 32:-0.759192 33:-0.437199 34:-1.559428 35:1.091194
-1 1:-0.825527 2:0.631829 3:0.038021 4:-1.389449 5:-1.559037 6:1.026524 7:1.062324 8:-0.817819 9:-0.849012 10:-2.687874 11:-1.728225 12:-0.300338 13:-0.476665 14:-1.248461 15:-0.472749 16:-0.276349 17:1.374272 18:0.245165 19:0.099490 20:-0.740670 21:-1.121221 22:1.034828 23:3.467541 24:-1.336957 25:0.803765 26:1.376725 27:-1.668550 28:0.768134 29:-0.036731 30:0.719913 31:-1.055704 32:-0.986150 33:-0.500141 34:0.125136 35:0.749371
-1 1:1.325609 2:1.108462 3:-1.411620 4:0.131453 5:-1.012267 6:0.094313 7:2.631465 8:1.311943 9:-0.255892 10:-0.108116 11:0.164595 12:-0.722858 13:0.307995 14:0.230363 15:2.615313 16:-1.388081 17:-0.891843 18:0.188233 19:1.072016 20:-1.207303 21:0.778183 22:-0.078558 23:-1.071849 24:-0.814931 25:0.278661 26:-0.495575 27:0.504205 28:0.172691 29:0.239506 30:-0.632341 31:1.639148 32:1.489573 33:0.102070 34:-0.502179 35:-0.979739
-1 1:-0.672055 2:1.673686 3:-1.873836 4:-0.213828 5:-0.763517 6:0.864091 7:0.524751 8:0.849439 9:0.796085 10:0.517445 11:-0.818650 12:1.567327 13:-0.730074 14:1.556517 15:1.019770 16:1.226678 17:2.036915 18:-1.692374 19:1.450472 20:-0.058821 21:-1.371691 22:2.728458 23:1.268034 24:2.772210 25:-0.542876 26:-1.747863 27:-1.018562 28:-0.964681 29:-1.351307 30:-1.475323 31:0.144611 32:-0.819296 33:2.100076 34:0.209548 35:0.370848
-1 1:0.932557 2:0.095087 3:-0.434705 4:0.590835 5:0.419866 6:0.521704 7:0.370813 8:1.082266 9:-0.491240 10:-1.087826 11:1.246859 12:0.130527 13:1.410912 14:1.051697 15:-0.643464 16:-0.037722 17:-0.386528 18:1.108912 19:0.666225 20:0.698837 21:-0.078417 22:-0.649056 23:0.090888 24:0.619640 25:0.345841 26:0.682482 27:1.248499 28:-0.274310 29:0.554280 30:-1.840633 31:-0.612990 32:0.784865 33:-0.464834 34:0.128065 35:0.870903
-1 1:1.433839 2:-0.433402 3:-0.323376 4:0.351518 5:0.814802 6:-0.007601 7:1.033831 8:1.042155 9:-1.596312 10:-1.373519 11:-0.217110 12:0.235245 13:-0.660060 14:0.346865 15:-0.872958 16:-0.279232 17:2.430977 18:0.440175 19:0.214741 20:1.686467 21:-0.744523 22:0.909991 23:0.462518 24:1.351308 25:0.247126 26:-0.651337 27:-0.686192 28:1.480164 29:0.407228 30:0.961001 31:0.392248 32:0.255062 33:-0.427032 34:1.259278 35:-1.236813
-1 1:-1.060407 2:0.458894 3:-0.064205 4:-0.361556 5:0.890859 6:-1.217500 7:-0.854493 8:0.604961 9:0.881951 10:0.577978 11:1.311850 12:0.526018 13:0.196664 14:0.186124 15:0.850502 16:-0.243914 17:0.187865 18:0.455200 19:0.473267 20:1.026063 21:-0.890266 22:-1.088812 23:-1.691445 24:-0.480788 25:-0.593863 26:1.273993 27:0.461925 28:0.398724 29:-0.984431 30:-1.089048 31:1.509766 32:-0.274647 33:0.425749 34:-0.715229 35:1.202685
-1 1:0.369078 2:0.415188 3:-0.347320 4:-0.547828 5:1.112023 6:0.233992 7:2.181825 8:-0.186681 9:-0.513553 10:-1.687846 11:0.033761 12:-0.018213 13:-0.453704 14:0.448492 15:-0.300851 16:-1.379869 17:0.272904 18:0.900969 19:-1.358704 20:-1.432366 21:1.532969 22:-0.804445 23:-1.618135 24:0.239979 25:1.745185 26:-0.978415 27:0.742728 28:-2.130292 29:0.538618 30:0.121616 31:-0.498074 32:-0.368975 33:0.343155 34:0.129469 35:-1.163564
-1 1:0.124604 2:-0.402085 3:-1.068859 4:2.269821 5:-0.108917 6:-1.832330 7:-1.140524 8:0.018256 9:-0.463539 10:0.202401 11:-1.129203 12:0.451875 13:-0.038375 14:-0.092788 15:0.466158 16:-0.176151 17:-0.134995 18:-0.766384 19:-0.025690 20:-0.776360 21:-1.025512 22:-0.373551 23:-0.063719 24:1.032689 25:1.252201 26:0.996151 27:0.752366 28:-0.499848 29:0.532934 30:-0.118460 31:-1.025312 32:0.213324 33:0.988061 34:-1.752145 35:-1.437973
-1 1:0.355863 2:0.334451 3:-0.746200 4:-0.868004 5:1.284431 6:-0.152425 7:-0.231746 8:0.350678 9:-1.499506 10:1.220837 11:2.691242 12:-2.767256 13:1.894785 14:1.629806 15:0.629655 16:0.276697 17:-0.637964 18:2.043991 19:-1.446206 20:-0.831874 21:-1.382702 22:0.322395 23:-0.928933 24:0.718105 25:0.173669 26:0.916351 27:0.756669 28:-0.085821 29:1.310056 30:-0.652523 31:0.127471 32:0.631960 33:0.918579 34:0.366617 35:-1.779035
-1 1:1.042643 2:2.507456 3:0.779402 4:1.119589 5:0.175918 6:-0.999195 7:0.582377 8:-0.118776 9:2.180310 10:0.233147 11:0.803035 12:2.477543 13:0.498435 14:-0.311363 15:-0.065390 16:-0.053681 17:-1.155553 18:-0.475288 19:-0.490718 20:-0.131818 21:0.852198 22:-1.170024 23:-1.018206 24:1.343689 25:-1.167234 26:-0.665691 27:-0.513380 28:0.236116 29:0.796120 30:-0.159071 31:-0.009122 32:1.225747 33:-2.260779 34:0.261476 35:0.547414
-1 1:0.674199 2:0.526425 3:1.508915 4:-1.079352 5:-0.897043 6:-1.049676 7:0.585186 8:0.392039 9:0.356340 10:-0.178273 11:1.050587 12:-0.232819 13:-0.180253 14:-0.048657 15:-2.037181 16:-0.222975 17:-0.307113 18:-1.075902 19:-0.145443 20:0.008258 21:0.466107 22:0.268604 23:0.496868 24:2.927156 25:0.555769 26:-0.021469 27:0.637432 28:0.365667 29:-0.686345 30:0.463034 31:0.106065 32:1.759306 33:-0.765195 34:0.648661 35:-0.645141
-1 1:-0.568874 2:0.551472 3:-0.876849 4:-0.442823 5:-0.064076 6:1.254512 7:1.831686 8:0.027525 9:1.047387 10:1.866311 11:-0.876392 12:-0.350252 13:-0.467869 14:0.267980 15:-0.882335 16:-0.140656 17:0.059912 18:0.447270 19:-1.563012 20:-1.791225 21:-0.297401 22:1.219470 23:0.595694 24:1.361532 25:1.078982 26:-0.748613 27:1.123595 28:1.273226 29:-0.062236 30:0.587263 31:0.175076 32:0.560941 33:-0.407259 34:-1.406856 35:-1.401056
-1 1:0.611189 2:-0.781495 3:-1.490575 4:-1.184373 5:-1.369488 6:-0.496985 7:-0.259037 8:1.285659 9:0.983196 10:-0.844500 11:0.648946 12:0.884195 13:-0.373014 14:0.688343 15:-0.220503 16:-1.354093 17:1.209539 18:-0.264051 19:-0.812244 20:0.241363 21:0.606015 22:0.059615 23:0.148815 24:1.496891 25:0.574164 26:-0.640430 27:0.410232 28:-0.315896 29:0.262806 30:0.624292 31:0.067093 32:-0.100177 33:-0.804415 34:-0.052061 35:1.045289
-1 1:0.185668 2:-0.737881 3:0.238371 4:-2.165523 5:-0.742007 6:0.948284 7:-1.592211 8:0.716263 9:1.583515 10:-1.310487 11:1.402229 12:0.164216 13:1.089928 14:1.206651 15:-0.372761 16:0.630383 17:-0.290272 18:2.216320 19:-0.306243 20:-0.536901 21:1.621369 22:-1.164338 23:-0.117287 24:1.422263 25:-0.185763 26:0.669796 27:-0.120782 28:-1.147286 29:-0.044079 30:0.795637 31:-2.645418 32:0.704126 33:-1.829794 34:1.379130 35:0.227513
-1 1:0.291959 2:-0.580381 3:-2.397537 4:-1.361659 5:-1.680841 6:1.344842 7:0.172821 8:0.471936 9:-0.889597 10:0.671288 11:-1.473121 12:-0.414132 13:-2.305404 14:-1.875674 15:0.052062 16:1.105196 17:1.695400 18:0.160061 19:0.404127 20:0.215652 21:0.880087 22:0.942464 23:-2.061533 24:-1.531111 25:-0.974476 26:-0.353671 27:-0.197333 28:0.143378 29:1.080007 30:0.594564 31:-0.200016 32:1.454190 33:-0.349343 34:1.454890 35:-0.288121
-1 1:-0.504787 2:-1.302259 3:-1.739173 4:1.681859 5:2.186812 6:-0.690798 7:-2.805392 8:-0.028547 9:-1.099186 10:0.696002 11:-0.032845 12:-0.734730 13:-0.097086 14:-0.121053 15:-0.152705 16:-0.314450 17:1.539932 18:0.584469 19:-1.730412 20:1.279485 21:-0.602815 22:1.872187 23:-0.503414 24:-0.073281 25:1.906867 26:-0.520511 27:0.005716 28:-0.932020 29:0.712486 30:-0.199899 31:-0.627290 32:0.425480 33:-0.830658 34:0.427331 35:0.808736
-1 1:-0.135950 2:-0.341727 3:1.453629 4:-1.487904 5:-1.825135 6:-0.502048 7:-0.197391 8:-0.750747 9:-1.372170 10:-0.501846 11:0.140640 12:0.550238 13:1.202487 14:-1.214592 15:-2.145972 16:-1.493922 17:0.499343 18:-1.318313 19:2.316861 20:-0.790896 21:-0.036828 22:0.033496 23:-1.026993 24:-0.524913 25:0.571827 26:0.859521 27:0.370869 28:0.851674 29:0.647163 30:0.391164 31:2.068757 32:0.421645 33:1.150186 34:0.670018 35:-0.614230
-1 1:-1.731606 2:0.061545 3:1.812150 4:-0.397011 5:1.810264 6:-0.100909 7:-1.482031 8:-0.712893 9:-0.107262 10:0.449613 11:0.766771 12:0.435737 13:1.890644 14:1.053936 15:0.388046 16:1.016877 17:-0.347477 18:0.883199 19:0.463625 20:0.025907 21:-0.958367 22:1.955677 23:0.412395 24:0.293680 25:1.367644 26:-0.625927 27:0.905552 28:0.276114 29:-1.548538 30:-0.574076 31:-1.347336 32:0.587681 33:-0.587478 34:0.418783 35:0.136004
-1 1:0.409454 2:-0.594580 3:-1.035862 4:1.107436 5:-0.228757 6:0.763572 7:1.233680 8:-0.457113 9:-0.079034 10:-1.276523 11:-0.183931 12:-1.099210 13:0.312733 14:-1.191462 15:1.139687 16:-1.120149 17:-2.079185 18:-0.862178 19:-0.667003 20:1.376004 21:-0.554595 22:-0.021066 23:0.567848 24:0.366506 25:-0.791777 26:-1.046351 27:-0.282438 28:-2.076612 29:0.155597 30:0.783409 31:-1.436989 32:1.053619 33:-0.472340 34:0.780931 35:-0.939066
-1 1:1.261461 2:-0.343103 3:-0.173677 4:1.672789 5:1.243115 6:-0.233489 7:1.578749 8:0.438475 9:-1.609096 10:0.112261 11:-1.087586 12:0.498827 13:-0.097995 14:0.871144 15:-0.130101 16:0.803345 17:0.812514 18:0.430760 19:-1.672704 20:0.389170 21:-0.588217 22:-0.963881 23:-0.867177 24:0.535432 25:1.668320 26:-0.199420 27:1.720960 28:0.070018 29:-0.219356 30:0.124250 31:1.125221 32:-1.090329 33:1.290466 34:0.480999 35:-1.397733
-1 1:-1.181090 2:-1.425725 3:0.389360 4:0.311171 5:0.652304 6:1.913769 7:-0.292122 8:-1.286805 9:-1.473548 10:0.243339 11:0.731796 12:0.840031 13:1.035486 14:0.524767 15:-0.916361 16:0.115302 17:0.415169 18:-0.311577 19:-0.320172 20:-0.330495 21:1.281522 22:-1.368921 23:0.503594 24:-0.199473 25:-1.054827 26:-2.172083 27:-1.083371 28:-2.497441 29:0.437997 30:0.701682 31:0.161349 32:-1.271258 33:0.385311 34:-0.120568 35:1.438418
-1 1:1.748177 2:0.924589 3:-0.837343 4:0.337168 5:0.106369 6:-1.199966 7:-0.171276 8:1.151664 9:-0.933306 10:-0.467663 11:-1.956246 12:0.083645 13:2.477497 14:0.665568 15:-2.694392 16:0.828395 17:1.077219 18:0.126163 19:-2.090142 20:0.120244 21:0.559815 22:-1.031440 23:0.479889 24:1.127351 25:1.821024 26:0.074079 27:-0.200732 28:-2.084729 29:0.600987 30:-0.383246 31:0.753414 32:0.782056 33:0.673681 34:2.051150 35:1.108436
-1 1:-0.882209 2:2.370069 3:-0.502257 4:0.506667 5:0.330997 6:-0.669373 7:0.144623 8:1.552010 9:-0.048032 10:0.439673 11:0.078265 12:0.545112 13:1.471882 14:-0.484759 15:0.879049 16:0.305853 17:-1.217084 18:0.638294 19:0.695554 20:-0.803552 21:0.457982 22:0.412219 23:1.124762 24:-1.152840 25:-0.362350 26:-0.008120 27:0.599940 28:2.424805 29:-1.185833 30:1.690961 31:1.027574 32:0.346384 33:0.973944 34:0.025582 35:2.101138
-1 1:-0.562574 2:0.677865 3:1.808530 4:0.779154 5:-0.376473 6:-0.481010 7:-0.633205 8:0.101479 9:-0.581043 10:-0.203907 11:1.920269 12:-2.367705 13:0.334317 14:0.629537 15:0.721077 16:-2.472303 17:-0.244489 18:0.267210 19:0.447920 20:0.109314 21:1.831844 22:1.020707 23:-0.866681 24:-1.337782 25:0.352110 26:1.175316 27:-0.521385 28:-0.433451 29:-0.288374 30:-0.983552 31:1.601954 32:-0.002356 33:0.281947 34:-0.892910 35:-0.438681
-1 1:0.983307 2:0.031493 3:1.174629 4:3.424875 5:-0.034322 6:-0.632384 7:0.096027 8:0.174484 9:-0.743054 10:1.517554 11:-1.049381 12:1.083773 13:-0.628173 14:1.306426 15:-0.220144 16:0.118864 17:1.009362 18:0.499112 19:0.643196 20:-0.913941 21:-1.939612 22:-0.384842 23:1.330860 24:-1.821139 25:0.505488 26:0.718621 27:-0.808354 28:0.490337 29:-2.066470 30:0.636130 31:-1.280809 32:-0.115617 33:0.085980 34:-0.398993 35:-0.749053
-1 1:-1.442570 2:1.692295 3:-0.101403 4:0.973478 5:-0.658657 6:-1.330034 7:0.158225 8:0.737795 9:-0.001966 10:-0.058256 11:-0.397101 12:0.380954 13:1.589396 14:0.010819 15:0.118241 16:-1.541830 17:-1.090165 18:-0.090512 19:-1.832453 20:0.606767 21:-0.922441 22:0.101769 23:-0.491933 24:-0.454028 25:0.537715 26:0.083507 27:1.695738 28:1.907465 29:1.012820 30:0.823797 31:1.016150 32:-1.334086 33:1.125151 34:-0.238550 35:0.354924
-1 1:-3.330195 2:-1.752956 3:0.907623 4:0.024718 5:-0.045531 6:0.029779 7:2.169831 8:0.164515 9:0.388058 10:-0.681685 11:1.190899 12:3.104075 13:-0.187207 14:0.058078 15:-1.036751 16:-0.634490 17:0.312172 18:-0.206953 19:-2.119681 20:-0.477681 21:-1.180759 22:1.197961 23:-0.938659 24:2.110855 25:0.180622 26:0.229024 27:0.663379 28:1.150232 29:1.142584 30:1.492515 31:-0.670083 32:0.501325 33:-0.479721 34:-1.440283 35:-0.205554
-1 1:0.580278 2:1.683341 3:1.446434 4:-2.041928 5:-0.888149 6:0.154977 7:-2.237778 8:0.821944 9:-0.718776 10:0.167108 11:1.067579 12:-0.159242 13:-0.682383 14:-0.963429 15:1.597335 16:0.368756 17:-1.179719 18:-0.417745 19:-0.268730 20:1.170995 21:0.322761 22:-0.654786 23:-0.390738 24:-0.877132 25:1.192787 26:0.077215 27:0.824567 28:-0.170440 29:-0.328812 30:1.406115 31:-0.526645 32:-1.589642 33:0.828793 34:1.844714 35:1.109583
-1 1:-1.858537 2:1.761383 3:0.134877 4:0.527702 5:-0.922982 6:-0.926583 7:0.312303 8:0.056084 9:-1.117894 10:-1.671931 11:-0.272908 12:-0.205843 13:-0.453964 14:1.835943 15:0.004229 16:-0.866203 17:0.461706 18:-1.325883 19:-1.051407 20:1.080395 21:-1.757898 22:-0.698674 23:-1.834949 24:-0.376632 25:0.388429 26:-1.226578 27:-0.881884 28:1.011612 29:-1.121167 30:-1.369111 31:-1.032910 32:0.890519 33:-0.011078 34:-0.047059 35:-0.803582
-1 1:-0.571873 2:0.032883 3:-0.007689 4:0.699704 5:-0.046632 6:0.998278 7:-1.163031 8:1.002365 9:-0.550616 10:-0.206710 11:-0.175560 12:-0.504399 13:-0.640058 14:-0.082063 15:0.814203 16:2.263261 17:1.119663 18:0.264206 19:0.479696 20:0.312699 21:0.909127 22:-0.057965 23:1.087899 24:-0.167179 25:0.926190 26:-0.335096 27:0.231368 28:0.135357 29:2.102640 30:0.662531 31:0.195311 32:0.724723 33:0.917493 34:1.742831 35:0.903485
-1 1:-0.486979 2:-1.092522 3:0.218916 4:-0.153069 5:0.152770 6:0.411781 7:0.424586 8:0.128531 9:-0.840866 10:0.717452 11:-0.024981 12:1.817631 13:-0.069578 14:-0.193227 15:0.198771 16:-0.358374 17:-0.088155 18:-0.835132 19:0.553999 20:0.393973 21:0.520233 22:0.259549 23:1.339477 24:-0.840242 25:-1.200272 26:0.390540 27:-0.638177 28:0.301507 29:0.283879 30:1.681474 31:0.905343 32:-0.111743 33:-0.302033 34:-0.694256 35:0.348179
-1 1:-1.774891 2:-0.776983 3:0.499895 4:1.235600 5:0.609709 6:-0.105942 7:-0.839555 8:-0.573500 9:-0.158626 10:0.138617 11:0.514907 12:0.835917 13:0.099002 14:1.689961 15:-1.420149 16:-0.379724 17:0.807275 18:0.120163 19:-0.236857 20:0.041497 21:1.223578 22:2.058204 23:-1.236008 24:-1.405023 25:-1.170146 26:-1.417773 27:0.200797 28:-1.096488 29:-0.664231 30:1.302658 31:-0.008004 32:-0.427970 33:0.191846 34:0.080234 35:0.954029
-1 1:-0.406316 2:-0.305037 3:-1.696106 4:0.634029 5:0.460032 6:0.354151 7:-0.528265 8:-0.680565 9:0.678106 10:-0.917127 11:0.348555 12:-0.035583 13:-1.390352 14:-0.399796 15:-0.942954 16:0.377044 17:-0.915185 18:0.102236 19:-1.527802 20:-0.951068 21:-1.863374 22:1.182055 23:-0.987239 24:1.328879 25:-0.395500 26:0.601888 27:0.285190 28:1.093043 29:0.875019 30:-1.821844 31:1.486550 32:0.244189 33:0.191700 34:-0.017075 35:0.283117
-1 1:0.091079 2:-1.770878 3:1.313861 4:-0.027686 5:0.217504 6:-2.197389 7:0.249556 8:-0.572335 9:-1.252780 10:0.523208 11:-0.147991 12:-0.476512 13:0.105524 14:0.115927 15:0.619319 16:0.251854 17:0.870261 18:0.346373 19:0.009860 20:-0.424971 21:-0.539015 22:-0.966674 23:1.364540 24:1.917817 25:1.652581 26:-0.966031 27:-0.542440 28:0.856422 29:-1.375091 30:-0.053840 31:1.002921 32:-1.614592 33:-0.064449 34:-1.015477 35:0.448255
-1 1:2.089833 2:0.817086 3:0.048670 4:-1.274011 5:-0.331093 6:1.529292 7:-0.961273 8:-0.298431 9:0.147623 10:-0.628313 11:-0.543759 12:0.225715 13:0.303443 14:0.224760 15:1.561699 16:0.780910 17:-1.161624 18:-0.706278 19:-0.882046 20:-0.998231 21:-0.429485 22:0.136604 23:0.589043 24:0.277420 25:-0.139471 26:-0.015349 27:-1.412744 28:0.171589 29:0.395375 30:0.147857 31:0.578692 32:0.287609 33:1.230721 34:-0.040278 35:-2.012823
-1 1:2.095399 2:0.045075 3:0.457604 4:0.539929 5:1.133052 6:0.009477 7:-0.308543 8:1.049434 9:-0.217792 10:0.117688 11:-1.018122 12:-0.127982 13:1.146388 14:-0.693045 15:0.525571 16:0.391488 17:-1.626713 18:0.061443 19:0.270919 20:0.487868 21:0.126503 22:0.132173 23:-0.689362 24:-0.453178 25:0.655965 26:-0.993480 27:-0.287338 28:-0.662242 29:1.353093 30:1.409488 31:-0.022180 32:0.400638 33:0.094700 34:0.552520 35:-0.255854
-1 1:-1.438203 2:1.279602 3:-0.301660 4:-1.153577 5:-0.390692 6:-0.003472 7:-0.689694 8:0.231145 9:1.583016 10:0.405801 11:0.744879 12:0.358194 13:-0.261025 14:-0.419235 15:0.825121 16:-0.514013 17:-0.240834 18:0.232646 19:1.050697 20:0.210995 21:0.061627 22:1.719810 23:-1.127704 24:1.914455 25:-1.236179 26:0.477240 27:-0.354581 28:1.892151 29:0.575645 30:1.444448 31:-0.917290 32:-0.892005 33:0.836675 34:-1.328676 35:-0.280417
-1 1:-0.127162 2:-0.482256 3:0.678515 4:-0.832919 5:0.201514 6:-1.341706 7:-0.719779 8:-1.630315 9:-0.368674 10:-0.600947 11:0.686435 12:-0.271291 13:0.739641 14:0.906652 15:-0.511553 16:-1.947181 17:0.489931 18:-0.836549 19:-2.019046 20:-1.559888 21:-0.971638 22:-0.453502 23:-0.679715 24:0.445271 25:-0.988263 26:-0.450524 27:1.187714 28:-0.700535 29:0.169262 30:0.776382 31:0.950130 32:-0.801932 33:0.764832 34:-1.274231 35:-0.808022
-1 1:0.702469 2:-2.349859 3:0.474113 4:-0.780625 5:1.734213 6:-0.952126 7:1.207556 8:-0.867134 9:-0.683055 10:-0.451145 11:0.170760 12:-1.179879 13:0.404276 14:-0.559399 15:-2.101269 16:1.934766 17:-0.905062 18:0.578199 19:0.651657 20:-1.170305 21:0.446614 22:1.804419 23:-0.801937 24:0.586199 25:0.978758 26:-0.615820 27:0.336814 28:0.356634 29:1.484086 30:-0.432580 31:0.220200 32:1.831211 33:-1.351258 34:-0.458476 35:-0.157931
-1 1:0.155098 2:0.981407 3:-0.575823 4:2.188493 5:-0.531823 6:0.280707 7:-0.282432 8:0.593734 9:-1.981593 10:-2.119530 11:1.381347 12:1.794086 13:-0.458587 14:-0.790033 15:0.964583 16:-0.544570 17:-1.451752 18:-1.250909 19:0.275099 20:-1.702920 21:-0.651560 22:-1.063502 23:1.696311 24:-1.361481 25:-0.726623 26:-0.764234 27:-0.257708 28:1.529600 29:-1.416738 30:1.222324 31:0.371951 32:1.348597 33:-1.092056 34:1.000781 35:-1.301090
-1 1:0.328320 2:-0.871122 3:-0.199536 4:2.218839 5:-2.017117 6:-1.122599 7:0.837809 8:-1.381861 9:-1.317358 10:-0.932457 11:0.719617 12:0.502268 13:-1.162812 14:-1.826817 15:0.217560 16:0.070033 17:1.141452 18:-0.775238 19:0.464604 20:-0.838931 21:-0.223804 22:-0.470266 23:0.667634 24:-2.535123 25:0.571055 26:0.425114 27:-0.390764 28:-0.545832 29:0.288431 30:0.008763 31:-2.771638 32:-1.499056 33:1.241039 34:0.053100 35:0.482787
-1 1:1.312976 2:-2.395776 3:-0.496891 4:-0.827265 5:2.913431 6:-0.169429 7:-1.029752 8:0.175591 9:-0.353378 10:0.458098 11:-0.494119 12:-0.681978 13:-0.189879 14:-0.734720 15:1.081946 16:-0.199432 17:2.040970 18:-0.081189 19:0.217726 20:1.785780 21:-2.032925 22:-1.335753 23:1.223255 24:-0.161055 25:1.038466 26:-0.342234 27:0.860341 28:-1.145786 29:-0.707623 30:0.428105 31:-0.492475 32:2.759057 33:-0.116733 34:-1.379666 35:0.648911
-1 1:0.109005 2:-0.068062 3:-2.000622 4:-0.763364 5:-1.329273 6:0.600402 7:0.272322 8:0.197214 9:0.853770 10:-2.054636 11:-0.985473 12:2.004158 13:-0.932073 14:1.940578 15:-1.480870 16:-1.512519 17:1.324683 18:0.117153 19:0.041852 20:-0.464136 21:-0.372637 22:0.884788 23:-0.033209 24:-0.386457 25:0.372745 26:1.175919 27:-2.109970 28:0.186259 29:0.567119 30:0.699624 31:0.719437 32:-0.108738 33:1.249014 34:-0.951373 35:-0.788474
-1 1:-0.223897 2:-1.011729 3:-0.566061 4:-1.486017 5:0.125268 6:-0.884694 7:0.041891 8:-0.458380 9:2.022644 10:-0.321120 11:-1.681588 12:-0.148349 13:-0.328180 14:-0.759569 15:-0.350376 16:-0.156962 17:-0.404163 18:-1.480512 19:-0.566485 20:-0.049484 21:0.102401 22:0.063814 23:-0.435242 24:0.153430 25:-1.508931 26:2.156798 27:-0.196900 28:0.498791 29:-0.415557 30:1.099804 31:1.497096 32:-0.218532 33:-1.723232 34:-0.288810 35:0.084886
-1 1:0.492091 2:-1.445134 3:0.892218 4:0.230876 5:-0.569582 6:-0.140562 7:0.725711 8:1.402657 9:0.066025 10:-0.143836 11:-0.863844 12:-0.357856 13:-0.120864 14:0.794061 15:-0.570562 16:0.848837 17:-1.963761 18:-0.388118 19:-0.110560 20:1.105725 21:0.799389 22:-0.288683 23:0.877017 24:-0.581658 25:-0.078281 26:0.387912 27:2.650173 28:-0.380475 29:-0.785881 30:-0.724513 31:-1.456820 32:0.388441 33:0.099080 34:0.373465 35:0.437359
-1 1:0.453734 2:-2.076485 3:0.532197 4:0.995557 5:-0.465864 6:0.545137 7:0.375276 8:-0.627821 9:-0.748513 10:0.782170 11:2.426122 12:1.737306 13:0.417530 14:-1.115557 15:-0.299606 16:0.243801 17:0.045021 18:-0.096558 19:-0.942946 20:-1.750551 21:0.756910 22:0.209932 23:1.874275 24:1.150923 25:-0.696556 26:0.573820 27:-1.457922 28:0.230457 29:-2.237395 30:-1.086353 31:-1.078072 32:0.286861 33:0.023404 34:-2.185314 35:-1.465793
-1 1:1.026712 2:0.689418 3:2.474953 4:-1.406028 5:0.764218 6:-0.577922 7:-0.751741 8:-1.242936 9:-0.580203 10:0.468683 11:-0.889924 12:-0.321135 13:0.734527 14:0.938391 15:-0.278678 16:0.695791 17:1.855251 18:-1.066567 19:0.817672 20:0.003147 21:1.410464 22:-0.003561 23:0.154594 24:-1.035591 25:-2.087163 26:1.790038 27:1.425911 28:-0.156246 29:0.281113 30:1.450319 31:1.115900 32:-0.349910 33:-0.916137 34:-0.546638 35:0.842216
-1 1:-0.229381 2:0.239236 3:2.057547 4:0.648982 5:0.978804 6:0.486683 7:0.520128 8:0.565627 9:0.039328 10:-0.269670 11:-0.546098 12:-0.196934 13:-0.938378 14:0.155523 15:-1.246135 16:-1.335019 17:0.104142 18:0.717230 19:-1.221345 20:0.709413 21:-0.289456 22:-0.508132 23:-0.758329 24:-1.308498 25:-1.316973 26:-0.908385 27:0.975349 28:0.096763 29:0.004953 30:0.954709 31:0.195324 32:-0.509050 33:-0.426376 34:-2.268814 35:-0.282672
-1 1:-1.327155 2:-0.959674 3:2.454208 4:-0.099469 5:0.630288 6:0.615265 7:-1.223536 8:1.434762 9:0.968306 10:0.185856 11:0.263351 12:0.348880 13:0.747859 14:-0.360240 15:-0.456308 16:-1.145758 17:-0.633091 18:-0.567771 19:0.126158 20:0.269201 21:0.493992 22:-0.666739 23:-0.068652 24:-0.100298 25:0.154592 26:-0.336977 27:-1.980065 28:1.010802 29:-0.840463 30:0.069706 31:0.584412 32:0.392259 33:-1.249223 34:0.567350 35:-1.143038
-1 1:-1.343125 2:1.805800 3:0.241605 4:-0.430728 5:0.750423 6:-1.939858 7:1.773030 8:-2.284766 9:-0.996701 10:-1.181745 11:1.277028 12:-1.547051 13:0.889018 14:-0.552167 15:0.062809 16:0.390433 17:1.320633 18:0.224179 19:-1.242666 20:-0.317280 21:-0.279773 22:1.014470 23:1.178191 24:-0.677857 25:1.224378 26:0.222461 27:0.087334 28:-0.599180 29:0.465159 30:-0.548693 31:0.662543 32:0.388258 33:1.710763 34:1.040976 35:1.184334
-1 1:-1.973150 2:0.549405 3:1.181971 4:0.755401 5:1.162958 6:-1.549001 7:1.214118 8:-0.293659 9:0.797787 10:1.950100 11:0.355036 12:-1.538656 13:0.026796 14:-1.571107 15:0.909912 16:-0.997638 17:-2.233723 18:-0.485680 19:-2.161584 20:-2.245165 21:-1.101053 22:-0.322638 23:-1.601462 24:-1.269893 25:-1.839170 26:2.225690 27:-0.157050 28:-1.174477 29:-0.186847 30:0.042603 31:1.274344 32:1.538802 33:1.035630 34:0.388228 35:0.185742
-1 1:-0.190932 2:0.134676 3:-1.192755 4:0.451242 5:1.055709 6:0.738212 7:-0.481707 8:-1.777131 9:0.695265 10:-0.987763 11:-0.344063 12:-1.554239 13:1.661084 14:1.472906 15:-0.467167 16:-0.188145 17:-1.580774 18:-0.301139 19:2.119483 20:-0.549361 21:0.186661 22:-0.358808 23:-0.405733 24:0.865746 25:-0.438938 26:-0.728604 27:-0.008129 28:-0.217357 29:-0.092564 30:0.181479 31:0.807989 32:0.365608 33:0.243365 34:0.032723 35:-2.420273
-1 1:0.205803 2:1.286241 3:-0.807368 4:-1.148908 5:0.992607 6:-0.183524 7:-0.807122 8:0.313475 9:0.186048 10:-0.850760 11:-0.255465 12:0.004374 13:0.620020 14:2.109243 15:1.066236 16:1.700776 17:1.577005 18:-0.225012 19:-0.408504 20:0.278533 21:1.587306 22:0.924049 23:2.621094 24:-1.022089 25:0.781617 26:-1.482804 27:0.588293 28:-0.390980 29:-1.761059 30:0.814049 31:-0.456696 32:-0.696699 33:1.369215 34:0.388005 35:0.932206
-1 1:-0.531435 2:0.702773 3:-1.011867 4:-2.073881 5:-0.290651 6:0.202054 7:-2.185291 8:-1.361260 9:-0.739720 10:0.537884 11:-0.014571 12:1.267754 13:-0.192015 14:-0.747733 15:1.344762 16:0.410579 17:0.327576 18:-0.741718 19:-0.179155 20:-0.478119 21:0.383289 22:-0.385564 23:0.232092 24:0.175309 25:-0.255524 26:1.136605 27:0.819769 28:0.664328 29:0.268728 30:1.391525 31:0.469215 32:1.566265 33:1.314720 34:-0.745394 35:-0.086402
-1 1:-0.683538 2:1.238429 3:-0.108453 4:-0.534150 5:-0.028132 6:0.290882 7:-0.307129 8:0.317689 9:0.599316 10:-0.540520 11:1.030893 12:0.571251 13:0.755202 14:-1.005966 15:0.016204 16:1.384794 17:0.885206 18:-0.823461 19:-0.765626 20:2.878880 21:-0.360394 22:-0.737858 23:0.125109 24:-0.585807 25:-0.570070 26:0.395867 27:1.146852 28:-0.637006 29:0.562274 30:-0.677475 31:0.046530 32:0.236536 33:0.201014 34:-2.032932 35:0.854027
-1 1:-0.785421 2:-0.346383 3:0.337564 4:-1.252177 5:-1.947668 6:-0.592067 7:-0.266992 8:0.632876 9:-0.955440 10:-0.283514 11:-1.006544 12:0.403429 13:0.326805 14:-0.697058 15:-0.215041 16:-1.201874 17:-0.044325 18:1.081671 19:-0.594313 20:-0.539881 21:-1.409181 22:1.089903 23:0.096597 24:1.220596 25:0.693653 26:-1.267373 27:-2.784121 28:1.975473 29:0.363611 30:-0.378406 31:1.532534 32:1.204949 33:-0.087193 34:0.431647 35:0.001402
-1 1:0.632606 2:-2.022287 3:-0.574962 4:-0.482744 5:-0.288049 6:-0.617737 7:-2.218439 8:-0.496633 9:0.674375 10:0.457030 11:1.945278 12:0.032497 13:0.338913 14:0.428515 15:-0.327260 16:1.271195 17:-0.392687 18:0.722309 19:1.161668 20:-0.446768 21:-0.488293 22:1.408245 23:-0.697914 24:-1.017950 25:0.140983 26:0.962088 27:-0.819789 28:0.142812 29:-0.950655 30:1.135954 31:0.149627 32:0.740385 33:-0.622928 34:-0.130050 35:0.712091
-1 1:-0.369727 2:0.385706 3:-1.609794 4:1.761365 5:1.553068 6:-0.262329 7:1.704351 8:-1.028738 9:-1.711206 10:-0.632555 11:0.590541 12:-1.059830 13:-0.201363 14:0.237886 15:-0.382607 16:-1.102668 17:-1.196580 18:0.432595 19:0.004137 20:0.006796 21:0.649911 22:-1.034398 23:0.492104 24:-0.525852 25:-1.952243 26:-2.006850 27:0.173221 28:-0.059383 29:1.258716 30:0.196637 31:0.538883 32:-0.518485 33:-1.253693 34:1.280757 35:-0.650669
-1 1:1.700118 2:-1.871457 3:-0.822121 4:0.436407 5:1.185289 6:0.963987 7:-0.346319 8:-0.855811 9:0.431339 10:2.030161 11:-1.167938 12:0.822288 13:-1.145507 14:-0.287570 15:1.287838 16:-0.006511 17:-0.072769 18:0.064679 19:-0.035489 20:1.574849 21:2.067606 22:0.757993 23:0.613745 24:1.544560 25:-0.113891 26:1.050012 27:0.981319 28:2.880650 29:0.562207 30:0.194530 31:-2.474725 32:-0.429309 33:-0.733134 34:-0.143052 35:-2.056547
-1 1:0.773448 2:1.401836 3:-0.442429 4:-0.850050 5:2.278862 6:-0.517575 7:-1.360867 8:-0.553117 9:-2.336888 10:-0.671432 11:-0.266964 12:-0.536203 13:0.574062 14:2.675257 15:0.051250 16:1.142714 17:1.687493 18:-0.191500 19:0.657288 20:-0.796894 21:-1.186589 22:-0.536131 23:1.443101 24:0.319807 25:0.582973 26:-0.828077 27:0.145511 28:-0.510351 29:0.842284 30:-0.223454 31:0.465088 32:0.699511 33:-3.833878 34:0.805140 35:-1.630602
-1 1:0.153194 2:-0.301966 3:0.477535 4:-0.395720 5:-2.467683 6:0.966245 7:-0.109512 8:-0.206041 9:-1.453652 10:1.188219 11:1.517381 12:1.563336 13:0.264002 14:0.122110 15:2.971479 16:-0.540544 17:0.005538 18:0.702670 19:1.246274 20:0.943977 21:-0.379049 22:-0.007357 23:0.003991 24:0.571929 25:-0.017854 26:0.865511 27:-1.358993 28:1.505745 29:1.523873 30:0.111568 31:1.477835 32:-3.068922 33:0.017553 34:-1.302093 35:-0.292476
-1 1:-0.808588 2:-0.226159 3:-0.410696 4:-0.314739 5:-0.824290 6:0.431967 7:-0.337895 8:1.189669 9:-0.672387 10:0.868882 11:-1.368759 12:-1.262962 13:-1.631843 14:0.386308 15:1.469646 16:-0.599956 17:1.813401 18:0.231319 19:-1.935567 20:-0.828439 21:1.622176 22:0.253736 23:0.736057 24:-0.968804 25:0.938914 26:-0.198207 27:0.157662 28:-1.907279 29:-0.581811 30:0.337590 31:-0.723853 32:-0.128830 33:-1.675450 34:0.240003 35:0.934871
-1 1:-1.651245 2:1.583553 3:-0.594885 4:0.066011 5:0.255876 6:0.939215 7:0.596562 8:-0.556576 9:-0.594795 10:-1.178673 11:-0.646364 12:0.166820 13:-1.190508 14:0.880092 15:-0.098847 16:0.804579 17:0.118420 18:-1.932393 19:-0.250449 20:-1.793454 21:-1.437295 22:2.114023 23:-1.752282 24:-0.377407 25:-0.274801 26:0.724974 27:0.579721 28:-1.714366 29:-1.611741 30:-0.579787 31:0.987525 32:-0.734084 33:-0.018072 34:0.358087 35:-0.004025
-1 1:-0.985915 2:0.956925 3:0.293291 4:-0.062867 5:-1.051408 6:-0.320515 7:-1.448444 8:0.698735 9:0.387791 10:-0.185402 11:0.463029 12:0.535833 13:-1.334119 14:-0.267318 15:-0.444128 16:1.643801 17:-0.735271 18:1.968042 19:1.819748 20:-1.497816 21:-1.263209 22:-0.685715 23:2.055056 24:-0.888213 25:0.887954 26:1.587924 27:0.952573 28:0.104580 29:-0.192703 30:2.206644 31:0.107178 32:0.274644 33:0.698464 34:1.699318 35:-1.916077
-1 1:-0.264295 2:-0.112106 3:-2.286021 4:-0.422504 5:-1.218419 6:-2.634980 7:-0.523239 8:-0.019877 9:0.420904 10:-0.103613 11:1.798689 12:1.270220 13:2.301752 14:-0.188344 15:-0.694742 16:-1.206620 17:-0.247131 18:-0.198167 19:0.454148 20:0.248172 21:0.344562 22:0.129025 23:0.355196 24:-0.968286 25:-0.306041 26:-1.027264 27:1.207329 28:1.094027 29:-0.253157 30:0.489346 31:0.247562 32:-0.235949 33:-0.263194 34:-1.031951 35:0.938230
-1 1:2.093275 2:-1.730810 3:-1.394648 4:-0.181939 5:1.500211 6:2.568684 7:1.537499 8:-0.371064 9:1.334104 10:-0.426445 11:-0.421509 12:0.687563 13:-0.823112 14:0.853055 15:0.275807 16:-1.774493 17:-1.427671 18:-0.326878 19:-0.289283 20:0.406935 21:0.037618 22:-0.777931 23:-2.266821 24:-0.487266 25:-0.273838 26:1.046728 27:0.123004 28:0.067313 29:1.021027 30:-0.129009 31:0.719506 32:0.109126 33:0.212904 34:1.360963 35:0.268767
-1 1:0.506665 2:0.929233 3:0.921157 4:0.191251 5:0.140068 6:-0.158509 7:-0.965825 8:0.134662 9:-1.389669 10:-0.190849 11:0.239990 12:-0.316560 13:1.215667 14:-0.708506 15:0.000115 16:-0.044909 17:-1.219103 18:1.473833 19:-0.201734 20:0.141321 21:-0.907390 22:0.597075 23:-0.212678 24:-1.959705 25:-0.559335 26:-0.411303 27:-0.056661 28:-0.600687 29:-0.287984 30:-0.579103 31:0.606192 32:0.103923 33:-0.080718 34:0.458244 35:-1.090524
-1 1:0.892539 2:-0.813130 3:-0.817336 4:-1.310136 5:-1.247177 6:1.001973 7:-0.783345 8:-0.063053 9:-0.135981 10:-1.016831 11:1.404921 12:-1.637654 13:-2.919403 14:0.787262 15:-0.568437 16:-0.948113 17:1.099403 18:-0.479137 19:-0.907368 20:-0.082090 21:0.679073 22:0.091338 23:-0.320692 24:1.046916 25:0.614788 26:0.697071 27:-0.376593 28:-0.444184 29:-0.278461 30:0.259552 31:0.531909 32:-0.748893 33:0.871880 34:-1.009714 35:-0.226597
-1 1:-0.105734 2:0.255957 3:1.076542 4:-0.132251 5:0.572479 6:-0.233889 7:-0.236733 8:-0.061366 9:0.616416 10:0.617628 11:1.606283 12:-0.782721 13:-1.275822 14:0.384510 15:-0.767694 16:-0.090852 17:-0.411401 18:0.745093 19:-0.329642 20:1.132639 21:0.936309 22:-0.568224 23:-2.098295 24:-1.336940 25:-0.257171 26:1.596689 27:-1.886589 28:-0.495580 29:-1.110019 30:-1.373983 31:-0.259429 32:-1.526033 33:0.280494 34:1.131787 35:0.122382
-1 1:1.147362 2:-0.079580 3:-0.686108 4:0.359582 5:0.405416 6:0.005454 7:0.298417 8:-1.064518 9:-1.370857 10:-1.709548 11:-0.461364 12:1.524588 13:-2.080777 14:0.166537 15:-0.637955 16:1.606532 17:-0.867640 18:1.866305 19:0.534589 20:-1.486535 21:-0.788162 22:0.562883 23:0.636057 24:0.683728 25:0.725727 26:0.340358 27:-1.029338 28:-1.016496 29:-1.286396 30:1.931481 31:-0.782272 32:0.097410 33:0.406624 34:0.690638 35:0.202418
-1 1:0.032326 2:0.898053 3:1.214145 4:-0.065849 5:-0.600523 6:-0.343259 7:-0.787649 8:1.099910 9:-0.410891 10:0.591996 11:0.449165 12:-0.835887 13:2.466679 14:0.367304 15:0.559047 16:0.552388 17:1.901843 18:-0.093788 19:0.729070 20:-0.035073 21:-0.721986 22:-0.860280 23:1.123728 24:-0.991312 25:-0.462779 26:-0.026491 27:-1.688175 28:-1.226254 29:1.576756 30:-0.913826 31:0.261548 32:-0.800195 33:0.485521 34:-0.738076 35:-1.536975
-1 1:-1.282045 2:-1.242437 3:-1.085430 4:0.027767 5:0.187927 6:0.846486 7:1.308773 8:-0.164760 9:0.533477 10:0.280947 11:0.016635 12:-0.025468 13:-0.655305 14:-0.367759 15:-1.843601 16:-2.260038 17:-0.808398 18:-0.331056 19:0.066234 20:-1.947770 21:-1.410913 22:-0.465393 23:0.787366 24:0.578653 25:-0.405188 26:0.904221 27:-0.061569 28:-0.150029 29:-0.458473 30:-0.358144 31:-0.851017 32:-0.491748 33:0.183700 34:-0.583898 35:0.003950
-1 1:-1.446256 2:0.513088 3:-0.871044 4:-1.362796 5:-0.497543 6:2.448186 7:-0.157551 8:-0.559643 9:0.727331 10:-0.197664 11:-1.218898 12:0.475916 13:-0.498237 14:-0.713612 15:-0.953618 16:1.536578 17:-1.364449 18:-0.364512 19:-1.287775 20:-0.140833 21:-0.486726 22:1.025323 23:-0.421877 24:-1.271182 25:-0.890839 26:-0.484921 27:-0.217952 28:0.051153 29:-0.075133 30:0.295037 31:0.082652 32:0.776097 33:-1.649091 34:0.661364 35:1.936006
-1 1:-0.946743 2:-0.134589 3:0.159144 4:0.219165 5:-0.789959 6:-0.466157 7:-0.306510 8:-0.560498 9:0.775624 10:-1.871100 11:0.881546 12:0.516255 13:-1.972832 14:-0.069934 15:0.338469 16:0.182072 17:-0.746163 18:0.653370 19:0.459923 20:0.610938 21:1.656303 22:-0.286312 23:0.354539 24:1.272351 25:0.333022 26:-0.803953 27:-0.139958 28:0.882952 29:0.021588 30:-0.689619 31:-0.439206 32:0.615510 33:0.108522 34:0.733610 35:-1.088250
-1 1:0.216935 2:-0.314925 3:0.373314 4:1.257431 5:-0.119714 6:0.062026 7:-0.270277 8:-0.183681 9:1.166288 10:-0.003199 11:-0.186423 12:-1.433154 13:-0.742624 14:0.598198 15:-0.259553 16:0.532745 17:1.873199 18:-0.797174 19:-0.311496 20:-2.013397 21:0.031950 22:0.107273 23:-0.084153 24:1.846363 25:0.947333 26:0.049503 27:0.904449 28:1.919467 29:0.405094 30:0.745868 31:-0.632848 32:-0.443457 33:-1.388794 34:1.043648 35:-1.675533
-1 1:-0.658429 2:-1.424408 3:1.958308 4:-0.759807 5:0.664543 6:1.496335 7:-1.445096 8:0.648223 9:-0.169359 10:-0.070453 11:0.215920 12:-1.444800 13:0.966978 14:-1.298535 15:-0.164751 16:0.998749 17:1.457028 18:0.441725 19:-0.061155 20:-0.994891 21:0.485148 22:0.441003 23:-1.760071 24:0.622313 25:0.325430 26:-0.736141 27:-0.032754 28:0.177997 29:-0.521378 30:1.103257 31:-0.197584 32:0.315621 33:-0.744285 34:0.783610 35:-0.905239
-1 1:0.076720 2:-1.193161 3:-0.210285 4:-1.626588 5:-0.617871 6:0.299749 7:-0.153188 8:-0.919977 9:0.882485 10:0.042656 11:-1.595601 12:-0.164177 13:-0.115224 14:-1.218134 15:-1.195935 16:0.577883 17:0.239365 18:0.875592 19:-1.079555 20:-0.746714 21:-0.328201 22:-0.016023 23:0.873541 24:0.682441 25:-0.224736 26:0.838180 27:0.716142 28:1.707138 29:-0.526762 30:-0.221171 31:1.236591 32:0.042604 33:0.081285 34:0.270487 35:0.790387
-1 1:-0.517232 2:-1.389717 3:-0.131209 4:1.776358 5:-0.122757 6:0.976527 7:0.197126 8:-0.305320 9:-0.491876 10:-0.215914 11:0.697607 12:1.490748 13:0.086077 14:-0.621429 15:-2.065001 16:-0.977970 17:-0.325148 18:-0.664834 19:-0.177609 20:1.542425 21:-1.171250 22:0.684173 23:0.405561 24:0.810603 25:0.186440 26:0.098461 27:2.005760 28:0.569458 29:-0.724225 30:1.217133 31:-1.304874 32:0.687462 33:0.923262 34:-0.309729 35:-0.125645
-1 1:-0.634281 2:0.734351 3:0.045747 4:0.459239 5:0.498995 6:-0.807207 7:2.094487 8:-0.763414 9:-1.570159 10:0.050499 11:0.501782 12:1.119118 13:-0.109949 14:1.710742 15:-0.527458 16:-0.516035 17:-0.278746 18:0.041174 19:0.714195 20:0.443465 21:0.897981 22:-1.447842 23:-0.133654 24:1.070217 25:0.016825 26:-0.371630 27:0.598174 28:-0.040937 29:1.539049 30:-0.578589 31:-0.085926 32:0.557817 33:-0.935911 34:0.080283 35:-0.432610
-1 1:0.041263 2:-0.527606 3:-1.010873 4:-0.273914 5:1.107033 6:-1.535733 7:-2.456906 8:0.300933 9:-1.179934 10:1.364065 11:-0.415725 12:0.660983 13:-0.171070 14:-0.278695 15:-0.766556 16:0.907457 17:0.073384 18:0.007205 19:0.472231 20:0.897364 21:0.526679 22:-1.796832 23:0.641988 24:-0.528707 25:-0.114131 26:2.106034 27:0.981208 28:-0.836834 29:1.507627 30:1.307253 31:-0.988173 32:0.470609 33:0.459522 34:1.042332 35:-1.169501
-1 1:0.298407 2:0.850998 3:-1.791525 4:0.971621 5:-0.800377 6:1.202912 7:0.033789 8:-0.449587 9:1.368021 10:-0.900742 11:-0.626747 12:-1.591364 13:-1.297209 14:0.118052 15:-0.734075 16:1.662019 17:-0.885008 18:-2.561857 19:-1.970096 20:0.083375 21:0.233596 22:0.997888 23:0.110220 24:2.018013 25:1.619883 26:-0.557226 27:-0.281687 28:-1.252377 29:1.765023 30:0.276939 31:-0.270493 32:-0.177002 33:0.271003 34:0.033619 35:-0.073452
-1 1:-1.068707 2:-0.526995 3:2.377412 4:0.015461 5:-0.566935 6:-1.572855 7:1.029364 8:-2.519805 9:0.794553 10:-0.954528 11:0.365601 12:-0.822847 13:0.077765 14:1.581804 15:1.139715 16:-1.967828 17:-1.316435 18:0.418166 19:-0.914616 20:1.055310 21:-0.194008 22:-0.106390 23:-0.051843 24:-1.708427 25:0.664486 26:-0.090528 27:0.761846 28:-0.009010 29:-1.494545 30:1.726834 31:1.274159 32:-0.594536 33:-0.635428 34:1.867767 35:0.185464
-1 1:0.482163 2:0.884735 3:-0.092548 4:0.682578 5:-0.599917 6:-0.913999 7:-1.477477 8:0.292725 9:-1.254096 10:-0.327334 11:-0.411466 12:1.322185 13:0.707146 14:0.272682 15:-0.922966 16:-0.458667 17:-0.110691 18:-0.487061 19:0.921110 20:0.434562 21:0.303813 22:-0.804462 23:0.157567 24:0.668962 25:0.653358 26:0.734197 27:2.723051 28:-0.972223 29:-1.087538 30:-0.424835 31:1.797954 32:-0.044118 33:0.177226 34:-1.076405 35:0.201575
-1 1:-0.441907 2:2.073455 3:0.146319 4:-0.691182 5:1.079882 6:-0.403550 7:-0.413857 8:-0.106189 9:-0.613885 10:-0.921367 11:1.233858 12:0.939361 13:0.630261 14:-1.122717 15:0.453479 16:-0.629434 17:-0.890939 18:-1.662290 19:0.278779 20:0.202845 21:-1.398019 22:-0.070697 23:-0.019929 24:-1.309791 25:-0.766657 26:-0.006582 27:0.500051 28:1.423574 29:-1.137637 30:-0.189311 31:0.912761 32:1.704848 33:1.251844 34:-1.929003 35:-0.335543
-1 1:1.085751 2:1.333539 3:-1.498349 4:0.820272 5:-0.951414 6:-0.752678 7:-0.421493 8:1.586021 9:0.336201 10:-0.604305 11:1.730548 12:1.759938 13:0.930542 14:-0.669682 15:-1.695266 16:1.266860 17:0.617191 18:0.323756 19:1.378207 20:0.162441 21:-0.848644 22:2.128182 23:0.542263 24:0.044941 25:-0.580060 26:-0.201714 27:-1.921651 28:-0.982670 29:0.724972 30:-0.670068 31:-1.330926 32:0.729857 33:-1.083016 34:2.186784 35:0.189896
-1 1:1.217497 2:-0.016644 3:0.803021 4:1.513903 5:-1.213326 6:0.512193 7:0.278953 8:1.039118 9:0.530054 10:1.341482 11:-0.878339 12:0.546898 13:0.316933 14:-0.088432 15:1.066644 16:-1.134863 17:0.377541 18:0.027524 19:-0.007574 20:0.063233 21:-0.697689 22:0.962839 23:-0.797033 24:0.915854 25:1.150575 26:1.196532 27:0.947939 28:-0.091278 29:-0.809755 30:-0.041245 31:-0.912446 32:0.722899 33:-2.328496 34:-0.140294 35:-2.053795
-1 1:0.959022 2:-0.831727 3:0.949694 4:1.348261 5:0.285093 6:-1.266526 7:-0.713560 8:-0.078793 9:1.245391 10:0.447338 11:0.445832 12:-0.671398 13:0.216550 14:1.979112 15:1.477902 16:-0.077956 17:-1.114242 18:-0.235133 19:0.224301 20:0.617318 21:1.129377 22:-1.148638 23:0.152809 24:-1.948681 25:-0.724854 26:-0.931511 27:1.630015 28:-1.549615 29:-1.054753 30:-3.078441 31:0.091824 32:0.400609 33:0.468880 34:-0.974814 35:0.136378
-1 1:-0.524033 2:0.829322 3:0.028837 4:-0.141999 5:-0.735394 6:-0.566579 7:1.002128 8:0.930748 9:0.948657 10:0.161655 11:1.318552 12:1.089770 13:0.093718 14:-1.146169 15:0.655606 16:1.143731 17:0.466197 18:-0.213359 19:1.920989 20:2.346170 21:-2.026705 22:1.945069 23:0.984216 24:2.294030 25:-1.182164 26:-0.669045 27:0.321732 28:1.791448 29:2.276540 30:-0.509387 31:-1.626341 32:0.723940 33:-0.826830 34:0.092447 35:0.028032
-1 1:0.820038 2:-1.721820 3:-0.257382 4:0.528409 5:-0.524736 6:0.282280 7:-0.082894 8:0.055518 9:-0.979645 10:2.007031 11:-0.132864 12:-0.379750 13:2.147188 14:1.944361 15:0.179030 16:-0.218395 17:0.433392 18:0.457917 19:-0.219147 20:0.042830 21:1.616828 22:-1.456074 23:-0.441491 24:1.374449 25:-1.707380 26:0.311189 27:-0.045786 28:1.067406 29:-0.373602 30:0.844756 31:-0.447273 32:2.380444 33:-0.170299 34:-0.827787 35:-0.322441
-1 1:0.661604 2:-2.173408 3:-0.061980 4:0.442290 5:0.523107 6:-1.166694 7:-0.159578 8:-0.357844 9:-0.340676 10:-0.043724 11:-0.178653 12:-0.496343 13:0.634614 14:1.809054 15:0.261751 16:-1.304527 17:0.805236 18:0.390202 19:0.780847 20:0.366923 21:-0.615124 22:0.023147 23:-1.362850 24:0.722530 25:1.763288 26:0.125428 27:-0.818646 28:0.941972 29:-1.782067 30:0.891782 31:0.433986 32:0.240303 33:-1.258653 34:-0.104125 35:-0.574756
-1 1:1.132399 2:-0.097991 3:-0.421103 4:-0.895426 5:2.748156 6:0.762467 7:0.431820 8:-0.251793 9:-1.104221 10:1.396949 11:1.526641 12:2.294166 13:-0.628502 14:1.201550 15:-0.277890 16:0.778276 17:-0.442365 18:-0.907211 19:-0.643895 20:-1.944052 21:1.353508 22:-1.521728 23:0.096556 24:1.906474 25:-1.169741 26:1.718575 27:-1.259072 28:-0.076866 29:-0.327537 30:-1.509578 31:-0.152261 32:-1.305809 33:1.202041 34:0.593475 35:-0.382497
-1 1:-0.595232 2:0.182782 3:-0.597442 4:-2.419084 5:-1.434639 6:-0.127458 7:0.946338 8:-0.015421 9:-0.682586 10:0.635444 11:0.659909 12:-0.266360 13:-0.043550 14:0.188320 15:1.429348 16:-1.018869 17:0.571432 18:-0.726290 19:0.065747 20:0.677897 21:-0.062677 22:1.389780 23:0.617242 24:0.218502 25:-1.301881 26:-2.447249 27:2.223239 28:0.394245 29:2.270380 30:-0.109183 31:0.349227 32:-0.615746 33:0.960660 34:-1.690513 35:-0.587745
-1 1:0.290250 2:-1.301573 3:0.765515 4:-0.544467 5:0.092540 6:0.515464 7:-0.548312 8:1.046374 9:-1.227935 10:-1.346372 11:0.307103 12:-1.719970 13:0.838744 14:1.198145 15:-0.997865 16:-2.220656 17:-1.260392 18:-1.206643 19:1.378853 20:1.898751 21:0.604961 22:-0.703607 23:0.487980 24:0.109617 25:1.539261 26:-0.476219 27:0.371968 28:0.546938 29:-0.592461 30:-0.057404 31:0.423056 32:1.105964 33:-0.718977 34:-0.022247 35:-0.073336
-1 1:-0.793558 2:-1.518337 3:1.215595 4:-0.617976 5:1.072716 6:1.647749 7:-1.014742 8:0.226877 9:0.181877 10:-0.602036 11:-0.989243 12:0.113156 13:-1.999690 14:-0.033758 15:-0.745337 16:1.535099 17:-0.409119 18:-1.216953 19:0.202102 20:-0.348990 21:-2.038144 22:0.928033 23:1.069925 24:0.913529 25:0.193520 26:-2.566197 27:-0.649146 28:0.084588 29:-0.623578 30:-1.021438 31:-1.822859 32:0.069583 33:0.054346 34:1.743284 35:2.156743
-1 1:-1.253064 2:-0.556144 3:-1.015166 4:-0.709417 5:0.297760 6:-0.226726 7:1.484633 8:1.620751 9:0.321313 10:-0.981401 11:0.109742 12:-0.862554 13:-0.957716 14:1.153000 15:0.644991 16:0.214419 17:-0.552111 18:1.615821 19:0.206976 20:-0.858780 21:-0.018063 22:1.688073 23:-1.717464 24:0.538536 25:2.145399 26:0.641002 27:-0.503290 28:-0.531207 29:0.509948 30:0.779873 31:0.000958 32:0.145629 33:-1.252621 34:-1.335942 35:0.293037
-1 1:1.787670 2:0.345051 3:-1.106972 4:-0.366740 5:-1.230822 6:-0.740258 7:-0.304027 8:-1.412149 9:-2.238456 10:-0.532161 11:1.502869 12:0.563615 13:-1.515895 14:1.028215 15:0.066979 16:-0.584354 17:-0.753779 18:-0.062933 19:-0.273103 20:0.676225 21:-0.066415 22:0.235565 23:-0.076667 24:-0.325723 25:-1.737889 26:-0.472483 27:0.677808 28:-0.801023 29:2.558618 30:-1.700675 31:-0.827421 32:-0.712789 33:0.688327 34:-1.607132 35:-2.501088
-1 1:-0.668265 2:-1.762340 3:-0.141486 4:-1.688066 5:-1.466944 6:-0.792961 7:0.294602 8:0.447712 9:-1.100291 10:1.143454 11:0.441603 12:0.860372 13:-1.328906 14:1.054251 15:0.671723 16:0.456250 17:0.719860 18:0.975855 19:-1.737809 20:1.984564 21:-0.149729 22:-1.333885 23:0.317625 24:1.511775 25:2.004235 26:-1.345779 27:1.319476 28:0.018500 29:-0.405016 30:2.356616 31:0.736769 32:0.134332 33:0.397494 34:0.815791 35:-0.126462
-1 1:1.371123 2:-0.675074 3:0.027312 4:0.121996 5:0.880623 6:3.520918 7:0.218652 8:-0.229599 9:-0.078544 10:-1.007889 11:0.278124 12:1.422421 13:0.139138 14:2.039686 15:0.318716 16:0.212499 17:-0.036664 18:1.071508 19:-0.231894 20:1.075409 21:-1.326692 22:0.209324 23:0.656227 24:1.919692 25:-1.863369 26:0.733282 27:0.824413 28:-1.576224 29:-0.202749 30:-1.842966 31:0.541876 32:-1.707688 33:0.882341 34:0.321046 35:1.293692
-1 1:-0.414992 2:0.297626 3:0.209910 4:0.135518 5:-0.020418 6:1.317713 7:0.709118 8:0.328639 9:-0.357596 10:-1.315177 11:2.082615 12:0.469940 13:1.700499 14:0.170779 15:-1.459418 16:0.910530 17:0.496521 18:0.541748 19:-0.375943 20:-0.394608 21:1.241810 22:0.193936 23:-1.354189 24:-0.262852 25:-0.595094 26:0.873984 27:0.231877 28:0.469925 29:-0.176379 30:1.914887 31:-1.544733 32:1.089796 33:-0.364007 34:0.667684 35:0.844110
-1 1:-0.056995 2:0.115133 3:1.751305 4:-0.781893 5:-0.495211 6:1.375395 7:0.758924 8:-0.945492 9:-0.076146 10:-0.178863 11:-0.342787 12:0.565363 13:1.314125 14:-0.801214 15:-0.178712 16:0.276207 17:-1.444796 18:-0.544574 19:1.080691 20:0.607439 21:1.043643 22:0.434661 23:-0.932969 24:0.274467 25:-0.928239 26:-1.190288 27:-1.084388 28:1.285631 29:0.142313 30:0.848603 31:-0.066676 32:0.584827 33:-0.516392 34:0.590709 35:0.420890
-1 1:0.552864 2:0.880887 3:0.752939 4:1.391403 5:0.407419 6:-0.512751 7:-0.159695 8:0.059468 9:0.413016 10:-1.118719 11:0.687693 12:1.065029 13:0.623885 14:0.504486 15:1.589538 16:0.272531 17:-1.019903 18:-0.733878 19:-0.675689 20:0.896345 21:0.211693 22:-0.294692 23:-0.932162 24:-0.049104 25:-0.460305 26:-0.713835 27:1.054974 28:-0.454559 29:0.548119 30:0.370757 31:0.099884 32:0.931677 33:0.400996 34:-1.144107 35:0.764524
-1 1:1.465156 2:1.331952 3:0.803013 4:-0.801404 5:0.814297 6:0.705374 7:0.108009 8:0.643965 9:-1.218733 10:0.571860 11:1.781427 12:-1.189778 13:1.529543 14:-1.220404 15:-0.675891 16:-0.832724 17:-0.171735 18:0.476928 19:1.292657 20:2.620441 21:-0.310185 22:0.066709 23:-0.383352 24:1.011615 25:-0.467350 26:0.046317 27:-1.649623 28:0.898079 29:0.256806 30:-0.889480 31:0.882583 32:-1.263204 33:1.002657 34:-0.267341 35:-0.895023
-1 1:0.578572 2:0.754362 3:1.721080 4:-1.781102 5:-0.126792 6:0.698053 7:1.600597 8:-0.858222 9:0.515499 10:-0.520404 11:1.393156 12:-0.493406 13:-0.130574 14:-0.612192 15:-0.858933 16:-1.729083 17:-0.039430 18:1.985673 19:1.149436 20:1.857288 21:-1.246761 22:1.397996 23:1.204102 24:0.065019 25:0.584295 26:-1.883648 27:-0.022980 28:0.853002 29:0.051141 30:-0.578378 31:-1.364888 32:1.048814 33:-0.475774 34:1.850330 35:0.411585
-1 1:0.247718 2:2.682043 3:0.534751 4:-0.783329 5:-0.045444 6:0.279779 7:1.177440 8:0.623107 9:1.453077 10:0.938034 11:0.392257 12:0.116348 13:0.288624 14:-1.231070 15:0.150638 16:-0.971898 17:1.469686 18:0.746918 19:-0.644635 20:0.139407 21:-0.432864 22:-1.284615 23:-0.425441 24:-1.206082 25:0.165599 26:-0.408833 27:-0.102324 28:0.247894 29:-0.513086 30:0.193646 31:0.763693 32:1.332487 33:2.852542 34:2.318484 35:-0.232859
-1 1:-1.504037 2:-0.975606 3:-0.856699 4:-2.577851 5:0.691976 6:0.758515 7:-0.657501 8:0.022535 9:0.176896 10:0.298183 11:-0.135373 12:0.855658 13:-0.809410 14:1.672353 15:-1.342454 16:0.106861 17:1.043556 18:-0.405493 19:1.728950 20:1.232050 21:-0.787254 22:-2.238703 23:1.193943 24:0.770698 25:0.411264 26:-2.200755 27:-0.410627 28:0.957081 29:0.000932 30:-1.438139 31:0.313501 32:0.175947 33:1.708052 34:-0.217535 35:0.134969
-1 1:0.639334 2:0.625591 3:0.441180 4:0.071196 5:0.545377 6:-0.498835 7:1.269986 8:0.527136 9:0.040448 10:-0.075660 11:0.017548 12:-0.601081 13:0.466604 14:-0.551109 15:-0.201399 16:0.734722 17:-0.650219 18:-1.411325 19:-1.824902 20:0.537414 21:-1.858277 22:-1.475112 23:1.520850 24:0.753886 25:0.795929 26:1.629512 27:2.018768 28:-0.794222 29:-1.080630 30:0.996336 31:0.676558 32:1.416296 33:-0.417026 34:0.687269 35:0.177634
-1 1:-1.484250 2:-0.592018 3:0.612200 4:-0.090131 5:0.981012 6:-0.165868 7:0.069866 8:-1.862655 9:0.984067 10:0.635480 11:0.192838 12:1.335180 13:-0.766450 14:0.477024 15:-0.485085 16:-0.329676 17:-0.010411 18:0.207426 19:0.038573 20:-0.326336 21:-0.299544 22:0.963760 23:-0.083068 24:0.745419 25:0.451292 26:0.958263 27:2.134293 28:-0.650920 29:-1.176830 30:0.972440 31:-0.153461 32:-0.547363 33:1.456516 34:-1.260276 35:-0.247549
-1 1:1.288602 2:-1.143952 3:0.370609 4:-1.382582 5:-1.274757 6:-1.723066 7:0.342592 8:0.357766 9:-0.404211 10:0.080652 11:0.500580 12:0.362432 13:-0.102452 14:-1.365680 15:-1.021810 16:0.427291 17:1.300733 18:1.957681 19:0.467601 20:-0.734402 21:1.074342 22:-0.357430 23:1.475368 24:-1.629315 25:0.237994 26:0.702856 27:-0.114637 28:0.162451 29:-1.254029 30:-2.229498 31:-0.054609 32:-0.766346 33:0.210109 34:-0.384127 35:0.900042
-1 1:0.990130 2:-0.108769 3:0.990408 4:1.207598 5:0.305912 6:1.983914 7:-1.541373 8:-0.989424 9:1.279004 10:0.361561 11:-0.872413 12:-1.126315 13:0.083323 14:-0.415211 15:-0.356682 16:-0.368500 17:1.646456 18:-2.095027 19:-0.024646 20:0.129681 21:0.492930 22:-0.666541 23:-0.185158 24:1.933893 25:0.305562 26:0.600746 27:1.498914 28:0.177572 29:-0.166920 30:-0.336597 31:-0.283494 32:1.701424 33:-0.150564 34:-0.793406 35:-0.536334
-1 1:-0.839656 2:-0.604913 3:-0.601163 4:-0.172973 5:-2.366985 6:0.253969 7:1.034264 8:-0.076890 9:-0.201081 10:1.500088 11:0.833053 12:0.774379 13:-0.167519 14:0.129775 15:0.335541 16:0.142975 17:0.589026 18:-0.449934 19:0.587468 20:0.461545 21:-1.083086 22:1.105637 23:1.094584 24:-0.012118 25:-0.583253 26:-0.660392 27:1.118180 28:-0.149918 29:1.060788 30:-0.777059 31:-0.861561 32:1.104174 33:1.017631 34:-1.518114 35:0.387222
-1 1:1.243017 2:-0.453698 3:-0.069262 4:-0.450632 5:0.711480 6:-0.273264 7:-1.289765 8:-1.661176 9:-0.990842 10:-0.232843 11:1.608850 12:-0.026351 13:-2.279101 14:-1.322170 15:-0.106069 16:1.482541 17:1.512023 18:-0.974624 19:0.881495 20:2.469360 21:1.494882 22:0.666780 23:-1.977305 24:1.721342 25:0.652112 26:2.068975 27:0.638318 28:0.268128 29:0.253639 30:0.724395 31:0.152235 32:0.943452 33:2.897879 34:1.275289 35:0.614583
-1 1:1.150878 2:0.644680 3:0.795273 4:0.603234 5:0.225236 6:-0.405270 7:-1.344474 8:-0.652187 9:0.660570 10:1.003982 11:-0.833165 12:-1.186454 13:-1.670117 14:1.042056 15:-1.433002 16:0.304279 17:-0.852564 18:-0.098978 19:-1.188497 20:0.954922 21:-1.155765 22:-1.248489 23:-2.214236 24:0.337511 25:0.250431 26:0.687980 27:-0.828449 28:-1.781743 29:-0.300456 30:0.795356 31:0.176662 32:-0.477377 33:0.427648 34:1.067293 35:0.000580
-1 1:-0.988500 2:1.030070 3:0.560495 4:0.061765 5:-0.245243 6:-1.223658 7:0.718076 8:-0.315066 9:-0.587823 10:0.296623 11:-1.120737 12:-2.193339 13:-0.279649 14:-0.101938 15:0.130599 16:-2.591153 17:-0.354887 18:0.504053 19:1.163822 20:-0.481418 21:0.165690 22:-0.847317 23:-0.516958 24:-0.272146 25:-1.464437 26:-1.490525 27:0.853474 28:2.535294 29:-0.839363 30:1.406669 31:-1.527801 32:1.481629 33:-0.087927 34:-0.308734 35:-0.368335
-1 1:0.486690 2:1.261023 3:0.373617 4:0.874396 5:0.993815 6:-1.720796 7:-0.737677 8:-0.843865 9:0.382142 10:1.674578 11:-0.302856 12:-0.153709 13:-1.121969 14:0.382681 15:0.565813 16:0.043682 17:-0.868268 18:-1.749765 19:-0.158034 20:1.444643 21:0.760309 22:0.418987 23:-0.961076 24:-1.299828 25:-1.230444 26:1.070040 27:0.128514 28:-0.075684 29:-0.200694 30:-1.415858 31:1.183901 32:-0.070660 33:-0.063380 34:-3.311385 35:-0.122390
-1 1:1.599634 2:-0.385291 3:0.596687 4:1.959853 5:-1.019711 6:0.358930 7:0.042787 8:0.780121 9:-0.680547 10:-0.745559 11:1.365614 12:0.210622 13:0.118996 14:0.255347 15:1.381544 16:-0.358557 17:2.773972 18:0.075150 19:-0.404445 20:-0.375579 21:0.449294 22:-0.421699 23:-0.470240 24:-1.783695 25:-0.737964 26:1.826714 27:-0.383253 28:-0.175284 29:1.699289 30:0.130084 31:1.697532 32:-0.206734 33:2.243787 34:1.369257 35:0.321196
-1 1:-0.243631 2:-0.515904 3:-1.123021 4:1.332493 5:-0.066083 6:0.197262 7:-0.514271 8:1.758028 9:-2.232234 10:0.372236 11:-0.626352 12:-0.213644 13:1.671977 14:2.668597 15:-1.740798 16:1.244129 17:-0.261172 18:-0.296172 19:0.330714 20:-0.655864 21:-0.316452 22:-0.389359 23:0.200775 24:-1.123254 25:1.273532 26:-1.007639 27:-1.124010 28:2.156974 29:-1.527805 30:-1.042615 31:0.595991 32:-0.139402 33:-0.332506 34:-0.774259 35:0.445146
-1 1:-0.908217 2:1.870910 3:-0.007553 4:1.860612 5:1.377175 6:-1.277819 7:0.031018 8:1.141410 9:0.366516 10:1.228772 11:-0.455595 12:-0.303184 13:-0.047052 14:0.305759 15:-1.547497 16:-0.595474 17:1.061453 18:0.024181 19:-1.170343 20:0.959792 21:0.796274 22:-0.364361 23:-1.620137 24:0.124343 25:0.395167 26:0.338031 27:-0.365863 28:0.158853 29:-1.722794 30:0.010391 31:-0.847647 32:0.004217 33:1.111499 34:0.664979 35:-0.151650
-1 1:-1.176020 2:0.481677 3:-0.929333 4:0.500284 5:-0.476165 6:-1.595261 7:0.012342 8:1.941415 9:1.324208 10:-1.099283 11:-0.261585 12:0.177594 13:1.121372 14:1.001818 15:0.303173 16:0.100036 17:1.019413 18:-0.046922 19:-0.567950 20:0.599601 21:1.193421 22:-1.329236 23:-0.425695 24:-0.353463 25:-0.024033 26:-1.507101 27:-0.328531 28:-0.146405 29:-0.350452 30:0.250901 31:-1.667293 32:-0.089175 33:1.194456 34:-0.326811 35:0.549081
-1 1:0.858455 2:-0.517136 3:-0.461704 4:0.700332 5:-0.819425 6:-3.198203 7:1.135731 8:-1.218115 9:1.358970 10:1.054246 11:0.563150 12:-0.424108 13:0.535884 14:-0.011955 15:2.450291 16:-0.297001 17:0.567131 18:0.634539 19:0.021127 20:0.709550 21:-1.440234 22:-1.804869 23:-0.129776 24:-0.211172 25:0.720503 26:0.227043 27:-1.290754 28:-0.306709 29:-1.148067 30:-1.009574 31:-0.840611 32:1.400126 33:-0.256417 34:1.505770 35:0.498119
-1 1:0.252074 2:0.200945 3:-0.446014 4:-1.400381 5:0.334646 6:-0.238222 7:-0.797900 8:-0.376611 9:-0.060756 10:-1.406281 11:1.470787 12:0.144194 13:-0.149678 14:-0.669108 15:-0.712985 16:-0.169072 17:0.459610 18:-1.479449 19:1.026993 20:0.123399 21:-0.676899 22:-0.209656 23:0.769324 24:-1.367105 25:-0.502262 26:1.066795 27:0.606622 28:-0.698586 29:-0.825345 30:-0.020353 31:-0.757501 32:1.089715 33:-0.660120 34:2.025722 35:0.507932
-1 1:-1.835446 2:2.537793 3:2.596919 4:1.619605 5:0.211790 6:0.057108 7:-1.173992 8:-0.050785 9:0.451347 10:-0.315589 11:-0.598398 12:1.027523 13:0.472976 14:-1.852884 15:0.321512 16:-0.099756 17:-0.634537 18:-0.381530 19:0.066262 20:-0.430210 21:0.421251 22:-1.190697 23:-0.659506 24:0.078143 25:-1.792322 26:0.634656 27:0.585248 28:1.356461 29:-0.354211 30:-0.121446 31:0.856609 32:-0.148881 33:-0.395065 34:-0.731480 35:-1.044726
-1 1:0.119637 2:2.189618 3:0.542233 4:0.238299 5:-0.027697 6:-0.127093 7:-1.891274 8:0.485360 9:0.963389 10:0.320290 11:-0.635477 12:-0.808910 13:0.365436 14:1.701792 15:0.957328 16:0.255755 17:2.351052 18:-0.957940 19:-0.291291 20:-1.143462 21:0.131281 22:-1.299776 23:0.545627 24:0.416597 25:-0.849347 26:2.111597 27:-0.104600 28:-0.852089 29:-0.143903 30:-1.283255 31:0.073417 32:-0.427368 33:0.935267 34:1.151190 35:1.447113
-1 1:0.300422 2:-1.088506 3:0.012055 4:0.196205 5:0.803028 6:-0.107014 7:0.414657 8:0.865392 9:-2.013695 10:-0.826216 11:-1.152291 12:1.887853 13:0.598574 14:1.055740 15:0.805605 16:-0.910772 17:-0.232419 18:1.239073 19:0.884687 20:0.243402 21:-1.541932 22:-1.212200 23:-1.921417 24:0.134270 25:1.589000 26:0.613734 27:0.347032 28:0.055702 29:1.557507 30:0.262488 31:0.992758 32:-1.944502 33:1.365864 34:-0.162852 35:-1.035577
-1 1:1.989362 2:-0.298267 3:1.174349 4:0.736143 5:1.295902 6:-1.561999 7:1.107305 8:1.120293 9:0.480464 10:-0.956417 11:1.048634 12:0.119686 13:-0.007438 14:-1.141082 15:-1.168846 16:-0.459751 17:-0.038337 18:-0.056152 19:-0.956852 20:0.476399 21:-1.810221 22:0.279928 23:0.588734 24:0.348535 25:-1.606990 26:-1.050220 27:0.528835 28:-0.391906 29:0.195544 30:-0.314505 31:1.169161 32:-0.492129 33:-0.528312 34:1.266598 35:-0.725868
-1 1:-0.976086 2:-1.076030 3:1.492252 4:-0.532053 5:-2.087766 6:-1.184140 7:-1.417470 8:0.778067 9:-0.362110 10:-1.307846 11:-0.836156 12:0.166487 13:-0.831796 14:1.143321 15:0.596345 16:-0.201351 17:-0.487850 18:0.267186 19:1.038505 20:-0.729566 21:0.918431 22:0.763815 23:0.231123 24:0.311017 25:0.243457 26:-1.382144 27:0.761213 28:-0.811475 29:-0.094784 30:-0.078282 31:0.993547 32:-0.068262 33:-0.471782 34:-1.316805 35:0.684751
-1 1:0.081799 2:1.459017 3:-0.384390 4:-1.081042 5:-0.664805 6:-0.157697 7:-0.335177 8:1.956371 9:-0.103036 10:-0.057499 11:0.179520 12:-0.704953 13:-1.867023 14:1.185591 15:0.212175 16:1.796852 17:0.400096 18:-0.702565 19:0.647693 20:0.005134 21:0.851718 22:-2.113221 23:-0.511449 24:-0.280739 25:0.340283 26:-0.536856 27:-0.073695 28:-0.277954 29:0.587616 30:-0.497791 31:-1.109884 32:-0.257956 33:1.022329 34:-0.057046 35:0.226436
-1 1:-0.123619 2:0.327095 3:0.825084 4:1.095893 5:0.272832 6:1.263382 7:1.034540 8:0.398128 9:-1.119576 10:-1.052232 11:0.719172 12:-0.049258 13:0.198414 14:0.841058 15:1.793292 16:-0.123957 17:0.402011 18:-0.088756 19:-1.197175 20:-0.634288 21:-0.185069 22:0.309446 23:-0.092081 24:-0.503162 25:0.493005 26:-1.904695 27:0.402690 28:-0.129201 29:-1.298506 30:2.709678 31:-2.050150 32:0.013746 33:-0.397097 34:-1.108562 35:-1.057754
-1 1:-0.878573 2:-0.527916 3:1.384210 4:1.278969 5:0.624886 6:1.394729 7:0.622317 8:1.354077 9:0.477299 10:-0.675980 11:-0.676419 12:1.763817 13:-1.737773 14:-1.226361 15:0.426908 16:-0.312401 17:0.060013 18:-3.101171 19:0.332631 20:-0.290961 21:-1.402735 22:-0.417937 23:0.411921 24:0.038226 25:-0.398214 26:-0.747679 27:0.782018 28:0.359057 29:0.355101 30:0.419991 31:-0.788219 32:0.753848 33:-0.269622 34:0.232692 35:0.007987
-1 1:-1.120798 2:-0.620934 3:0.283360 4:-0.895673 5:-0.713819 6:0.999784 7:-1.316814 8:-1.658463 9:-0.259007 10:0.954780 11:-0.870944 12:-0.103869 13:-1.205374 14:-1.068428 15:0.554823 16:0.206317 17:0.173495 18:-0.145199 19:0.979761 20:0.818573 21:-0.055983 22:-0.429198 23:1.342208 24:-1.221930 25:-0.111756 26:-0.895320 27:-0.981760 28:-0.237920 29:0.989856 30:-0.151012 31:0.225024 32:-0.345659 33:-0.059496 34:-0.281627 35:-0.055332
-1 1:0.094011 2:1.849841 3:-1.151199 4:3.040877 5:0.560235 6:0.299145 7:1.663675 8:0.234390 9:0.115756 10:-0.937206 11:-0.727641 12:-2.240841 13:0.007308 14:-1.473325 15:1.353748 16:0.472494 17:-1.342144 18:0.568371 19:-0.924660 20:1.010986 21:-0.805121 22:0.518652 23:0.711960 24:-1.008704 25:0.301036 26:-0.186474 27:1.908504 28:0.710438 29:1.459616 30:-0.953186 31:0.879769 32:0.254864 33:-0.793888 34:-0.036193 35:-0.391558
-1 1:-0.074851 2:0.268210 3:0.589659 4:0.683731 5:-1.191776 6:-0.021043 7:-0.981236 8:-1.714609 9:-0.564483 10:-1.351774 11:-0.841496 12:-0.798034 13:0.264982 14:-0.018541 15:-0.264306 16:0.091610 17:-1.522321 18:-0.417137 19:0.437147 20:-1.998807 21:1.137035 22:-0.462617 23:-1.172211 24:0.251389 25:0.123281 26:-0.388009 27:-0.091971 28:-0.655962 29:1.638072 30:0.004970 31:0.271304 32:-1.075923 33:-1.214558 34:-0.393602 35:0.549598
-1 1:1.323881 2:-0.773113 3:-0.363510 4:0.597314 5:0.597642 6:0.354964 7:-0.900874 8:0.880927 9:0.534094 10:-0.007796 11:-0.496079 12:-0.917738 13:-0.525648 14:0.138608 15:0.323039 16:-1.278212 17:-0.889043 18:-0.691685 19:-0.352053 20:-0.474828 21:-0.733511 22:-0.044755 23:0.237984 24:-0.895041 25:0.571474 26:0.579316 27:-0.023518 28:1.751936 29:-1.277814 30:0.125411 31:-0.615274 32:0.128142 33:-0.559491 34:-0.412321 35:0.926511
-1 1:-1.030398 2:0.623124 3:-0.410943 4:1.445190 5:1.787866 6:-0.073775 7:-0.916879 8:1.573475 9:0.656827 10:0.356252 11:-0.330285 12:1.680799 13:-2.313317 14:1.380988 15:1.511838 16:0.763232 17:0.169930 18:-1.293593 19:-0.039878 20:-1.932604 21:-2.025880 22:-0.117912 23:1.923556 24:-0.919983 25:-0.646963 26:-0.251834 27:-1.260304 28:-0.006954 29:-1.187866 30:-0.178283 31:0.039851 32:-0.816630 33:-0.753429 34:-0.035460 35:-1.282038
-1 1:0.320985 2:0.594450 3:-0.416556 4:-1.087039 5:2.576862 6:-0.277015 7:-1.346659 8:1.161411 9:-0.256726 10:1.286713 11:1.156180 12:1.414921 13:0.781221 14:1.384844 15:1.814367 16:-1.944524 17:0.378336 18:-0.160520 19:0.827454 20:1.101039 21:1.206185 22:1.010654 23:2.108621 24:-0.089848 25:-0.038525 26:-0.224964 27:-0.281614 28:0.417679 29:2.528500 30:0.720267 31:0.281069 32:0.951362 33:0.527513 34:0.813357 35:1.435588
-1 1:-1.514971 2:0.622391 3:1.377924 4:0.963495 5:0.008377 6:1.067402 7:0.572855 8:-1.094324 9:-0.491605 10:0.357231 11:-0.300336 12:-0.739704 13:-1.883884 14:-0.627986 15:-1.820597 16:-1.213829 17:0.905282 18:-1.442003 19:0.278227 20:-0.159424 21:0.510565 22:-0.095172 23:1.441257 24:-0.438701 25:0.120388 26:-0.602308 27:-0.630226 28:-0.590994 29:0.540863 30:0.496931 31:0.145232 32:0.730804 33:0.902404 34:-2.088650 35:0.776279
-1 1:3.212201 2:1.140525 3:-0.512630 4:-0.811862 5:0.772119 6:-1.534818 7:0.317993 8:0.746428 9:-0.483621 10:-0.280752 11:-0.598586 12:-0.709635 13:2.149580 14:-0.374786 15:-0.315484 16:1.924216 17:1.333558 18:0.513483 19:-0.151467 20:0.212241 21:0.085596 22:0.618841 23:-0.478806 24:-0.347605 25:1.016511 26:-1.332108 27:2.126421 28:-0.110961 29:1.517931 30:1.651020 31:-0.041144 32:2.084995 33:0.687876 34:-0.688688 35:-0.321298
-1 1:0.358490 2:-1.084501 3:-1.146763 4:0.392357 5:-0.089935 6:0.309135 7:-0.490317 8:-0.719457 9:-1.686988 10:0.820962 11:-0.365950 12:0.001650 13:-2.652272 14:0.175913 15:2.433969 16:0.129687 17:0.567709 18:0.453008 19:-1.081405 20:1.006695 21:1.664846 22:-0.421172 23:0.250207 24:-1.916606 25:-1.550134 26:0.992228 27:-1.379195 28:2.601397 29:1.077221 30:0.569777 31:-1.060458 32:-0.024042 33:0.667377 34:1.308147 35:1.328793
-1 1:-1.393424 2:0.265984 3:-0.355660 4:0.507255 5:-0.348179 6:2.085846 7:0.833928 8:1.353620 9:0.926240 10:-0.468682 11:3.273062 12:-0.947680 13:2.154740 14:-2.265477 15:-1.544277 16:-1.044323 17:-0.291645 18:-1.325183 19:0.584002 20:-0.248358 21:0.980086 22:-0.851872 23:-1.048783 24:-1.252333 25:-0.878881 26:0.308047 27:-0.020879 28:-1.875541 29:1.544103 30:0.162608 31:0.299371 32:0.860866 33:1.112405 34:1.028579 35:-2.115431
-1 1:0.523303 2:-0.543100 3:0.680334 4:-1.212126 5:0.391426 6:-0.365297 7:-0.667622 8:-0.776526 9:-0.025027 10:1.734295 11:-1.746989 12:-0.953594 13:-0.095063 14:-0.476302 15:0.122447 16:-0.124287 17:-1.895931 18:-0.254504 19:0.331988 20:-0.606470 21:-0.476974 22:0.588010 23:-0.616781 24:1.389743 25:0.448162 26:0.035481 27:0.114899 28:0.916446 29:0.213016 30:1.163191 31:0.065876 32:-1.640758 33:0.952193 34:1.207108 35:-0.440074
-1 1:0.380869 2:0.971185 3:-0.183453 4:1.241525 5:-0.233167 6:0.191087 7:-0.312026 8:0.451103 9:0.698504 10:-0.444750 11:0.391503 12:1.430753 13:-0.988425 14:0.481627 15:0.410408 16:0.664942 17:-1.449293 18:0.619041 19:-0.296774 20:-0.851511 21:-1.406200 22:1.237883 23:-1.164446 24:-0.653349 25:0.602581 26:-0.477136 27:-0.374208 28:2.808697 29:0.763076 30:0.069950 31:-0.741109 32:1.668655 33:0.363984 34:1.021850 35:1.297677
-1 1:-0.392580 2:1.303726 3:-3.210420 4:-0.099246 5:0.041458 6:-0.868405 7:-0.557838 8:0.423530 9:0.079400 10:0.502785 11:-0.057544 12:0.813146 13:0.258299 14:2.624620 15:-0.458384 16:-0.505721 17:-0.729689 18:-0.019824 19:1.949792 20:1.251872 21:-1.347295 22:-0.623716 23:1.149556 24:0.019360 25:0.904502 26:0.150859 27:-0.864117 28:-0.637972 29:-0.787487 30:0.011026 31:-0.771049 32:0.063313 33:-1.766514 34:-1.160225 35:-1.031606
-1 1:1.924743 2:-0.736651 3:-0.593624 4:0.010587 5:-0.421373 6:0.501864 7:1.092595 8:-1.417862 9:0.318432 10:-0.593086 11:0.133333 12:2.132783 13:0.475576 14:-2.266585 15:-0.679745 16:-0.585501 17:-0.927399 18:-0.497193 19:0.834048 20:-0.416340 21:-0.316268 22:-0.216683 23:1.850003 24:-0.783201 25:0.598477 26:1.130218 27:-0.210814 28:-1.102272 29:0.342590 30:-1.237364 31:0.343245 32:1.112357 33:-0.265085 34:0.395851 35:-0.304048
-1 1:1.325092 2:-0.020913 3:0.077296 4:0.036438 5:0.623664 6:0.138405 7:-1.398776 8:-1.714474 9:-0.308084 10:0.079632 11:1.911907 12:-1.740710 13:0.065060 14:1.828676 15:-0.921250 16:-0.028941 17:0.135514 18:1.722498 19:-0.155175 20:-0.825511 21:0.375312 22:0.774657 23:-1.023898 24:0.185521 25:1.105529 26:-0.187831 27:0.806936 28:-0.759781 29:0.599284 30:-0.369635 31:-0.858473 32:0.834079 33:0.531554 34:-0.128904 35:-1.457607
-1 1:0.666876 2:1.077853 3:0.833974 4:0.341419 5:-0.460845 6:1.580707 7:-0.218452 8:-0.207027 9:-0.487771 10:0.358970 11:2.063679 12:1.467266 13:0.095413 14:-0.532336 15:0.340151 16:-1.453859 17:1.317129 18:0.654218 19:-0.746671 20:0.183736 21:0.551548 22:1.012219 23:-1.598836 24:1.063329 25:-0.469555 26:2.983244 27:0.152456 28:-0.694709 29:0.856133 30:-0.886948 31:1.266113 32:0.307661 33:-1.325135 34:0.791342 35:0.453051
-1 1:1.162804 2:0.899973 3:0.662784 4:-0.273048 5:1.471147 6:-1.351594 7:-1.082397 8:-0.192483 9:-0.129708 10:-0.722643 11:-1.359490 12:-0.609010 13:-0.777711 14:1.263082 15:2.033669 16:0.521449 17:0.143264 18:-0.181934 19:0.520881 20:0.454668 21:-0.730135 22:0.656237 23:1.182818 24:-0.577926 25:-0.122141 26:-0.127327 27:-1.122243 28:-0.826592 29:0.579467 30:0.245801 31:-2.369969 32:0.121823 33:1.097007 34:-1.252847 35:0.468702
-1 1:-1.159692 2:-0.561170 3:-0.754065 4:0.518370 5:-0.450431 6:0.603538 7:0.475528 8:-0.052711 9:-1.742510 10:-0.441264 11:-0.789767 12:0.112039 13:0.304009 14:-0.505482 15:0.625722 16:0.677589 17:-0.884950 18:0.269568 19:-0.024698 20:-1.114444 21:0.523978 22:-0.352131 23:1.061884 24:-1.427938 25:-0.641730 26:-1.359625 27:0.794235 28:0.227966 29:-0.737906 30:0.767420 31:-0.224892 32:-0.050680 33:0.759849 34:-1.818746 35:-0.069025
-1 1:0.586665 2:0.062831 3:0.652030 4:-0.173215 5:-0.442626 6:-0.194078 7:-2.143857 8:-0.263218 9:0.804285 10:1.662504 11:-0.604211 12:0.010151 13:-1.050907 14:1.385244 15:0.929224 16:-1.467464 17:-0.835226 18:-0.778626 19:0.937220 20:1.193287 21:1.607399 22:-1.009915 23:0.484744 24:-2.344390 25:1.200489 26:1.605447 27:-0.593238 28:0.682944 29:1.904899 30:1.374903 31:-1.059215 32:-1.721356 33:-1.234131 34:-2.151721 35:0.199909
-1 1:-1.156882 2:0.034323 3:0.488160 4:0.803922 5:0.514776 6:-0.286343 7:-1.815974 8:-0.226608 9:0.530102 10:1.488950 11:-1.164993 12:0.300182 13:1.533365 14:1.536497 15:-0.857895 16:0.205384 17:-0.348000 18:-0.568819 19:-0.895124 20:0.891503 21:1.199397 22:-0.194517 23:0.432924 24:-1.033791 25:0.629351 26:-0.884985 27:0.575079 28:1.222579 29:-0.771543 30:-0.353581 31:0.662349 32:0.621194 33:0.099660 34:1.396759 35:0.320822
-1 1:0.397052 2:0.506600 3:2.261636 4:2.209003 5:0.083531 6:-0.045704 7:-0.967621 8:-0.428210 9:-0.523842 10:0.983285 11:-0.142997 12:-0.608946 13:-0.634535 14:0.031470 15:0.789414 16:0.434265 17:0.522537 18:0.225047 19:0.610775 20:-0.370759 21:0.220595 22:0.195256 23:-0.824264 24:0.872718 25:0.352623 26:1.587680 27:-2.062059 28:-0.388223 29:1.092956 30:-1.416542 31:-1.736038 32:-0.195965 33:-0.733483 34:-0.225131 35:-0.276696
-1 1:1.616427 2:0.947644 3:1.170917 4:-0.000739 5:0.722494 6:0.418817 7:0.356310 8:-0.847507 9:2.113830 10:0.743035 11:1.838015 12:1.079812 13:0.399836 14:-1.352862 15:-0.931053 16:-0.894385 17:-0.491571 18:-0.724754 19:-0.390454 20:-1.617042 21:0.783713 22:0.376822 23:2.558804 24:-2.018963 25:1.420348 26:1.189053 27:0.242171 28:-1.461810 29:-0.629558 30:-0.554545 31:-1.574629 32:-1.158110 33:1.092663 34:0.010940 35:0.227968
-1 1:0.117042 2:-1.405687 3:0.780379 4:-0.198081 5:-0.719389 6:0.296294 7:0.107705 8:0.829043 9:-1.812622 10:-1.975357 11:-0.142113 12:0.142056 13:-0.213560 14:-1.026348 15:-0.483873 16:-0.117828 17:0.045463 18:-0.330600 19:0.656772 20:0.056601 21:-1.570636 22:0.263275 23:1.038790 24:-1.035368 25:-0.200456 26:-0.109633 27:0.282308 28:-0.638587 29:1.350557 30:-1.268487 31:0.837218 32:-0.963436 33:-0.926767 34:-0.761932 35:-0.419637
-1 1:1.349897 2:-0.036758 3:-0.571881 4:-1.176758 5:-1.932150 6:0.045000 7:-0.251488 8:-1.598853 9:-0.958891 10:0.570911 11:1.551519 12:0.127765 13:-1.108324 14:-0.480817 15:0.604096 16:-0.097977 17:0.093097 18:-0.542577 19:-0.600836 20:-1.220787 21:-0.855831 22:-1.352733 23:-1.422594 24:-1.284413 25:0.538257 26:-0.069328 27:0.376456 28:-0.902891 29:-0.170280 30:-0.247948 31:-0.062138 32:1.062246 33:-1.064315 34:-1.888507 35:1.124147
-1 1:1.324814 2:-1.125697 3:-1.130604 4:0.635405 5:-0.438337 6:-0.127451 7:1.476548 8:-0.431538 9:-0.214271 10:-1.489416 11:-1.555637 12:-0.334953 13:-0.006401 14:0.405628 15:-0.717041 16:0.729098 17:-0.687421 18:0.191674 19:1.037031 20:1.355136 21:-0.960079 22:0.250147 23:-0.452872 24:1.939551 25:-0.186384 26:-0.387716 27:0.555851 28:1.117441 29:0.093627 30:0.698584 31:-0.746918 32:-0.204667 33:1.535334 34:1.916574 35:-2.339242
-1 1:0.177175 2:0.127209 3:-0.749738 4:-1.221008 5:-1.770970 6:-2.465245 7:-1.241709 8:-0.007793 9:-0.556184 10:-1.223950 11:1.212294 12:0.523057 13:-0.061719 14:-0.729168 15:-0.754316 16:-0.438039 17:0.515329 18:-0.080022 19:-0.962601 20:-1.347654 21:0.474767 22:-1.121196 23:-0.745707 24:-0.721062 25:-0.918627 26:1.514313 27:1.036150 28:-0.706526 29:-1.249443 30:-2.100055 31:-1.085357 32:-2.202371 33:1.378713 34:0.862626 35:-1.079258
-1 1:-1.190692 2:1.556979 3:1.273765 4:1.175776 5:-0.233727 6:0.693565 7:0.902748 8:0.556676 9:0.227838 10:-0.105712 11:0.881166 12:-0.230132 13:0.468711 14:-0.431142 15:0.925549 16:1.118553 17:0.869121 18:1.596158 19:0.619933 20:-0.864030 21:-0.828451 22:-0.328606 23:-0.383667 24:-0.505807 25:1.308505 26:-0.249575 27:0.492928 28:0.045536 29:0.655483 30:-1.899060 31:-0.604013 32:-0.655680 33:-1.049170 34:-0.356463 35:0.240997
-1 1:0.012172 2:1.002705 3:-0.506001 4:-1.687818 5:-0.286723 6:0.714971 7:0.640910 8:0.696478 9:0.062300 10:0.297054 11:-0.453862 12:-0.024019 13:0.134625 14:0.913547 15:1.629782 16:1.297186 17:0.395863 18:-1.405681 19:0.122638 20:-0.149160 21:0.145258 22:0.014713 23:0.585391 24:0.319212 25:0.378971 26:-0.549158 27:-0.326684 28:0.134227 29:0.276999 30:0.730947 31:-1.172875 32:-0.958903 33:-1.361767 34:1.866323 35:-0.401171
-1 1:1.479716 2:1.457345 3:-0.490681 4:-0.194241 5:0.841549 6:-0.482136 7:-0.476934 8:0.955272 9:0.479416 10:-2.577843 11:-0.564746 12:1.993475 13:0.254601 14:-0.803789 15:-2.529467 16:-1.379220 17:0.369816 18:-0.822772 19:0.175957 20:-1.199135 21:1.596390 22:1.591406 23:-0.419374 24:1.720826 25:1.377828 26:1.417371 27:0.334367 28:-0.716283 29:-0.967433 30:-0.280523 31:-0.850496 32:0.602773 33:1.529598 34:0.953072 35:0.378960
-1 1:0.854638 2:-0.312002 3:-1.901226 4:-0.258208 5:-1.095148 6:1.476202 7:-1.116861 8:1.344646 9:0.038287 10:0.773103 11:0.104949 12:0.576799 13:-1.539962 14:-0.216185 15:0.033523 16:-1.142063 17:0.243120 18:0.635986 19:0.338898 20:-0.250352 21:1.192911 22:-0.183404 23:0.506090 24:0.484358 25:0.759600 26:0.329936 27:0.030946 28:-1.852192 29:-1.932997 30:-0.756003 31:0.915819 32:1.601404 33:0.237458 34:2.037111 35:-0.360051
-1 1:-1.248812 2:0.145228 3:0.554422 4:-0.065383 5:-0.195950 6:-1.691289 7:-0.124387 8:1.028663 9:0.076006 10:-0.116522 11:0.613097 12:0.531085 13:-1.207575 14:0.108592 15:-0.055009 16:1.858886 17:0.884524 18:-0.081317 19:-1.635635 20:1.007181 21:-0.049825 22:0.959782 23:0.609078 24:0.640120 25:-1.463458 26:-0.974761 27:0.865932 28:0.218100 29:1.109984 30:-0.393726 31:-2.272110 32:-0.044402 33:-0.611789 34:0.197268 35:1.423726
-1 1:-1.124993 2:2.156182 3:-1.121591 4:-0.658178 5:1.676442 6:-0.749117 7:1.047403 8:0.122749 9:1.745182 10:-0.335197 11:0.340428 12:-0.482944 13:0.419978 14:0.510106 15:1.051181 16:-0.968503 17:1.123609 18:0.082801 19:0.312137 20:-1.524162 21:0.737094 22:1.082598 23:-1.638246 24:-0.411670 25:-0.321733 26:0.533864 27:-0.589023 28:-0.425876 29:0.529656 30:-0.484744 31:0.153075 32:2.577541 33:-0.383619 34:1.429316 35:-0.522577
-1 1:0.512772 2:-1.057394 3:-0.805577 4:-0.467941 5:-1.658154 6:0.376611 7:-2.064284 8:0.822128 9:-0.394612 10:0.129923 11:0.547875 12:-0.147446 13:0.076730 14:-1.414787 15:0.278277 16:-0.026621 17:0.077040 18:0.996656 19:1.199677 20:0.406896 21:0.757220 22:-0.986298 23:-2.249780 24:-0.597125 25:0.704947 26:0.708425 27:-0.261209 28:0.364221 29:-1.260088 30:1.142415 31:-2.384891 32:1.301883 33:-0.245404 34:1.032773 35:-0.040846
-1 1:0.932337 2:1.662202 3:1.376220 4:1.779476 5:2.427896 6:-1.743731 7:0.160940 8:0.576608 9:0.441581 10:0.985320 11:0.933152 12:-0.281810 13:0.579824 14:0.144922 15:-1.024481 16:-0.222138 17:-0.089102 18:1.830558 19:1.132882 20:1.048520 21:-1.121400 22:0.780042 23:0.010577 24:0.623476 25:1.616090 26:-0.335467 27:-0.805757 28:-1.173719 29:-0.205749 30:-1.191048 31:1.101577 32:-0.207203 33:0.448192 34:2.309261 35:0.519731
-1 1:0.668643 2:-0.643692 3:-0.424354 4:-1.126880 5:1.378766 6:0.222315 7:1.018960 8:-0.403761 9:1.634301 10:-1.318056 11:-1.607690 12:-0.868357 13:0.085644 14:0.404777 15:0.075149 16:0.051830 17:-0.266959 18:2.912538 19:-1.222144 20:1.069195 21:0.040242 22:0.098237 23:1.176883 24:-1.031812 25:-0.771112 26:-0.524176 27:0.398338 28:-0.679350 29:0.316956 30:0.794106 31:0.520050 32:0.542105 33:-1.581895 34:-0.794674 35:-1.330206
-1 1:0.319629 2:0.572960 3:-0.498936 4:-0.403834 5:-0.883999 6:0.472990 7:0.556499 8:-1.276553 9:-1.423107 10:-0.288854 11:1.853455 12:-1.548945 13:0.519532 14:-1.124133 15:0.907071 16:-0.535926 17:1.329845 18:-1.595848 19:1.539930 20:0.323093 21:-0.961206 22:-0.879933 23:-0.144293 24:0.544915 25:-0.313766 26:-1.789383 27:1.010648 28:-2.387287 29:0.264288 30:1.815540 31:0.243582 32:-0.271176 33:0.785230 34:1.310752 35:-1.862409
-1 1:-1.262242 2:-0.156397 3:0.485191 4:-1.682506 5:0.847430 6:-1.203799 7:-1.058445 8:0.529020 9:-1.191943 10:-0.008319 11:0.879668 12:0.134288 13:-0.597322 14:0.333931 15:0.415766 16:0.469186 17:0.611261 18:1.156772 19:-0.297692 20:0.830404 21:-1.637712 22:0.502082 23:-1.514804 24:-1.039259 25:1.696680 26:0.126192 27:1.338282 28:0.679811 29:1.789778 30:1.143954 31:-0.123491 32:-1.399270 33:1.961126 34:0.926098 35:1.726827
-1 1:-0.014317 2:-0.336008 3:0.177819 4:-0.153988 5:-0.432646 6:0.384268 7:-0.242346 8:-1.366590 9:-0.671343 10:-0.094409 11:1.149908 12:0.262634 13:1.514056 14:-0.160488 15:-1.113311 16:-0.962966 17:-1.434942 18:0.792924 19:-0.397556 20:-1.260885 21:-1.847297 22:0.820686 23:0.233368 24:-0.380037 25:0.139094 26:-0.464536 27:-0.966174 28:-0.260624 29:-1.203159 30:-0.949841 31:0.866330 32:-0.972648 33:-0.378863 34:-1.310280 35:-1.634494
-1 1:0.755033 2:-1.008303 3:2.241688 4:0.963728 5:0.218658 6:-0.889069 7:0.116147 8:-1.495862 9:-0.444949 10:0.787966 11:-0.271514 12:2.693429 13:-1.456641 14:0.354281 15:0.621255 16:-0.698490 17:0.255659 18:-1.309157 19:0.075937 20:1.561606 21:0.694120 22:-0.819342 23:1.639189 24:-0.823228 25:0.054118 26:-0.024811 27:-1.589973 28:-0.793769 29:-0.540073 30:-3.372277 31:0.548281 32:-0.948965 33:-0.255459 34:-0.988337 35:-0.012673
-1 1:0.848174 2:0.051883 3:-1.097917 4:-0.941927 5:0.313532 6:2.146088 7:-0.550036 8:-1.598607 9:-0.972247 10:0.896270 11:-1.483271 12:0.968962 13:-0.817556 14:-1.078551 15:-0.631714 16:-1.235125 17:0.349229 18:1.266289 19:-0.304045 20:-0.230137 21:-0.878946 22:1.064614 23:2.180582 24:0.091597 25:1.077193 26:0.791079 27:-1.651861 28:1.079952 29:1.013072 30:-1.152279 31:-0.381662 32:-0.546696 33:0.300204 34:-0.028200 35:1.231373
-1 1:-1.017425 2:-0.143908 3:0.579899 4:-0.561186 5:1.426369 6:-0.976160 7:-0.382104 8:-0.343430 9:-0.653493 10:0.883237 11:-2.061512 12:-0.131241 13:1.376989 14:0.684096 15:0.258921 16:-2.527398 17:0.026589 18:0.445821 19:-1.017660 20:0.681748 21:-1.462616 22:0.500430 23:-0.514878 24:1.310221 25:1.092546 26:-0.108785 27:-1.254684 28:0.123460 29:-1.816165 30:-1.039787 31:1.493069 32:-0.176350 33:-0.514605 34:1.238095 35:0.516165
-1 1:-0.745828 2:0.060790 3:1.971772 4:-1.450829 5:-1.568605 6:-0.988034 7:1.463595 8:0.597357 9:-1.171450 10:-0.841498 11:0.215625 12:-0.008361 13:0.790742 14:-1.468179 15:1.036574 16:-0.128179 17:-0.108573 18:0.263620 19:-0.180492 20:0.087027 21:-0.924548 22:-0.897875 23:-1.355065 24:0.171885 25:0.303628 26:-1.335067 27:1.939189 28:0.804511 29:-0.379149 30:0.185192 31:-0.241167 32:-2.117766 33:0.592067 34:-0.221061 35:-1.270860
-1 1:0.663878 2:-0.098864 3:-0.946627 4:0.112415 5:-0.564737 6:-1.627897 7:-2.318575 8:-0.432340 9:1.501077 10:-0.311266 11:-0.269613 12:0.040941 13:-0.530121 14:0.253612 15:0.408624 16:-2.089476 17:0.308661 18:0.974942 19:-0.911043 20:-1.310788 21:0.317937 22:0.811915 23:-2.487545 24:0.319531 25:-0.943878 26:-1.650824 27:-0.046474 28:0.398405 29:-0.042371 30:0.612134 31:-0.743482 32:1.179820 33:1.124144 34:-1.038546 35:-0.549446
-1 1:-1.046520 2:0.134170 3:-0.082590 4:0.079916 5:-0.759412 6:-0.087528 7:-1.314077 8:0.717776 9:0.808433 10:0.344880 11:1.172097 12:0.871232 13:1.718563 14:1.826214 15:-0.317990 16:-1.392675 17:-1.934083 18:1.223495 19:0.118432 20:1.403497 21:2.661315 22:-0.192297 23:-0.749463 24:-0.790231 25:-0.846134 26:-0.085219 27:2.249013 28:-1.088492 29:0.883197 30:-0.314395 31:1.981924 32:1.121209 33:-1.201179 34:0.749832 35:0.893880
-1 1:0.057118 2:-0.898393 3:0.107339 4:-0.538667 5:0.598177 6:-0.605310 7:0.050936 8:0.978678 9:-0.804420 10:-0.118046 11:0.991070 12:0.120290 13:0.785234 14:1.029097 15:0.719726 16:-0.799535 17:-0.795851 18:-0.245123 19:1.829049 20:0.328688 21:0.761681 22:1.180648 23:2.177451 24:-0.725448 25:1.473892 26:0.443257 27:-0.266149 28:1.542228 29:-0.243800 30:0.956689 31:1.748306 32:0.426301 33:0.274535 34:0.410345 35:0.411082
-1 1:0.780926 2:0.725745 3:-0.868176 4:0.604360 5:-1.067590 6:-0.323535 7:0.015693 8:0.841927 9:-0.096762 10:0.116929 11:0.181228 12:1.661295 13:-0.869156 14:-0.507112 15:0.389473 16:0.731506 17:-0.460009 18:-0.208744 19:-1.793176 20:2.080940 21:-0.547963 22:1.941873 23:-0.669677 24:0.921852 25:0.379468 26:-0.283166 27:0.451913 28:1.181282 29:-0.177691 30:-0.615705 31:0.530938 32:-0.036892 33:0.657425 34:-0.627283 35:0.426686
-1 1:0.896542 2:0.773724 3:0.419926 4:1.711275 5:0.938157 6:-1.247426 7:0.714583 8:0.214262 9:1.906336 10:-1.647563 11:-1.159007 12:0.594287 13:-0.853837 14:1.579259 15:1.147609 16:0.894431 17:0.862922 18:0.055513 19:-0.253162 20:-1.133997 21:0.489563 22:0.992422 23:-0.700777 24:1.655271 25:0.102873 26:-1.128832 27:0.251322 28:-1.957848 29:0.500911 30:-0.482727 31:-0.133636 32:-1.367187 33:-1.341750 34:1.783006 35:1.353171
-1 1:-0.870855 2:-0.012052 3:-0.140265 4:0.371765 5:2.002356 6:0.123299 7:0.845988 8:0.285420 9:0.519657 10:1.112304 11:-0.409153 12:0.038715 13:-0.578534 14:-0.654409 15:0.425108 16:0.431751 17:-1.038326 18:0.956864 19:-0.361393 20:0.357748 21:-0.392581 22:-1.167828 23:1.844072 24:0.013747 25:-1.573638 26:-0.624351 27:-1.100869 28:-0.431831 29:-1.019817 30:0.598028 31:0.651523 32:-0.622804 33:0.989020 34:-0.074534 35:-0.135036
-1 1:-0.289327 2:-0.584979 3:-1.062300 4:-2.099187 5:0.806965 6:-1.534374 7:2.752072 8:-1.026056 9:-0.641812 10:1.970256 11:-0.606054 12:0.558421 13:-0.291463 14:0.610564 15:-1.285757 16:-0.632620 17:-1.143451 18:-0.593290 19:0.568655 20:0.985567 21:-0.362241 22:-1.156631 23:0.409551 24:-0.467419 25:-1.355790 26:0.717337 27:-1.633862 28:0.006161 29:-0.186870 30:1.774499 31:-0.973698 32:-2.773076 33:0.939645 34:-0.482039 35:2.130522
-1 1:2.132281 2:0.297944 3:1.903355 4:0.548205 5:0.535751 6:-0.373107 7:0.594706 8:-1.093845 9:0.596855 10:0.754526 11:-0.485244 12:0.591519 13:-0.288726 14:1.267771 15:1.013887 16:-1.724458 17:1.172760 18:0.459761 19:-3.015399 20:0.345182 21:1.163967 22:-1.217958 23:0.913664 24:0.906284 25:-1.881076 26:-0.956440 27:0.206594 28:1.049570 29:0.089080 30:0.833698 31:0.022576 32:1.336560 33:-0.238647 34:-0.179665 35:-1.140662
-1 1:-0.838129 2:-1.180174 3:0.506933 4:-0.772169 5:-1.514989 6:0.360869 7:-0.204036 8:0.111326 9:0.142629 10:-1.322614 11:1.815057 12:-0.213227 13:0.714160 14:-2.281851 15:-0.122289 16:0.368806 17:2.796032 18:0.189634 19:-1.254736 20:1.129841 21:-1.703216 22:-0.475220 23:-0.812351 24:-0.167152 25:1.799707 26:-0.188434 27:-1.909501 28:0.557543 29:0.744683 30:1.535212 31:-0.207314 32:0.157281 33:-0.339640 34:2.316081 35:-2.191743
-1 1:-0.850051 2:0.741886 3:-0.786373 4:-0.531613 5:-0.161708 6:-0.741513 7:0.526718 8:0.292715 9:0.952120 10:1.410175 11:0.675050 12:-0.063464 13:-1.561376 14:0.259776 15:-2.151065 16:-1.245100 17:-1.478590 18:0.179759 19:0.847676 20:-0.080987 21:-1.266485 22:-0.082162 23:-1.361868 24:0.739476 25:0.266568 26:-1.337209 27:0.796647 28:-1.265255 29:-1.560979 30:0.902936 31:0.836173 32:-0.220041 33:-1.251898 34:1.289067 35:0.226812
-1 1:-0.274973 2:0.444561 3:0.246328 4:-0.123522 5:-0.022017 6:-1.261481 7:-0.168537 8:0.097219 9:-0.172635 10:0.262831 11:-0.580319 12:0.398030 13:0.883150 14:-0.737242 15:-1.178199 16:-0.049279 17:-0.406953 18:0.571771 19:0.767332 20:-1.978553 21:0.364641 22:0.659137 23:0.863630 24:-0.465312 25:-0.780616 26:-0.309481 27:0.783334 28:-0.913264 29:-0.956663 30:-1.452342 31:0.699799 32:0.395288 33:0.387422 34:0.110348 35:1.253442
-1 1:-0.516412 2:-0.797917 3:-0.425728 4:0.503924 5:-0.335199 6:0.253758 7:0.575304 8:-0.166047 9:-0.395072 10:0.408891 11:0.804635 12:0.750947 13:0.920580 14:-1.578466 15:0.250318 16:-0.348915 17:0.905445 18:-2.088901 19:-0.929068 20:0.329695 21:-0.949227 22:0.484838 23:-0.776681 24:0.349476 25:1.014877 26:0.051425 27:0.819345 28:0.564961 29:-1.259405 30:-0.661983 31:-1.553758 32:-1.354335 33:-0.739243 34:0.126731 35:0.688108
-1 1:0.307866 2:-0.128208 3:-1.997366 4:-1.578017 5:-1.438471 6:0.699989 7:1.072803 8:-2.131538 9:0.494097 10:0.022631 11:1.162515 12:-1.329275 13:-0.081802 14:-1.211025 15:0.684920 16:0.831469 17:0.632585 18:0.204875 19:0.146660 20:-1.645545 21:-0.432502 22:-0.332876 23:1.328937 24:0.423865 25:0.281184 26:0.826729 27:-0.046632 28:0.927767 29:1.654539 30:-1.328887 31:0.438410 32:1.115878 33:0.727694 34:-0.937823 35:0.198864
-1 1:-2.129640 2:-0.648266 3:0.148050 4:0.665933 5:-0.723581 6:-0.352415 7:1.163391 8:0.959593 9:1.712949 10:-1.992895 11:-0.494579 12:1.375549 13:0.021145 14:-0.677283 15:2.729356 16:0.294890 17:0.635761 18:1.004888 19:0.124568 20:1.177258 21:-0.519127 22:1.179749 23:-1.223848 24:-1.723277 25:-0.620792 26:1.606096 27:1.152902 28:-2.126559 29:-0.766668 30:1.173038 31:0.398604 32:-0.769031 33:1.473458 34:-0.310632 35:0.179645
-1 1:1.064424 2:-0.331235 3:-1.119869 4:0.500777 5:0.112647 6:-0.656400 7:0.743332 8:0.323283 9:0.539321 10:-0.098165 11:-0.511481 12:1.584906 13:-0.343816 14:1.698729 15:-1.630505 16:-1.317268 17:0.605384 18:1.925203 19:1.803325 20:1.106177 21:1.954138 22:0.786670 23:-0.393507 24:-1.018445 25:0.982719 26:1.181680 27:-0.546738 28:1.430033 29:1.458172 30:0.576637 31:-0.430585 32:-2.419737 33:0.010149 34:0.593059 35:-1.206768
-1 1:-0.198698 2:-0.277355 3:-1.856663 4:0.473566 5:-0.215181 6:1.137042 7:0.898770 8:1.310521 9:-0.173991 10:0.014209 11:-0.647049 12:1.847164 13:0.745146 14:1.129033 15:0.868609 16:0.151630 17:-0.453792 18:-0.276725 19:1.779996 20:0.509118 21:-0.197949 22:0.109708 23:-0.821942 24:-0.654635 25:-0.018886 26:1.450425 27:0.767651 28:2.176212 29:-1.362306 30:2.065945 31:1.058043 32:0.346188 33:-0.445621 34:-0.458329 35:-0.141826
-1 1:-1.106136 2:-0.595947 3:0.956496 4:-0.768106 5:0.527667 6:0.013688 7:2.360033 8:0.349019 9:-0.884627 10:0.178535 11:-1.098932 12:-0.332321 13:-0.555327 14:-0.370671 15:-0.320656 16:1.098116 17:-0.826322 18:0.191730 19:-0.437621 20:-0.772845 21:-0.578148 22:1.574282 23:-1.100739 24:-1.673268 25:-0.764453 26:-1.521808 27:1.309864 28:-0.452046 29:0.980743 30:-0.082522 31:0.993771 32:-0.756979 33:-0.414732 34:0.543223 35:0.081273
-1 1:0.238403 2:-0.195103 3:0.299929 4:0.989332 5:1.575755 6:0.120589 7:1.166726 8:-0.770554 9:-1.205147 10:-1.269616 11:-1.752740 12:0.368546 13:-0.370430 14:0.250773 15:0.470717 16:0.258521 17:0.208360 18:-1.107540 19:1.785820 20:-1.955138 21:1.504197 22:0.063152 23:0.617268 24:-1.804417 25:-1.838861 26:0.251859 27:1.007879 28:1.268084 29:-0.688122 30:0.206708 31:0.711015 32:-0.853538 33:1.083948 34:0.660205 35:0.930375
-1 1:0.267925 2:0.254878 3:0.620288 4:-0.673080 5:0.128703 6:-1.990514 7:1.605571 8:0.292064 9:1.259206 10:1.692894 11:-0.133808 12:0.447050 13:-0.876027 14:-0.533770 15:1.066660 16:-0.003614 17:0.885054 18:-1.897690 19:-0.330875 20:1.492845 21:0.145922 22:1.167267 23:1.399595 24:-0.613688 25:-0.798088 26:0.217197 27:-0.360099 28:0.226446 29:-1.039888 30:-0.137937 31:-0.414185 32:-0.298420 33:0.012149 34:-1.103758 35:0.226619
-1 1:0.464344 2:0.137889 3:0.471195 4:-0.336810 5:0.498384 6:0.831951 7:-0.960943 8:1.625571 9:-1.184953 10:0.546107 11:0.171462 12:-0.305439 13:-0.317114 14:0.459985 15:-0.840348 16:1.016998 17:1.436327 18:1.758282 19:1.454431 20:0.635555 21:0.003853 22:0.308699 23:1.528185 24:1.789126 25:-1.144478 26:-0.794382 27:-0.173842 28:-0.540371 29:1.063444 30:-0.169236 31:0.149350 32:0.601208 33:0.011388 34:-2.043335 35:-2.593061
-1 1:-1.538921 2:0.475195 3:-0.949110 4:-1.249507 5:-0.697089 6:0.105257 7:-1.249560 8:-1.152371 9:-1.726364 10:1.127621 11:-1.243182 12:-0.754873 13:-0.213330 14:0.776536 15:1.624215 16:-0.876306 17:0.671507 18:0.772488 19:0.774111 20:-0.178157 21:1.485086 22:-0.051313 23:-0.176226 24:0.159658 25:-0.090427 26:0.421052 27:1.930905 28:-1.122605 29:-1.303609 30:0.128604 31:-0.822898 32:-1.446112 33:0.856028 34:1.111545 35:-0.663557
-1 1:-0.288684 2:0.506222 3:0.731026 4:0.629419 5:-0.468756 6:0.174671 7:-1.227379 8:-1.396276 9:1.009031 10:0.330541 11:0.599354 12:-1.028634 13:-0.578374 14:-1.459661 15:0.630893 16:0.357621 17:0.865768 18:-0.272209 19:1.546682 20:0.596205 21:-0.511028 22:0.048928 23:1.353165 24:0.199477 25:-0.622033 26:-1.951506 27:-0.122713 28:-0.201320 29:1.176176 30:-1.697969 31:0.588701 32:1.164042 33:-0.726791 34:-3.033437 35:-0.393695
-1 1:1.297382 2:1.197028 3:-1.005946 4:-0.050348 5:-0.926586 6:-1.020908 7:-0.542887 8:0.240899 9:-1.249866 10:0.891114 11:1.149207 12:0.814982 13:0.892713 14:0.183000 15:1.365194 16:-0.423431 17:-0.232234 18:-0.499835 19:0.685110 20:-1.168423 21:0.178019 22:0.825239 23:0.306621 24:-0.555976 25:-0.876153 26:-0.045208 27:0.945365 28:-0.318182 29:1.004172 30:0.379046 31:0.224502 32:0.966635 33:-0.519393 34:-1.252199 35:-0.981972
-1 1:-2.414585 2:0.047513 3:1.246623 4:-1.758753 5:1.162199 6:-0.067248 7:-1.712927 8:0.719998 9:0.303094 10:0.601364 11:-1.985845 12:0.967739 13:1.843489 14:0.530975 15:0.516564 16:-1.316514 17:0.580238 18:-2.376408 19:-0.128071 20:-0.448204 21:0.062191 22:0.516614 23:1.170070 24:-0.204550 25:-0.066416 26:1.418824 27:-1.317273 28:2.086743 29:1.034814 30:1.055591 31:-0.312827 32:-0.530165 33:-0.256249 34:-1.358933 35:-0.246360
-1 1:0.105103 2:-0.344247 3:0.069112 4:-1.447036 5:0.287037 6:0.805569 7:0.423769 8:0.214703 9:-0.363638 10:0.339344 11:-0.567636 12:-0.986280 13:0.214523 14:0.155419 15:0.329011 16:-1.625641 17:1.908530 18:-0.700753 19:-1.276498 20:-0.629566 21:0.721305 22:-2.045480 23:-0.557620 24:-1.101682 25:0.487736 26:-0.119527 27:-0.402645 28:-0.270109 29:-0.180874 30:1.141230 31:-0.818300 32:-1.330897 33:-0.195527 34:-1.603320 35:1.877542
-1 1:-0.858909 2:1.854439 3:0.590835 4:-0.981579 5:1.137352 6:0.760097 7:-0.325038 8:1.651125 9:-1.564820 10:-0.019991 11:0.591870 12:1.365653 13:0.165752 14:-0.305135 15:-0.855543 16:1.136377 17:-2.830561 18:-0.928926 19:0.746311 20:2.317013 21:-0.252154 22:-0.757031 23:-0.599404 24:1.987577 25:0.693945 26:0.657273 27:0.595180 28:-1.453627 29:0.204567 30:0.433567 31:1.095458 32:0.048455 33:1.920476 34:-1.410064 35:-0.943635
-1 1:0.200661 2:0.068838 3:0.481583 4:-0.271529 5:1.543275 6:2.301366 7:0.840324 8:0.797382 9:0.493945 10:1.117607 11:2.383764 12:1.484837 13:0.280086 14:-1.298162 15:-0.266684 16:-1.450777 17:-0.717995 18:0.752613 19:-1.282760 20:1.166651 21:-0.901139 22:-1.547233 23:-0.286000 24:0.354312 25:-1.283222 26:-0.641459 27:-1.463770 28:1.104033 29:-0.305938 30:-0.129093 31:-0.246832 32:0.484526 33:0.111687 34:-0.830316 35:-1.063676
-1 1:-0.394992 2:-0.666120 3:1.774300 4:1.108709 5:0.681373 6:1.069258 7:0.653375 8:0.335744 9:-1.635392 10:1.164161 11:0.165736 12:0.934828 13:1.800534 14:-1.499215 15:-1.057792 16:-1.270161 17:-0.562280 18:-0.159097 19:-0.698975 20:0.650963 21:-1.243035 22:-0.074196 23:-0.284918 24:1.308977 25:0.733193 26:1.342844 27:0.991776 28:-0.229691 29:-0.071168 30:-0.235112 31:-0.470506 32:-0.175449 33:0.038809 34:0.291229 35:-0.986620
-1 1:1.248968 2:-0.814601 3:0.860649 4:-0.019853 5:0.566397 6:-0.455373 7:0.519822 8:-2.431499 9:0.436462 10:0.621062 11:-1.139153 12:1.266673 13:-1.441895 14:2.254631 15:-0.213367 16:0.926503 17:0.433616 18:0.394155 19:-0.645519 20:-0.453561 21:-0.149956 22:0.607969 23:0.879392 24:1.480911 25:-1.440767 26:0.626636 27:-0.611152 28:-0.055908 29:1.671053 30:2.684783 31:1.057930 32:-0.310559 33:-0.375169 34:-0.279535 35:-0.007527
-1 1:0.773543 2:1.303902 3:-0.715580 4:-1.844471 5:-0.903756 6:0.359752 7:-1.084951 8:-0.432946 9:0.606570 10:-1.964463 11:1.697955 12:-0.874257 13:0.860987 14:-0.971159 15:1.931980 16:0.047720 17:0.037166 18:-1.115276 19:-0.810184 20:-0.811917 21:0.011541 22:-0.449236 23:0.033277 24:1.792738 25:-0.839649 26:-1.081643 27:0.707295 28:-0.158837 29:-0.987547 30:0.472944 31:1.612057 32:0.223037 33:-0.683646 34:-0.019321 35:-0.708504
-1 1:-0.581598 2:-0.931853 3:-0.188913 4:2.630300 5:1.188874 6:-0.660119 7:-0.339633 8:0.345028 9:-0.855839 10:-2.369938 11:1.438038 12:-0.284625 13:-0.023658 14:0.628296 15:-2.060783 16:0.298957 17:-1.279283 18:0.963214 19:0.466930 20:-0.223047 21:-1.911976 22:1.580355 23:0.192002 24:-1.475633 25:-2.863012 26:2.073741 27:-0.083745 28:-1.906970 29:-1.146861 30:1.389211 31:0.855200 32:-1.041018 33:-1.440469 34:0.909364 35:0.974728
-1 1:0.119548 2:0.158003 3:-0.802769 4:-1.083858 5:1.004212 6:-1.068506 7:-0.178903 8:0.323969 9:1.588057 10:1.424121 11:0.022299 12:-1.241728 13:0.899278 14:-1.590814 15:-1.166354 16:-1.200245 17:-0.201862 18:-0.891426 19:0.323676 20:0.357694 21:1.342518 22:-0.924448 23:0.018431 24:-1.122085 25:-0.420523 26:-0.137689 27:-0.111852 28:1.809826 29:0.248232 30:0.109196 31:-0.120991 32:-0.588549 33:0.720280 34:1.741788 35:-0.056669
-1 1:0.376113 2:0.339954 3:-1.605707 4:-1.758784 5:0.785131 6:-0.657213 7:0.155867 8:0.164574 9:0.463938 10:0.139321 11:-1.233170 12:-1.563397 13:0.600028 14:1.814247 15:1.562304 16:0.247268 17:-0.589958 18:1.608616 19:-0.003745 20:0.250655 21:1.842141 22:-0.470723 23:0.185182 24:-0.776457 25:-0.051068 26:0.160123 27:-0.232347 28:-0.345319 29:-0.850881 30:-0.777849 31:-1.101279 32:1.128119 33:-0.737640 34:0.420281 35:-1.031396
-1 1:0.480967 2:1.182529 3:-1.416573 4:0.574326 5:1.368460 6:-0.374789 7:-0.966168 8:0.149548 9:-0.619014 10:-0.860696 11:1.094385 12:-1.876572 13:0.289746 14:1.629866 15:0.881366 16:-1.737977 17:1.105212 18:1.324689 19:-1.724263 20:1.487097 21:0.629351 22:-0.762133 23:-0.964192 24:-0.367193 25:0.588965 26:0.970933 27:2.804849 28:0.649748 29:0.845520 30:-0.491833 31:-0.814742 32:1.570512 33:0.179489 34:0.131254 35:-1.131496
-1 1:-0.147395 2:-1.173353 3:-1.368858 4:-0.601855 5:1.637877 6:-1.409423 7:-0.677667 8:-0.053207 9:-0.234078 10:-0.987504 11:0.073853 12:0.566480 13:-1.060882 14:-0.194277 15:-0.439530 16:-0.003715 17:-0.590446 18:-0.626791 19:-2.014741 20:0.163865 21:1.004347 22:0.441238 23:1.494348 24:-0.378946 25:-1.613118 26:-1.318547 27:0.770894 28:-0.209876 29:0.194324 30:-0.916129 31:-0.908895 32:-0.627278 33:-1.020146 34:-0.941482 35:0.574653
-1 1:0.381074 2:0.512517 3:-2.058845 4:-0.130155 5:0.997241 6:0.576103 7:0.601074 8:-0.982024 9:-0.506614 10:-0.196827 11:0.033948 12:-0.110287 13:-0.454356 14:-0.956780 15:0.194721 16:-0.894460 17:-0.633054 18:0.273713 19:-0.437828 20:0.300682 21:1.538642 22:1.236914 23:0.636051 24:-1.573140 25:0.997826 26:0.883801 27:-2.337037 28:-1.722872 29:-0.071859 30:0.682106 31:-0.215459 32:0.124827 33:-0.042800 34:-0.771793 35:-0.438326
-1 1:-0.337248 2:-0.975156 3:0.248804 4:-0.293057 5:0.706697 6:-1.864026 7:1.124166 8:0.527049 9:1.681025 10:1.563777 11:1.401261 12:-1.717198 13:-0.142191 14:-0.713443 15:-0.580588 16:0.765382 17:-0.708561 18:2.359791 19:0.563915 20:-0.316916 21:0.471333 22:0.010984 23:0.994902 24:-0.833154 25:0.426058 26:-0.702387 27:-0.005293 28:-2.682225 29:-1.621614 30:1.952184 31:-1.439196 32:0.925296 33:-0.047825 34:-0.838918 35:-1.433859
-1 1:0.734857 2:-2.159133 3:0.008249 4:-0.157877 5:0.478004 6:1.718289 7:0.253610 8:0.354032 9:0.819551 10:1.165188 11:0.878730 12:-1.016014 13:1.677640 14:-0.413491 15:0.380186 16:-0.427823 17:-0.972129 18:-0.081439 19:-1.123398 20:1.661802 21:-0.938842 22:-0.210803 23:-0.268926 24:-0.611154 25:0.282747 26:-0.681228 27:1.041167 28:-0.335869 29:0.289036 30:-0.025601 31:-0.126155 32:-1.181323 33:-0.280216 34:-0.531172 35:0.348802
-1 1:-0.591162 2:-0.986343 3:-0.391419 4:-1.717870 5:-0.315060 6:-0.706282 7:1.140031 8:-1.841124 9:-0.083280 10:0.054328 11:-0.128867 12:1.454169 13:-0.140346 14:-0.226387 15:-0.325643 16:-0.764427 17:-1.022285 18:-0.150536 19:-0.385385 20:0.065302 21:-1.858008 22:-0.018507 23:-0.788537 24:-0.157088 25:-0.068816 26:-0.235638 27:0.508196 28:0.574132 29:0.479201 30:0.616676 31:1.233638 32:-0.612667 33:0.670117 34:2.111646 35:-2.003487
-1 1:0.160231 2:-0.385042 3:-1.974905 4:-0.305432 5:-1.561463 6:1.012251 7:1.385081 8:0.468177 9:0.728059 10:0.801462 11:1.100477 12:-0.432736 13:-0.184272 14:-0.447832 15:0.480235 16:0.223617 17:-0.816466 18:-0.456281 19:-0.304822 20:1.600873 21:-1.219040 22:0.904481 23:0.846976 24:-1.672970 25:-0.399284 26:0.872114 27:0.638188 28:-1.193065 29:-0.121256 30:-0.566843 31:0.929447 32:-0.996472 33:-0.276847 34:-2.178854 35:3.551373
-1 1:1.048285 2:0.814543 3:0.309780 4:-0.672564 5:-0.249914 6:0.188720 7:-0.061511 8:0.084729 9:-0.699513 10:2.014639 11:-1.509344 12:1.062764 13:0.473101 14:2.241773 15:1.584557 16:0.846588 17:-0.937533 18:1.218360 19:-1.637618 20:-0.434250 21:1.187110 22:-0.154916 23:0.116409 24:0.652767 25:-0.684848 26:0.439889 27:0.364493 28:0.137814 29:-0.595672 30:1.040968 31:0.879359 32:-0.689683 33:0.440147 34:1.266971 35:0.476227
-1 1:0.365551 2:2.093534 3:-0.656884 4:-0.846137 5:1.801512 6:-0.018863 7:0.533875 8:0.113905 9:-0.372909 10:-1.154246 11:-1.608391 12:-0.673066 13:-0.346516 14:-0.845563 15:-1.272342 16:0.544490 17:-0.039805 18:0.747847 19:0.370392 20:-1.029019 21:0.422205 22:0.496447 23:-0.715708 24:1.547822 25:0.147089 26:1.289620 27:-0.996050 28:-0.549836 29:-0.887007 30:-1.130053 31:-1.010713 32:-0.464229 33:-1.360379 34:-0.821451 35:1.953226
-1 1:0.842465 2:0.360334 3:-1.286183 4:1.338534 5:-0.412657 6:1.324290 7:-0.187993 8:-0.757780 9:-0.862333 10:-0.230673 11:-1.892748 12:0.828364 13:-0.435931 14:0.946659 15:0.141999 16:-0.998520 17:0.660056 18:0.868678 19:-1.432528 20:0.065244 21:-2.086768 22:-1.085194 23:2.117333 24:-1.465735 25:-2.377597 26:-0.331152 27:-0.526453 28:1.505761 29:1.621129 30:-0.414816 31:-0.875103 32:-0.029639 33:-0.910532 34:-2.156869 35:0.145076
-1 1:-0.859211 2:-0.248408 3:0.269693 4:0.225509 5:-0.441734 6:1.408828 7:1.774493 8:-0.208112 9:0.318829 10:0.250747 11:1.278022 12:-0.973774 13:-0.554544 14:-0.103704 15:-0.962278 16:-1.240110 17:-1.390019 18:1.330857 19:-1.859453 20:-0.303127 21:1.680983 22:1.748516 23:0.818352 24:0.185000 25:2.224083 26:2.231059 27:0.411256 28:0.018974 29:0.777763 30:0.626403 31:0.966900 32:0.953506 33:-1.056482 34:0.380064 35:-0.428758
-1 1:0.286102 2:-0.124789 3:-0.910808 4:-1.253242 5:-0.939306 6:-0.161007 7:0.123006 8:-0.786656 9:0.502389 10:-1.170288 11:-0.947274 12:0.217195 13:-0.090781 14:-2.730889 15:0.036866 16:0.121515 17:-0.946586 18:0.272218 19:-0.028685 20:-0.745794 21:-1.076262 22:1.703718 23:0.028703 24:0.565750 25:1.958905 26:-0.427064 27:1.034397 28:0.160304 29:-0.685996 30:0.955243 31:0.789609 32:0.258457 33:-1.281089 34:0.052108 35:-0.106207
-1 1:-0.111538 2:0.453096 3:-0.977506 4:-0.500483 5:0.703172 6:-1.987454 7:1.619742 8:1.159809 9:-1.045442 10:0.166249 11:0.116925 12:-2.030436 13:0.089319 14:0.736144 15:-1.015083 16:-0.307870 17:0.181939 18:1.675948 19:-0.210174 20:-2.301825 21:1.134451 22:-0.041511 23:1.444559 24:-1.398983 25:-0.473106 26:-0.675865 27:0.309384 28:-0.411438 29:0.215307 30:-0.570324 31:-2.071107 32:-0.591674 33:-1.079796 34:0.294267 35:-0.266641
-1 1:0.531402 2:-0.445938 3:2.101821 4:-1.428019 5:-0.187588 6:-1.340364 7:-2.076899 8:1.341379 9:0.933014 10:-0.189136 11:-0.276842 12:-0.599259 13:-0.369766 14:-1.194263 15:0.593344 16:-0.279006 17:-0.181521 18:-1.850795 19:0.635290 20:0.000150 21:0.821057 22:0.420508 23:-0.707179 24:-1.058340 25:0.217362 26:0.004020 27:-1.336922 28:0.587793 29:-0.694908 30:-0.743951 31:-1.024121 32:0.354005 33:1.292725 34:0.454285 35:-1.291981
-1 1:1.204382 2:0.296938 3:-1.644172 4:0.055181 5:0.251886 6:0.857363 7:-1.038655 8:1.044717 9:0.437335 10:1.011704 11:-0.373594 12:0.292538 13:-0.234194 14:-1.447337 15:-0.645936 16:-0.509590 17:0.171924 18:-0.243029 19:-0.676800 20:0.263146 21:-0.440877 22:0.305271 23:0.329382 24:-0.300112 25:-1.178785 26:-1.233383 27:1.305883 28:-0.596264 29:1.049681 30:0.451879 31:-1.876994 32:0.615354 33:0.585330 34:-0.828537 35:1.494448
-1 1:-0.206273 2:0.878294 3:0.859926 4:0.421846 5:-0.478330 6:0.845180 7:-0.349006 8:1.804102 9:0.199167 10:0.439875 11:0.342271 12:-0.216431 13:1.414109 14:0.750292 15:-0.547002 16:0.648973 17:0.149477 18:1.098175 19:-1.133325 20:-0.151104 21:-1.283871 22:1.355726 23:-1.434291 24:1.156497 25:-0.514547 26:0.129992 27:0.050325 28:0.030163 29:0.580795 30:0.283508 31:-1.268758 32:1.770012 33:0.300505 34:0.942169 35:0.747534
-1 1:-0.225171 2:-0.179513 3:-0.599234 4:-1.314241 5:-0.034809 6:0.051958 7:-1.176125 8:0.079368 9:1.873850 10:1.205550 11:-1.435403 12:0.510674 13:0.392157 14:0.711284 15:-0.634960 16:-0.905367 17:1.461577 18:1.878352 19:1.384882 20:1.046549 21:-1.010492 22:-0.312394 23:1.372307 24:-0.017240 25:-0.379636 26:0.965637 27:1.209331 28:0.013528 29:1.513102 30:1.258586 31:-0.634097 32:-1.123424 33:-0.339396 34:0.720940 35:0.222336
-1 1:-0.980599 2:-1.753679 3:-1.733554 4:0.391624 5:0.203447 6:0.958327 7:-1.375339 8:1.570475 9:0.265201 10:1.631299 11:0.273321 12:-0.805684 13:0.251274 14:0.229079 15:-1.213135 16:-1.069429 17:0.095077 18:0.709022 19:0.379777 20:-0.622406 21:0.128276 22:-0.228517 23:-1.201930 24:-0.068138 25:0.309760 26:-1.144077 27:0.153817 28:1.181689 29:-1.051811 30:-0.677156 31:1.538815 32:0.678630 33:0.166969 34:0.424274 35:0.415757
-1 1:0.069793 2:0.335522 3:1.036594 4:0.048961 5:0.856991 6:0.227372 7:-1.116108 8:-0.012004 9:1.432656 10:0.541990 11:0.306650 12:-1.428863 13:0.085122 14:0.071615 15:-0.588973 16:-0.669781 17:-0.020954 18:-1.862470 19:1.488178 20:2.742409 21:-1.116640 22:-1.372187 23:1.562702 24:-1.222393 25:0.162182 26:-0.360596 27:-0.011648 28:-0.543211 29:1.412510 30:0.495362 31:-0.824613 32:-0.059761 33:0.789913 34:-2.155918 35:0.254050
-1 1:-0.702953 2:-0.233309 3:0.509474 4:0.602052 5:2.822717 6:0.704439 7:-0.901167 8:0.180494 9:-0.237708 10:-0.866548 11:0.241898 12:-1.935511 13:-0.659683 14:1.600724 15:0.237387 16:0.395795 17:-0.317230 18:-0.537862 19:1.353881 20:-1.033702 21:1.186601 22:-0.812528 23:-2.369328 24:-0.765209 25:-0.722450 26:-0.022559 27:-0.518597 28:0.730891 29:1.367637 30:0.644636 31:1.092682 32:1.040062 33:0.383109 34:1.184817 35:0.570363
-1 1:1.179311 2:0.747584 3:-0.102705 4:0.222427 5:0.774791 6:0.344359 7:-0.678397 8:0.404738 9:-2.975373 10:0.006641 11:-0.338375 12:0.509308 13:1.516862 14:0.408142 15:0.845287 16:-0.406034 17:-0.669677 18:-1.561372 19:-0.172943 20:-0.280893 21:-1.666616 22:-0.440567 23:-1.330200 24:-0.354614 25:1.475355 26:1.398138 27:0.416205 28:-0.549767 29:-0.364975 30:-1.093405 31:-0.362188 32:-0.225429 33:0.122331 34:1.028941 35:-0.237697
-1 1:-0.794554 2:-0.075359 3:0.349432 4:1.086886 5:1.863496 6:0.714852 7:0.270623 8:-0.319732 9:1.205611 10:1.276077 11:0.053659 12:0.517880 13:0.485050 14:1.394138 15:2.182656 16:0.756990 17:0.380722 18:-0.443548 19:-0.459649 20:-1.282655 21:0.962435 22:0.140461 23:1.631300 24:-1.843920 25:-0.133284 26:0.673099 27:-2.388555 28:-0.884612 29:-1.095685 30:0.322869 31:-0.730774 32:-0.829070 33:-1.616867 34:-1.814701 35:-0.354581
-1 1:1.722826 2:-0.025837 3:-0.509597 4:0.669519 5:-0.230521 6:-0.494784 7:1.230473 8:1.085266 9:-1.274229 10:0.301573 11:-0.482633 12:0.101530 13:-0.885754 14:-0.025364 15:-1.536503 16:0.584387 17:-1.616599 18:0.723015 19:0.653869 20:-0.621926 21:0.665816 22:-2.262250 23:0.114335 24:0.626198 25:-0.747545 26:0.630835 27:-0.636087 28:-0.794016 29:1.904059 30:-0.045174 31:-0.022619 32:-0.702349 33:0.857354 34:-0.161389 35:-1.009093
-1 1:1.184717 2:-0.157790 3:-0.742828 4:1.894221 5:0.731375 6:-0.533760 7:-1.262150 8:-1.692270 9:-0.696006 10:0.916844 11:0.341056 12:-0.527184 13:-0.354057 14:1.372953 15:1.516409 16:0.214147 17:0.848123 18:-0.187101 19:0.729629 20:-0.438363 21:0.547397 22:0.026008 23:-0.638181 24:0.847167 25:1.726258 26:1.206092 27:-0.664675 28:1.174334 29:-0.439576 30:0.628028 31:-0.137307 32:0.575137 33:-0.536883 34:0.166224 35:-0.182885
-1 1:0.155611 2:1.131673 3:1.319495 4:-0.780671 5:-0.498253 6:0.915755 7:1.311182 8:-0.140875 9:-1.228723 10:-0.525279 11:0.008513 12:0.968771 13:1.781796 14:1.050457 15:-0.000890 16:1.013522 17:-0.749457 18:0.005358 19:0.353665 20:-2.017740 21:0.428655 22:0.993884 23:0.324611 24:1.157606 25:1.481395 26:-0.994661 27:1.353071 28:0.255710 29:0.427255 30:0.253346 31:-0.501846 32:1.045551 33:1.669580 34:2.374807 35:-0.071514
-1 1:1.034928 2:-0.512273 3:0.189694 4:-0.263690 5:-0.752986 6:0.155968 7:-1.233665 8:1.264847 9:0.006833 10:1.477914 11:-0.273572 12:1.070016 13:-0.834133 14:-0.534287 15:-1.452514 16:-1.075502 17:-0.612941 18:0.810378 19:0.241373 20:-1.326824 21:-0.925416 22:-2.351310 23:0.457889 24:-0.481741 25:0.029381 26:0.565741 27:0.763814 28:0.536167 29:0.719517 30:-1.226002 31:-2.030635 32:-0.710385 33:-0.250752 34:0.929368 35:0.794979
-1 1:-1.738976 2:0.555592 3:-1.329752 4:1.627809 5:-0.031827 6:0.769909 7:0.341133 8:-0.705011 9:0.745291 10:0.745060 11:0.543201 12:-1.226994 13:-0.459553 14:-0.895050 15:-1.472222 16:-1.377940 17:-0.578736 18:-0.684249 19:-1.227943 20:-0.501104 21:0.332966 22:-0.679957 23:2.344146 24:-1.123202 25:-0.507378 26:1.935511 27:-0.061627 28:1.539416 29:-1.101733 30:-2.932784 31:-1.224797 32:-0.263210 33:-1.482829 34:-1.293475 35:0.655453
-1 1:0.270578 2:-0.563159 3:-1.142765 4:0.528624 5:0.588054 6:-0.787083 7:-1.452975 8:0.177039 9:1.889041 10:0.236784 11:-0.257180 12:-1.873221 13:0.193058 14:-1.333990 15:-0.808176 16:-0.039955 17:1.164434 18:1.348504 19:1.937809 20:0.027169 21:-0.536118 22:1.023075 23:1.763581 24:-1.432445 25:-0.781028 26:0.209786 27:-0.212966 28:0.588156 29:1.136355 30:-1.023022 31:1.070832 32:-0.380570 33:0.216033 34:0.263810 35:2.851240
-1 1:-0.992956 2:-0.130380 3:0.392703 4:1.202303 5:0.680229 6:0.536309 7:0.102219 8:0.211131 9:0.140139 10:-0.212445 11:0.359892 12:-1.292752 13:0.038006 14:-1.830970 15:-0.262033 16:-1.021881 17:1.166198 18:0.391305 19:-0.329497 20:-1.026739 21:-1.622894 22:-1.442804 23:1.538454 24:0.416629 25:0.090170 26:-1.291989 27:-1.695437 28:-1.020903 29:-2.194730 30:0.363198 31:-0.912451 32:0.382629 33:1.067375 34:-0.589351 35:0.318798
-1 1:-1.886996 2:-0.113823 3:0.211525 4:0.492109 5:1.043499 6:-0.848792 7:-2.108287 8:-0.503747 9:1.014132 10:-0.681423 11:0.364827 12:-1.252008 13:0.146581 14:-0.934659 15:-1.916110 16:0.634195 17:-1.225555 18:-2.086420 19:-1.169730 20:-0.651326 21:0.409207 22:0.581406 23:0.354956 24:1.677784 25:-1.377220 26:0.127885 27:-1.050980 28:0.827001 29:0.664891 30:0.601124 31:-0.029695 32:-0.239523 33:1.543464 34:0.348612 35:0.255025
-1 1:-1.216129 2:-0.278914 3:-0.241049 4:-0.623067 5:0.071416 6:-1.308620 7:-0.414749 8:-0.160648 9:1.622193 10:0.172688 11:-0.482359 12:1.459133 13:1.037334 14:-1.206540 15:1.796515 16:0.534296 17:1.103065 18:1.528023 19:0.836314 20:0.506814 21:-1.720657 22:0.187920 23:1.359869 24:0.266141 25:-0.130077 26:-0.121110 27:0.912203 28:-1.305768 29:0.182924 30:2.158248 31:-0.129788 32:-0.153686 33:0.042562 34:-1.597907 35:0.046265
-1 1:-2.099439 2:1.363869 3:0.040234 4:-0.564283 5:-0.554611 6:-0.432222 7:-1.183162 8:0.453343 9:-0.279424 10:-0.798118 11:0.051478 12:-0.109011 13:-0.092890 14:0.521287 15:-0.152918 16:0.085002 17:-0.342642 18:-1.162766 19:0.136825 20:-0.505945 21:0.571449 22:-1.037681 23:0.774869 24:-0.533267 25:0.167316 26:-1.868473 27:0.560282 28:0.505387 29:-0.310687 30:0.808235 31:-0.213667 32:1.222732 33:0.323632 34:0.301262 35:-0.195621
-1 1:-0.899571 2:-1.574118 3:-0.542417 4:-0.986192 5:1.432217 6:1.318847 7:-1.168716 8:-0.323184 9:-0.057987 10:-0.496665 11:-0.827409 12:1.127913 13:-1.739963 14:-1.022864 15:0.345031 16:1.469029 17:-0.697742 18:-0.070704 19:-0.577322 20:-1.799197 21:-0.343226 22:-0.041806 23:-0.526481 24:-1.869473 25:-0.179945 26:0.452127 27:0.842270 28:1.459800 29:0.802408 30:0.440661 31:-0.926718 32:-0.288786 33:0.219099 34:0.604060 35:-0.429556
-1 1:-0.695266 2:-1.053382 3:-1.929635 4:1.071650 5:0.201281 6:2.440251 7:-1.394308 8:-1.000427 9:-0.146472 10:-1.595365 11:-0.590338 12:-0.682688 13:-0.330642 14:0.371922 15:-0.279099 16:0.650899 17:1.509529 18:-0.295914 19:-1.665304 20:1.494172 21:0.071722 22:-0.098378 23:-0.450466 24:0.655104 25:0.607519 26:0.585271 27:-1.625387 28:-1.204177 29:-0.605995 30:0.953692 31:-1.276767 32:0.036027 33:0.129879 34:0.356536 35:0.657581
-1 1:-0.339563 2:0.182793 3:-1.701816 4:-0.671014 5:0.379789 6:0.985669 7:-1.130034 8:0.594569 9:-0.027963 10:-1.723501 11:0.195153 12:-0.966269 13:0.262220 14:0.982950 15:0.476348 16:-0.493533 17:-0.734274 18:0.441332 19:0.128502 20:-0.551414 21:1.597742 22:1.595988 23:1.170243 24:-0.672847 25:1.755418 26:0.632544 27:1.153888 28:-1.120215 29:0.884169 30:1.502050 31:0.582327 32:-0.891485 33:-0.219864 34:-1.532195 35:1.030943
-1 1:0.550273 2:-0.554258 3:0.535698 4:-0.480295 5:-0.944551 6:0.508778 7:-1.350341 8:-0.219641 9:-0.136986 10:-0.918076 11:0.370751 12:0.105868 13:1.760055 14:-0.504627 15:-0.401414 16:-1.382919 17:-0.140581 18:-0.644951 19:0.178918 20:-1.067039 21:0.950736 22:-1.150700 23:0.029752 24:2.117141 25:-1.007069 26:0.775771 27:1.053213 28:1.064372 29:-1.227840 30:0.119135 31:0.883633 32:1.834577 33:-1.627385 34:-0.334657 35:0.653282
-1 1:-2.032250 2:-1.938885 3:-0.069329 4:-0.271328 5:-0.532932 6:-0.190866 7:0.379696 8:-0.995455 9:-0.823244 10:-0.668609 11:-0.659049 12:0.678097 13:0.550998 14:0.660207 15:0.139562 16:-0.616823 17:-1.066946 18:-0.530493 19:0.600783 20:1.434401 21:-0.613812 22:-0.800194 23:0.175420 24:-1.716079 25:-0.506127 26:-1.082712 27:0.738318 28:0.373353 29:-1.845154 30:-0.090226 31:-0.612340 32:0.518322 33:2.034684 34:0.119566 35:-0.324956
-1 1:1.318413 2:-2.445519 3:0.436820 4:-0.890786 5:0.950798 6:-0.747788 7:-0.248031 8:-1.097215 9:0.544678 10:2.933222 11:-2.237477 12:-0.922854 13:-0.465818 14:-0.582257 15:-0.225795 16:0.471284 17:0.135454 18:-0.528606 19:0.243925 20:0.216886 21:-1.928903 22:-0.756481 23:0.365816 24:-0.064100 25:0.377901 26:0.377445 27:-0.723741 28:-1.385731 29:-0.030819 30:0.066405 31:1.312716 32:0.142740 33:0.417149 34:0.323642 35:-0.248214
-1 1:-1.091707 2:1.575032 3:1.147602 4:0.302113 5:1.647957 6:0.866398 7:-0.347011 8:0.344564 9:-0.896550 10:-0.189647 11:2.180403 12:0.157354 13:-0.147971 14:0.850290 15:1.697616 16:1.069332 17:1.711587 18:-0.582802 19:-0.604732 20:-0.311494 21:0.187211 22:1.643584 23:0.582296 24:0.750908 25:-0.348453 26:1.300041 27:1.070882 28:0.792234 29:1.280032 30:-0.130396 31:-1.086908 32:0.503512 33:0.372512 34:-1.365109 35:-0.023292
-1 1:-0.053300 2:-0.362399 3:-0.842332 4:-0.226409 5:-0.230697 6:0.032977 7:-0.427730 8:0.087160 9:-1.389994 10:0.142464 11:1.688876 12:1.138127 13:0.134801 14:-0.017424 15:-0.237674 16:1.041856 17:-0.481186 18:-2.008694 19:-0.508998 20:0.158796 21:-1.490224 22:-2.535823 23:-0.873202 24:-0.619839 25:-0.633394 26:-0.534594 27:-1.578246 28:-1.175336 29:0.563816 30:0.167974 31:0.721386 32:-0.698266 33:0.555359 34:0.850480 35:-0.976599
-1 1:-0.238046 2:-0.319325 3:-1.102604 4:0.260457 5:0.277107 6:0.584144 7:1.827247 8:-1.633165 9:1.004050 10:-0.129785 11:-0.903625 12:0.010401 13:0.311130 14:0.838476 15:0.207186 16:1.082089 17:1.652351 18:0.328428 19:-0.916775 20:0.383745 21:-0.151106 22:1.398528 23:-1.703607 24:-1.424631 25:-0.776982 26:-0.247586 27:0.605658 28:-0.408285 29:0.367993 30:2.272357 31:-0.267282 32:-0.938715 33:-0.380569 34:-0.536789 35:-1.213818
-1 1:-1.184389 2:0.283496 3:0.843801 4:1.074967 5:0.492478 6:-0.274184 7:-0.125048 8:-1.710092 9:-0.126198 10:0.232997 11:1.559361 12:0.908748 13:-1.381374 14:0.381683 15:0.190955 16:-0.284703 17:-0.390068 18:0.550202 19:1.830095 20:1.274314 21:1.573915 22:1.551699 23:0.512715 24:-1.369296 25:0.480450 26:0.699093 27:0.842962 28:-0.516049 29:-1.054965 30:-0.631999 31:-1.625785 32:0.794508 33:0.002003 34:-1.603898 35:-1.756009
-1 1:0.522808 2:0.339039 3:1.212577 4:-0.750143 5:0.408420 6:0.903196 7:-0.066569 8:0.010210 9:-0.067439 10:0.806562 11:0.805978 12:0.307589 13:0.223984 14:0.567387 15:0.558476 16:1.747473 17:1.374474 18:-0.654663 19:-0.564793 20:-0.161470 21:0.323009 22:-0.733812 23:1.379668 24:-1.671640 25:0.054736 26:-1.530067 27:1.019935 28:-0.049848 29:-1.342613 30:0.318424 31:2.187768 32:1.655953 33:-0.198443 34:-0.403291 35:0.705068
-1 1:0.253265 2:-0.436772 3:1.414262 4:0.573201 5:0.756960 6:-0.351299 7:-0.004873 8:-0.896657 9:-0.867565 10:-0.478818 11:1.405689 12:-0.675817 13:-2.099276 14:-1.447782 15:1.185435 16:0.108901 17:-1.880680 18:-0.557396 19:-0.160618 20:-0.928340 21:-1.524097 22:1.953059 23:1.207768 24:1.129834 25:0.924603 26:0.939992 27:-0.610962 28:-0.812248 29:0.887594 30:0.441107 31:-0.322648 32:-1.455533 33:0.870714 34:-1.502795 35:-0.674394
-1 1:-0.545965 2:-0.552686 3:-1.005672 4:-1.057660 5:0.287689 6:1.923842 7:1.058280 8:1.541176 9:0.210305 10:-1.508395 11:0.766418 12:0.897515 13:-0.147643 14:-0.962808 15:0.453077 16:0.008413 17:-0.986117 18:0.796102 19:-2.137002 20:0.988357 21:-0.523561 22:0.869072 23:-1.187648 24:0.285699 25:0.332414 26:-1.418088 27:0.454941 28:-1.212926 29:2.302467 30:-0.312768 31:0.450550 32:-0.136492 33:-0.341884 34:1.915178 35:2.049932
-1 1:0.182097 2:0.772324 3:0.227736 4:-0.604836 5:0.037546 6:-0.930331 7:-1.455884 8:-1.421236 9:1.625059 10:-0.936504 11:2.918910 12:0.181994 13:-1.262882 14:1.666724 15:0.819426 16:-0.771672 17:-0.102160 18:1.663142 19:-1.280869 20:1.224879 21:-0.384937 22:0.834370 23:-0.855945 24:0.523046 25:-0.537243 26:-0.703637 27:1.259374 28:0.274452 29:-1.280437 30:-0.892086 31:0.730603 32:0.337685 33:2.885702 34:0.447296 35:0.457931
-1 1:-0.450036 2:0.893445 3:0.041917 4:-0.904354 5:0.573952 6:0.771365 7:-1.018207 8:-1.519791 9:-0.867350 10:0.616613 11:0.117109 12:1.647706 13:-0.957323 14:0.420747 15:0.747850 16:-1.922701 17:-0.099388 18:0.566007 19:-0.708156 20:1.137613 21:-1.925693 22:0.421481 23:1.183622 24:-0.820318 25:0.176320 26:0.340931 27:0.706414 28:0.458239 29:-0.800934 30:-4.241588 31:-1.305328 32:0.924307 33:-0.290656 34:0.540115 35:-1.805884
-1 1:-0.729213 2:-0.865842 3:-0.313418 4:1.228908 5:1.937997 6:-0.564136 7:-2.383722 8:0.501800 9:0.845241 10:0.340731 11:-0.846299 12:-0.520480 13:-0.439895 14:1.572530 15:-0.494448 16:0.246515 17:-2.077828 18:0.296579 19:0.029184 20:2.473592 21:0.991600 22:-0.935443 23:-2.019226 24:-0.400915 25:-0.849361 26:-0.049131 27:-0.847222 28:-0.189199 29:0.012524 30:0.771488 31:-1.695961 32:0.503200 33:-0.919999 34:-0.205928 35:-0.365977
-1 1:-0.154500 2:-0.707347 3:1.090993 4:-0.280683 5:-0.918743 6:-0.870257 7:-0.091555 8:0.152517 9:0.237423 10:-0.515776 11:-0.023712 12:-0.857156 13:-0.022765 14:0.099160 15:-0.216203 16:-0.414281 17:0.806177 18:-0.071336 19:1.651792 20:-0.604178 21:0.463397 22:-0.333290 23:-0.155697 24:-0.477561 25:-1.256619 26:-1.573082 27:0.640255 28:0.093223 29:0.660331 30:0.837180 31:1.084895 32:-1.017359 33:0.367749 34:-1.267511 35:-0.520087
-1 1:0.707849 2:-0.020302 3:-0.329179 4:-1.212502 5:-0.084892 6:0.756212 7:1.604491 8:1.615232 9:1.016174 10:-0.867907 11:0.678978 12:-0.345116 13:0.358309 14:-1.874608 15:-1.317626 16:0.837307 17:0.157307 18:0.202090 19:-0.800109 20:0.477946 21:0.569934 22:-0.567735 23:0.818033 24:-0.055452 25:0.899742 26:0.000877 27:-0.680545 28:-0.488401 29:0.268396 30:0.602926 31:0.898933 32:0.077950 33:0.215095 34:-0.524777 35:1.081695
-1 1:1.183714 2:-0.002341 3:0.822085 4:1.190867 5:1.477480 6:-1.244568 7:0.175995 8:-0.834677 9:-2.312774 10:0.080183 11:-0.272254 12:-0.894658 13:-0.766907 14:0.552784 15:-2.881499 16:-0.207887 17:1.767444 18:-0.607135 19:0.960154 20:-1.392125 21:1.895589 22:-0.193576 23:1.231018 24:-0.083610 25:-1.464765 26:-0.640760 27:0.219682 28:0.142794 29:0.484820 30:-0.509369 31:-0.600697 32:-0.586023 33:-0.522821 34:-1.251534 35:1.053441
-1 1:-0.167565 2:0.262000 3:0.843856 4:0.853533 5:0.862868 6:-0.276522 7:-0.512670 8:-0.459077 9:0.288474 10:-1.325266 11:-0.757035 12:0.046803 13:1.040484 14:-0.039865 15:0.825661 16:0.957414 17:1.061607 18:0.111778 19:-1.793042 20:0.299080 21:-1.700715 22:-0.988065 23:-0.561200 24:-0.848773 25:0.733426 26:1.146530 27:-0.585104 28:0.607967 29:0.039524 30:2.832092 31:-1.478475 32:1.396799 33:0.261803 34:0.353896 35:0.817981
-1 1:-1.186998 2:-2.729102 3:-0.223896 4:0.504963 5:-0.281832 6:-0.489388 7:-0.955413 8:-0.785974 9:-0.517397 10:-0.746755 11:-1.468145 12:0.381841 13:0.757664 14:1.692855 15:0.856424 16:0.741069 17:-0.777106 18:-1.441089 19:1.987830 20:-0.500014 21:0.063287 22:-0.304672 23:1.154807 24:1.092091 25:-0.522854 26:-0.257359 27:0.557139 28:1.640146 29:0.572274 30:-1.624396 31:-0.818800 32:-2.216612 33:1.577462 34:0.308605 35:0.355989
-1 1:-0.092118 2:-1.944221 3:0.058867 4:-0.662015 5:-0.936104 6:0.283149 7:0.841943 8:-1.376681 9:-2.080139 10:0.470040 11:-0.078773 12:2.029692 13:1.197961 14:0.958740 15:0.693873 16:0.751824 17:-1.136722 18:0.418129 19:-0.335428 20:0.763805 21:-0.050165 22:-0.168533 23:1.109838 24:-0.427913 25:0.529232 26:2.396510 27:0.039619 28:0.528499 29:-0.249307 30:-0.256288 31:0.046895 32:0.520750 33:-1.041816 34:0.729763 35:-0.192873
-1 1:0.168439 2:0.074200 3:0.250009 4:0.536232 5:-1.468103 6:0.760005 7:2.265426 8:-0.119295 9:1.472824 10:-1.536356 11:1.878938 12:1.235761 13:-0.153651 14:0.233554 15:-0.511264 16:-0.632062 17:-1.136358 18:1.171485 19:-0.341278 20:0.628561 21:1.176496 22:-0.020705 23:0.330749 24:-0.253752 25:0.076718 26:0.931426 27:-0.140548 28:-0.667083 29:-0.531490 30:-1.945031 31:-1.814590 32:-1.050892 33:-0.185328 34:1.548758 35:-1.110364
-1 1:0.258337 2:-1.730919 3:-0.408800 4:-1.833671 5:-0.140386 6:0.436682 7:-2.161156 8:0.905102 9:0.700379 10:-1.716298 11:0.628581 12:-0.022826 13:1.877098 14:-0.370232 15:-1.070404 16:0.208498 17:1.983976 18:0.218340 19:-0.837701 20:3.011733 21:0.483250 22:0.214239 23:0.455947 24:-1.023982 25:-0.750349 26:-1.469525 27:0.521587 28:0.807777 29:1.216681 30:0.231532 31:1.213371 32:-0.028331 33:-1.542440 34:0.616535 35:-2.273252
-1 1:-0.368789 2:-0.035742 3:-1.037540 4:-1.118007 5:-0.757116 6:-0.473696 7:-0.238082 8:0.028414 9:-0.033213 10:1.655793 11:-1.884795 12:-1.120462 13:0.262703 14:-3.704258 15:-0.366569 16:-0.227961 17:1.436979 18:-0.694118 19:-0.172560 20:0.978698 21:-0.612299 22:1.158061 23:-0.637585 24:1.331923 25:0.199157 26:0.080074 27:0.245825 28:0.085396 29:-2.143313 30:0.772456 31:-1.738541 32:0.887134 33:1.290805 34:-0.120807 35:-0.002396
-1 1:2.482257 2:-0.693481 3:0.144200 4:-1.530558 5:-0.352610 6:0.783349 7:-0.913295 8:1.370645 9:-0.602026 10:-1.642428 11:-0.631182 12:-0.349125 13:0.610178 14:0.186839 15:-1.065639 16:-1.297349 17:0.692969 18:-0.367010 19:0.178080 20:0.709136 21:2.127792 22:1.389853 23:0.065505 24:-0.538803 25:0.495753 26:-0.338170 27:0.464773 28:0.569481 29:2.858338 30:0.387522 31:-2.075690 32:0.823093 33:-0.354777 34:-0.307865 35:0.435161
-1 1:1.116531 2:1.589957 3:1.394564 4:-2.056006 5:1.553635 6:-1.204031 7:-0.287685 8:0.343462 9:0.938724 10:-0.226881 11:-0.835743 12:-0.939919 13:0.093659 14:-0.524586 15:-0.728953 16:0.092749 17:-1.965563 18:0.682851 19:-0.101789 20:0.618559 21:1.122683 22:-0.605573 23:0.197908 24:0.256918 25:-0.271665 26:0.576448 27:0.597732 28:-0.611245 29:0.235496 30:0.196855 31:2.461588 32:1.629274 33:-0.420875 34:0.446579 35:-0.038269
-1 1:1.013659 2:-0.396921 3:0.111067 4:-0.518860 5:-0.193701 6:-1.278703 7:0.333812 8:0.250106 9:0.044803 10:0.356744 11:1.068325 12:-1.559705 13:0.177198 14:0.003939 15:-0.931502 16:-0.101108 17:0.860219 18:0.712165 19:0.092810 20:0.293492 21:-0.171492 22:-1.722112 23:0.566222 24:0.750048 25:0.360010 26:0.249541 27:0.272031 28:0.999895 29:0.189430 30:-0.509980 31:0.738178 32:2.487403 33:-1.938661 34:0.542818 35:-0.030244
-1 1:0.712784 2:-0.599660 3:0.280440 4:-1.478291 5:0.458890 6:0.993591 7:-0.845594 8:0.189683 9:1.428903 10:0.888434 11:-0.777204 12:1.846482 13:-0.018330 14:0.235179 15:-2.160894 16:0.855855 17:3.249263 18:1.794739 19:0.293645 20:1.252088 21:-2.259946 22:0.028487 23:0.251342 24:-2.181239 25:0.990604 26:-0.517057 27:1.015285 28:1.250648 29:-0.187065 30:0.882158 31:-0.629604 32:-0.544754 33:1.002665 34:0.842937 35:-1.208700
-1 1:0.956212 2:-0.836479 3:-1.902225 4:-1.046891 5:1.115382 6:0.572029 7:0.959603 8:-0.372414 9:-0.142672 10:1.661655 11:-1.323275 12:1.500963 13:0.072899 14:-1.250011 15:0.852992 16:1.625229 17:-0.476914 18:3.187921 19:-1.329324 20:0.763368 21:0.495563 22:-1.117355 23:-0.335217 24:-1.274132 25:-0.284380 26:-0.158964 27:0.459654 28:-1.469255 29:0.131404 30:1.745358 31:-0.814472 32:-1.057940 33:0.375699 34:0.256973 35:-0.445238
-1 1:1.267780 2:1.005866 3:-1.052757 4:-2.141910 5:-0.250678 6:-0.807475 7:-1.473733 8:0.600504 9:-1.054188 10:-1.593695 11:-0.775030 12:1.481588 13:1.016890 14:-0.511774 15:1.817616 16:-0.350999 17:0.047825 18:1.169672 19:-1.490866 20:-0.069614 21:0.624763 22:-0.908830 23:1.541163 24:-0.319739 25:-0.048233 26:-1.150779 27:-1.961110 28:0.545380 29:-0.268872 30:0.455060 31:-1.145372 32:0.887760 33:0.458869 34:-1.190194 35:-0.244515
-1 1:-0.491150 2:0.000589 3:2.070545 4:-0.570060 5:0.194565 6:0.422842 7:0.408290 8:0.384224 9:1.177070 10:1.651080 11:-1.090553 12:-0.786259 13:-0.754433 14:1.181797 15:-0.850291 16:2.267331 17:-0.545640 18:0.425987 19:0.475945 20:-0.366265 21:-0.440209 22:1.710779 23:-0.645224 24:-0.339797 25:0.965860 26:2.366668 27:-0.468814 28:0.436493 29:0.331627 30:0.283001 31:0.881206 32:-0.534769 33:1.459815 34:-0.525273 35:-2.035815
-1 1:-0.476755 2:-0.295945 3:0.683524 4:1.514706 5:-1.766964 6:1.458694 7:-0.312287 8:-1.062720 9:-0.319329 10:0.971036 11:-0.954975 12:0.671271 13:-1.123952 14:-0.438326 15:1.590933 16:-0.832682 17:0.244219 18:-1.198335 19:-1.843485 20:0.204985 21:1.231660 22:-1.194533 23:0.562251 24:1.128401 25:0.156085 26:-0.587696 27:-1.297631 28:-0.576728 29:-1.327612 30:1.538400 31:-0.188192 32:-1.461139 33:0.857970 34:-1.623120 35:-0.061298
-1 1:1.288424 2:-0.649087 3:0.076453 4:0.566016 5:0.558786 6:1.037094 7:1.067284 8:1.235674 9:0.136909 10:0.692420 11:-0.873979 12:0.343495 13:-0.169760 14:0.191275 15:0.926491 16:1.232221 17:-0.331485 18:0.576433 19:0.091453 20:-0.065354 21:0.517154 22:-0.178457 23:0.024266 24:-1.698707 25:-0.030675 26:-1.015850 27:0.175336 28:1.200447 29:-2.199778 30:-0.081616 31:-0.158721 32:-1.164456 33:0.317399 34:0.194582 35:-0.298034
-1 1:1.757985 2:-0.094599 3:0.233942 4:-0.061666 5:-2.377648 6:-0.298284 7:-0.206174 8:0.725916 9:0.623546 10:-0.938858 11:0.197837 12:0.181846 13:-0.218077 14:-0.619455 15:2.092071 16:-0.314471 17:0.330642 18:0.200796 19:-1.141063 20:-2.211107 21:-0.588132 22:-0.398550 23:-2.758458 24:1.239155 25:0.757310 26:-1.686822 27:0.718438 28:-2.919294 29:1.256838 30:0.111439 31:0.857179 32:-0.995649 33:-0.613818 34:1.342917 35:-0.662469
-1 1:-0.188139 2:-0.265920 3:-0.291152 4:0.289257 5:-1.297311 6:0.213865 7:-0.978648 8:-0.877525 9:-0.663343 10:-0.574305 11:-0.204561 12:0.225386 13:-1.939142 14:1.542584 15:0.398368 16:-0.742279 17:1.152777 18:-0.158678 19:0.462619 20:0.264776 21:-0.844673 22:0.892762 23:-0.798677 24:-1.949548 25:0.177305 26:-0.324412 27:0.011254 28:0.426798 29:0.740344 30:-1.148510 31:-1.455337 32:-2.463149 33:0.861690 34:0.547670 35:-1.509312
-1 1:-0.101784 2:-1.086780 3:-0.516927 4:0.526942 5:-0.581371 6:0.890478 7:1.241529 8:-1.619044 9:-0.447007 10:-1.299646 11:0.448168 12:0.704381 13:0.725866 14:-1.446524 15:-0.677961 16:0.408456 17:-1.646179 18:-0.189706 19:1.355390 20:0.347978 21:1.015311 22:0.427770 23:0.102412 24:0.677183 25:-0.650919 26:0.167967 27:-0.690686 28:-0.243962 29:-1.827202 30:0.748936 31:-0.445836 32:-0.180951 33:0.703575 34:-1.415557 35:0.811361
-1 1:1.327526 2:-1.156824 3:-0.787003 4:-0.506179 5:0.389785 6:1.042155 7:0.031350 8:0.385980 9:-0.360191 10:-0.619062 11:1.885862 12:-1.004545 13:1.101663 14:2.578838 15:-0.381784 16:-0.482436 17:-0.128232 18:1.289210 19:-0.292342 20:0.310853 21:0.066832 22:-0.935720 23:0.182594 24:0.867284 25:-1.801636 26:0.393494 27:-0.742871 28:0.901394 29:-0.656108 30:-1.135546 31:0.298449 32:0.655218 33:-0.374032 34:-2.739814 35:1.045162
-1 1:-0.819407 2:0.155765 3:0.078147 4:-0.240080 5:-0.505917 6:-1.253940 7:0.171305 8:0.081901 9:0.171583 10:0.124009 11:-0.476038 12:-2.423237 13:0.083952 14:0.187026 15:-1.680352 16:-0.405404 17:0.050311 18:-0.149626 19:-1.424578 20:0.742889 21:-1.170502 22:0.284377 23:-0.561688 24:-0.759660 25:2.665715 26:-0.767408 27:0.000630 28:0.523808 29:0.284346 30:1.766294 31:0.403342 32:0.403927 33:1.076678 34:-1.283942 35:-0.715133
-1 1:-0.166830 2:-0.298403 3:-1.078552 4:2.331332 5:0.558692 6:-0.187958 7:-0.784574 8:-1.471081 9:0.030654 10:0.734409 11:0.023074 12:0.136461 13:-0.495608 14:0.877461 15:0.784540 16:-0.417431 17:0.922577 18:1.693713 19:-1.630241 20:-0.033090 21:-0.164938 22:-0.759646 23:0.694219 24:-0.090154 25:-0.854219 26:-0.374645 27:0.626611 28:0.118779 29:-0.494007 30:-0.581647 31:-0.093393 32:0.435080 33:0.960914 34:0.450402 35:0.491625
-1 1:1.080650 2:-0.339941 3:1.685284 4:-0.458599 5:-1.869570 6:1.578377 7:1.546462 8:0.393941 9:0.055065 10:-0.909981 11:-0.060688 12:-0.028700 13:0.423889 14:0.876752 15:1.089442 16:0.122280 17:-0.829729 18:-1.585434 19:-1.136928 20:-0.802871 21:0.450516 22:-0.131886 23:0.421617 24:-0.611515 25:0.966813 26:-0.082784 27:0.201438 28:0.725522 29:0.922855 30:-0.441800 31:0.304876 32:-0.723741 33:0.682558 34:-0.268034 35:-0.296016
-1 1:-0.088014 2:-0.429023 3:-0.620069 4:1.174893 5:0.813391 6:-0.169734 7:0.024199 8:2.183784 9:0.920899 10:-0.526024 11:-0.902352 12:2.701521 13:-1.833609 14:-0.349843 15:-0.165805 16:1.474999 17:0.316182 18:-0.268247 19:1.288491 20:-0.088338 21:0.346376 22:-0.139009 23:-0.302957 24:0.666112 25:1.152838 26:-1.214534 27:0.015252 28:0.751138 29:-0.191273 30:-0.411701 31:-1.047550 32:-0.273864 33:1.456409 34:0.638414 35:-0.768400
-1 1:-1.302553 2:1.729774 3:-2.496108 4:0.116729 5:-2.745228 6:-0.162987 7:-1.561383 8:1.677431 9:0.436410 10:-0.158168 11:-0.824867 12:-0.444814 13:-0.204146 14:-0.540639 15:1.336253 16:0.152916 17:1.182507 18:-0.218535 19:0.513944 20:-2.244401 21:-1.655368 22:-0.140911 23:-0.707012 24:-1.341904 25:-0.648111 26:0.665730 27:-0.870747 28:0.710760 29:-0.221072 30:-2.342779 31:-0.920124 32:0.595764 33:-0.439719 34:-0.341207 35:-1.964229
-1 1:-0.291564 2:-0.504166 3:0.869558 4:2.424270 5:-0.279248 6:-1.689148 7:-0.818294 8:-0.906843 9:0.109021 10:0.703812 11:0.102774 12:-1.236664 13:0.578229 14:-0.086400 15:0.708561 16:-0.552993 17:-0.223340 18:-0.610553 19:0.745147 20:-1.283817 21:-0.023926 22:1.311342 23:-0.810926 24:-0.098586 25:2.323335 26:0.855194 27:-1.230018 28:-0.683344 29:0.627886 30:-0.320324 31:0.232079 32:0.824786 33:0.143946 34:0.700793 35:1.062257
-1 1:2.429122 2:-0.670479 3:-0.016028 4:-1.958141 5:1.193240 6:0.017366 7:-0.378957 8:-2.234047 9:0.050332 10:-0.549610 11:0.286368 12:-0.980481 13:0.701647 14:-0.317926 15:0.050653 16:-2.244147 17:0.499728 18:0.448277 19:0.085438 20:-0.972336 21:-1.758466 22:0.411800 23:-0.311477 24:0.374465 25:-2.692007 26:-0.222379 27:-2.763683 28:2.162677 29:1.922493 30:-0.052579 31:1.158217 32:-0.810147 33:-0.455955 34:0.573068 35:1.521914
-1 1:3.007011 2:0.779803 3:0.134216 4:0.257500 5:1.175017 6:-1.900174 7:0.154211 8:0.405641 9:0.087881 10:-0.437699 11:-1.284921 12:1.503738 13:0.622588 14:-0.195256 15:-1.895393 16:1.815229 17:1.523988 18:-0.057016 19:0.524505 20:-0.177544 21:0.884629 22:0.794705 23:-1.125134 24:-1.124156 25:1.687163 26:-0.172691 27:0.055096 28:-0.279213 29:-1.286063 30:-0.248416 31:1.326187 32:-0.938716 33:1.193508 34:0.057644 35:-0.242611
-1 1:0.175692 2:-0.074193 3:-0.782350 4:0.086223 5:2.160086 6:0.648083 7:-0.484664 8:0.949641 9:0.905212 10:-0.491559 11:0.901826 12:-0.629814 13:1.661593 14:0.925941 15:0.240546 16:-1.245754 17:0.176336 18:-1.399135 19:1.412470 20:-0.090853 21:0.409292 22:-0.431907 23:0.964715 24:-2.341051 25:0.463659 26:-0.028524 27:0.688266 28:0.639435 29:-1.642016 30:1.152943 31:0.559201 32:0.194659 33:-1.635210 34:0.873183 35:0.380696
-1 1:-1.060054 2:-0.316245 3:0.320727 4:1.989034 5:-1.602287 6:-1.262037 7:-1.403650 8:-0.522291 9:-0.724361 10:-0.863868 11:0.672948 12:1.515034 13:-1.405769 14:0.318957 15:-0.277511 16:0.782357 17:-0.488010 18:-0.080950 19:0.447387 20:1.164781 21:-0.594764 22:-2.103603 23:1.188372 24:-0.618537 25:1.265545 26:-0.702508 27:1.251272 28:-0.483585 29:-1.027052 30:0.209979 31:0.821019 32:-2.048066 33:0.239883 34:-1.693981 35:-0.096797
-1 1:1.031944 2:-0.526160 3:-1.287878 4:0.016235 5:0.294970 6:0.469824 7:-0.248336 8:1.600629 9:2.885103 10:0.490165 11:-0.634660 12:1.010128 13:-0.748748 14:-1.989128 15:2.377630 16:-0.648250 17:1.156983 18:1.090405 19:-0.624291 20:0.228493 21:1.014419 22:0.095888 23:-0.902399 24:-0.578323 25:-0.175333 26:0.476308 27:-0.224576 28:0.570091 29:-2.611838 30:-0.837355 31:-0.891439 32:0.509858 33:-1.022458 34:2.152139 35:1.758139
-1 1:-0.572095 2:-0.854750 3:-0.426156 4:1.606920 5:-0.006309 6:0.380576 7:-0.836757 8:0.069172 9:-0.501376 10:-0.709777 11:1.466054 12:-0.929474 13:-0.378958 14:-0.817467 15:-1.423410 16:-0.462900 17:-0.023585 18:-1.373900 19:0.720927 20:-0.414574 21:1.080908 22:0.330567 23:0.527987 24:-0.954351 25:-0.678062 26:1.876522 27:-1.414594 28:1.225065 29:-0.384996 30:0.861128 31:0.398695 32:-0.197616 33:-0.955977 34:0.966776 35:-0.881866
-1 1:0.268960 2:0.211744 3:-0.793210 4:-0.383403 5:-1.442582 6:2.164392 7:0.111874 8:-0.186612 9:0.986707 10:0.947472 11:-0.593015 12:-0.228292 13:-0.958792 14:1.113616 15:1.582714 16:-1.514969 17:0.711516 18:-0.771409 19:1.037532 20:0.528736 21:-0.830229 22:-1.529818 23:-0.388422 24:2.084460 25:-0.044679 26:0.186917 27:1.239900 28:0.820009 29:0.086059 30:0.359653 31:-2.051464 32:0.476560 33:-0.756729 34:0.898415 35:-0.146731
-1 1:0.878687 2:0.880386 3:-0.604331 4:0.649597 5:-0.513183 6:1.847237 7:-0.141924 8:1.123295 9:0.260129 10:-0.724655 11:-0.832050 12:-1.794446 13:0.461217 14:0.902491 15:0.972070 16:0.264147 17:-0.209835 18:1.445490 19:0.276671 20:-2.376249 21:0.465274 22:-0.263700 23:-1.257881 24:0.504566 25:1.165716 26:1.245144 27:0.363368 28:-0.822397 29:0.441051 30:-0.169821 31:-1.105398 32:2.580594 33:-0.277341 34:1.883842 35:3.105358
-1 1:-0.913079 2:-0.913473 3:-0.066373 4:-0.449543 5:0.533828 6:-0.626078 7:1.316221 8:0.468059 9:0.888148 10:-0.104210 11:0.243972 12:-0.662126 13:0.669223 14:1.256458 15:0.317053 16:-0.585659 17:-0.151882 18:0.674764 19:1.456822 20:0.331691 21:1.205387 22:0.326725 23:0.389914 24:-1.428985 25:0.597809 26:-0.538942 27:1.516241 28:-0.833851 29:-1.752256 30:-1.845647 31:0.098330 32:-0.979579 33:-0.003921 34:1.641677 35:-0.035409
-1 1:0.140006 2:-0.479037 3:-1.255913 4:1.342658 5:1.856742 6:-0.248477 7:0.515759 8:-0.606734 9:-0.915236 10:-0.229556 11:1.977387 12:0.435295 13:-0.180001 14:0.598325 15:-0.030761 16:-0.277801 17:0.008088 18:-0.095618 19:0.028151 20:0.614097 21:1.246960 22:0.200044 23:-0.930578 24:-1.736358 25:1.391801 26:-0.979049 27:0.282245 28:0.675190 29:0.036801 30:0.390373 31:0.013028 32:0.224760 33:-0.419790 34:0.462627 35:-0.062954
-1 1:-0.216529 2:0.752982 3:0.236326 4:1.450286 5:-0.050929 6:2.202846 7:-1.393080 8:-1.722482 9:-0.330410 10:-1.077467 11:0.319558 12:-2.068553 13:-0.122859 14:-1.467172 15:-1.953286 16:-0.998980 17:1.069427 18:-0.419606 19:-1.757080 20:3.464434 21:0.647444 22:-0.460338 23:-0.126450 24:1.242788 25:-0.615319 26:-2.101048 27:0.216871 28:-2.003752 29:-0.134169 30:-0.843574 31:-1.394046 32:2.913961 33:0.374151 34:0.269800 35:-0.083476
-1 1:-0.222675 2:-0.622287 3:-0.640912 4:-1.673097 5:-0.646294 6:-0.037405 7:0.596601 8:-2.015416 9:0.655638 10:-0.343379 11:-0.448043 12:0.142093 13:-0.162896 14:-0.051510 15:-0.282147 16:0.280507 17:0.595114 18:-1.264557 19:0.716629 20:-0.896460 21:-0.166478 22:-0.226751 23:-0.923049 24:1.315812 25:1.066042 26:0.164624 27:1.161820 28:0.466953 29:0.388792 30:1.630347 31:-0.357996 32:-3.041502 33:-0.713048 34:-1.637162 35:-1.731425
-1 1:0.713582 2:-0.528428 3:-0.190002 4:-0.914216 5:1.032276 6:-0.503670 7:-1.175146 8:-0.552201 9:1.015461 10:-0.654941 11:0.424723 12:0.016412 13:-0.770922 14:-0.995295 15:0.202973 16:-0.026899 17:0.624280 18:-1.337930 19:0.947319 20:-0.240691 21:0.654572 22:-1.566101 23:-0.326935 24:-1.389668 25:-0.162269 26:0.375333 27:2.713124 28:-0.021617 29:-1.119759 30:0.408986 31:-2.138422 32:-0.704805 33:1.235310 34:0.413725 35:0.725330
-1 1:-1.753873 2:0.218688 3:-0.683418 4:0.615877 5:-1.418123 6:0.526897 7:-0.078063 8:0.346121 9:0.164347 10:0.269815 11:0.590441 12:-0.896800 13:-0.740077 14:0.105366 15:0.056419 16:0.817896 17:1.394176 18:0.155932 19:-1.415063 20:0.062536 21:1.355323 22:-1.161285 23:0.836763 24:-0.014340 25:-0.690353 26:-0.841846 27:-0.943714 28:-0.273095 29:0.038293 30:-1.738907 31:-0.011831 32:0.281311 33:-0.368454 34:-1.499625 35:-0.567440
-1 1:1.476576 2:-0.795862 3:-1.070471 4:-1.870245 5:0.304164 6:-0.314420 7:-0.357462 8:-0.539558 9:-0.525918 10:-0.535798 11:-0.620912 12:-0.628086 13:0.714230 14:-0.721446 15:0.653104 16:-1.574212 17:-0.518640 18:-1.109164 19:-0.961421 20:-0.066281 21:-0.339479 22:-1.774040 23:1.451317 24:-1.239171 25:-0.121442 26:-0.993365 27:0.466026 28:0.236586 29:-2.047075 30:1.453394 31:-0.456630 32:0.684272 33:1.455055 34:-1.654458 35:0.029737
-1 1:1.356261 2:0.235810 3:0.532464 4:-0.096489 5:0.552173 6:-0.210164 7:0.997146 8:-1.405861 9:-0.173337 10:-0.946981 11:-0.730273 12:-1.761877 13:-0.791437 14:1.071822 15:-1.444048 16:-0.761554 17:0.466968 18:0.043818 19:-0.355313 20:0.971661 21:0.515330 22:-1.134224 23:-1.733578 24:-0.964081 25:-0.018976 26:-0.473202 27:-0.422332 28:0.871386 29:-1.186793 30:0.903119 31:0.146235 32:0.998497 33:0.424818 34:1.145274 35:-1.325280
-1 1:-1.130987 2:-0.758978 3:-1.013163 4:0.347930 5:-0.151751 6:-0.465084 7:1.493097 8:0.717316 9:0.366512 10:1.139706 11:0.376152 12:-0.757931 13:0.440962 14:0.625673 15:-0.299756 16:1.470577 17:0.385623 18:1.438094 19:-0.300568 20:0.250608 21:-0.241765 22:0.719089 23:-0.146693 24:0.597566 25:0.589564 26:0.039429 27:-0.313890 28:0.649173 29:-0.981984 30:0.892387 31:0.404020 32:-0.258496 33:0.228514 34:-0.594221 35:0.042603
-1 1:-0.567107 2:0.334902 3:0.453503 4:1.298811 5:0.962949 6:-0.559808 7:-0.325509 8:1.128532 9:0.677471 10:-1.173458 11:0.847042 12:1.169359 13:-0.276525 14:-0.679882 15:-0.794035 16:-0.913537 17:0.699488 18:-0.428477 19:0.217209 20:-1.150991 21:0.240621 22:-0.701816 23:0.892270 24:1.295151 25:-0.464169 26:1.474316 27:-0.906935 28:-0.072281 29:0.752596 30:-0.876218 31:-0.014632 32:-0.999364 33:0.500440 34:-0.618194 35:0.520508
-1 1:-2.499706 2:2.351231 3:-1.171784 4:-1.256872 5:0.496398 6:0.544853 7:-0.702630 8:0.734512 9:-0.272463 10:-1.702474 11:-0.543074 12:-0.553807 13:-0.219476 14:0.301620 15:-0.014437 16:-1.139205 17:0.284836 18:-0.917724 19:0.001798 20:-2.502258 21:0.859144 22:-0.567026 23:0.037461 24:0.546160 25:-1.725213 26:-1.670785 27:-1.059097 28:-0.950947 29:1.764588 30:0.794847 31:-0.689934 32:-0.663715 33:-1.521934 34:1.415944 35:-0.484452
-1 1:-0.710773 2:2.113933 3:-0.384818 4:-0.252779 5:0.303543 6:0.149902 7:0.186139 8:-0.460689 9:0.368545 10:-0.134407 11:0.434972 12:0.132724 13:-0.539717 14:-0.588431 15:0.146539 16:0.413940 17:-0.473029 18:0.346981 19:1.088439 20:0.059353 21:0.921535 22:0.730338 23:-2.572772 24:-0.127200 25:0.663306 26:0.586894 27:0.493790 28:1.026213 29:-1.250610 30:-1.255978 31:-1.078107 32:0.351928 33:0.053739 34:1.500332 35:-0.393827
-1 1:0.548247 2:-0.629727 3:0.927740 4:-0.611709 5:-0.139296 6:-0.295128 7:-1.672205 8:-0.935029 9:0.001723 10:0.997100 11:0.417392 12:-0.008782 13:-0.657997 14:0.019102 15:-1.392512 16:0.238950 17:0.195515 18:-1.274520 19:-1.023686 20:-0.682399 21:-0.562762 22:-0.428297 23:-0.779683 24:0.327930 25:1.199800 26:0.343981 27:0.319084 28:0.078874 29:1.109539 30:1.042372 31:-0.272719 32:-0.343356 33:1.565290 34:0.362640 35:1.047634
-1 1:-0.600078 2:0.391166 3:0.472433 4:-0.483679 5:-2.173060 6:-0.880412 7:-0.368789 8:0.049710 9:0.176706 10:0.926465 11:-0.643960 12:-0.583895 13:-0.668239 14:0.624031 15:-0.835493 16:0.812147 17:1.371720 18:0.567458 19:-0.972334 20:-0.509002 21:0.369276 22:0.206406 23:0.476911 24:-0.523619 25:2.514605 26:-0.349554 27:0.494288 28:-0.191526 29:1.062242 30:-0.302732 31:-2.021745 32:-0.996300 33:-0.504506 34:-0.433703 35:-0.128440
-1 1:0.266375 2:0.422984 3:-1.315004 4:0.076433 5:0.834728 6:1.001465 7:-0.392032 8:0.283543 9:-0.986627 10:-0.501264 11:-0.656625 12:0.374088 13:-0.228797 14:-0.711639 15:1.105818 16:0.515274 17:0.164228 18:-0.098053 19:0.878822 20:-0.396858 21:0.454864 22:-1.113937 23:1.056325 24:-0.773587 25:-1.408993 26:-0.974628 27:-0.950185 28:-1.119753 29:0.371957 30:1.648605 31:-1.075555 32:-0.236965 33:-0.994657 34:-0.886428 35:1.095755
-1 1:-1.122622 2:-0.177191 3:0.216373 4:0.843221 5:-0.097609 6:-0.349260 7:0.559837 8:-0.979327 9:0.086196 10:0.390973 11:-0.654113 12:-0.977246 13:-1.247263 14:-1.953187 15:-2.481210 16:-0.183802 17:0.108685 18:-0.007824 19:-0.637503 20:-1.012670 21:-0.570159 22:-1.344929 23:1.038517 24:0.106226 25:-0.234750 26:-1.325114 27:0.993352 28:-0.145119 29:-0.143106 30:0.701910 31:0.628307 32:0.959823 33:0.046048 34:-0.244960 35:0.223066
-1 1:0.518526 2:-0.188832 3:-1.096320 4:0.399614 5:0.030343 6:2.056530 7:0.477246 8:2.022126 9:1.063873 10:-1.208014 11:-0.668598 12:0.648800 13:-0.408544 14:1.443858 15:-0.712929 16:0.403191 17:-0.478116 18:0.587184 19:0.043123 20:1.151598 21:0.850429 22:0.018346 23:0.215853 24:-0.733916 25:-0.357717 26:-0.700653 27:1.338557 28:-1.424766 29:0.895322 30:-1.020106 31:-0.749648 32:0.968162 33:-0.869902 34:-0.133719 35:1.919789
-1 1:-0.166775 2:0.224059 3:0.334840 4:0.845965 5:0.132273 6:-1.095766 7:0.149455 8:-0.229683 9:0.264625 10:-1.642030 11:0.286223 12:-1.190887 13:-1.399748 14:-2.737344 15:-0.121419 16:0.639258 17:0.324968 18:-1.126461 19:0.314529 20:-0.513689 21:0.210211 22:-0.238980 23:0.125016 24:-1.064578 25:0.811225 26:0.212706 27:0.206620 28:1.042265 29:0.767073 30:0.404551 31:0.813685 32:0.075466 33:0.936969 34:-2.024751 35:0.776227
-1 1:0.337836 2:-1.987537 3:0.480107 4:-0.059636 5:1.137107 6:0.423862 7:-0.406180 8:0.229994 9:0.678383 10:0.287440 11:-1.213334 12:1.050489 13:0.994571 14:-2.655529 15:1.622047 16:-1.061099 17:0.132515 18:-1.775570 19:-0.274414 20:-0.278747 21:-1.917627 22:0.323966 23:-0.919950 24:0.310724 25:-0.641543 26:0.530376 27:2.029297 28:-0.951420 29:0.795976 30:-0.579672 31:0.380165 32:0.747313 33:-1.030089 34:1.483599 35:-0.037510
-1 1:-0.182113 2:-0.362046 3:0.132205 4:1.451584 5:0.776308 6:0.943376 7:-0.523033 8:0.519035 9:0.113525 10:-1.179642 11:-0.501598 12:0.629158 13:1.408626 14:-0.876703 15:-0.149329 16:-1.611171 17:0.973813 18:-0.500199 19:-2.165480 20:-0.371071 21:-0.781925 22:0.060229 23:1.860426 24:-1.195620 25:0.247993 26:-0.613751 27:-0.237642 28:-1.372097 29:0.759893 30:-1.642036 31:0.890799 32:0.512102 33:-0.390376 34:1.549608 35:0.299339
-1 1:-0.854835 2:0.170868 3:0.766700 4:0.393689 5:-0.758990 6:2.116237 7:1.442314 8:-0.058771 9:-0.585045 10:-0.343975 11:0.703114 12:0.052157 13:-0.306085 14:-0.340899 15:-0.687097 16:-1.956201 17:-0.933607 18:1.279639 19:0.288761 20:-0.101165 21:-0.857897 22:0.641816 23:3.972752 24:0.065366 25:0.256539 26:-1.632995 27:1.224655 28:-0.655818 29:0.340198 30:-0.585981 31:-0.647064 32:-0.780275 33:1.249137 34:0.557145 35:0.498321
-1 1:-1.535995 2:-1.035298 3:-0.075194 4:-0.209898 5:-1.174624 6:0.830883 7:0.520723 8:0.916777 9:-0.954626 10:-2.428909 11:0.261855 12:-2.111318 13:-0.549520 14:0.015441 15:-1.653519 16:-2.515907 17:-1.479000 18:0.101772 19:0.299967 20:0.561150 21:-0.054541 22:-1.308976 23:0.870279 24:-0.291429 25:-0.343279 26:1.062289 27:1.576197 28:-1.102336 29:-1.046649 30:0.351949 31:1.506327 32:0.186706 33:0.003070 34:-0.544845 35:2.224105
-1 1:-0.058822 2:0.848895 3:0.266549 4:0.206905 5:-0.338990 6:-0.140562 7:1.498755 8:0.827317 9:-0.467819 10:0.826306 11:1.019923 12:0.094849 13:-0.937714 14:-0.716698 15:0.431701 16:0.699696 17:1.114670 18:0.312479 19:-1.198216 20:1.325056 21:-0.092017 22:0.460640 23:0.651007 24:-0.968517 25:0.435305 26:0.088519 27:0.893246 28:1.164157 29:-0.724190 30:1.182641 31:-0.148093 32:1.332670 33:-0.043787 34:0.191120 35:-0.299482
-1 1:0.934513 2:2.030461 3:-0.938776 4:1.426524 5:-0.796666 6:-1.270121 7:-0.475151 8:-0.182822 9:-1.607881 10:-0.469244 11:0.103283 12:0.312007 13:0.255482 14:-0.084866 15:0.228903 16:-0.943770 17:1.003614 18:-1.772790 19:-1.287734 20:2.471028 21:-0.140495 22:0.331673 23:1.416230 24:-1.340952 25:1.530041 26:-0.692510 27:-0.843165 28:0.383728 29:1.703919 30:-0.445535 31:1.313019 32:1.248466 33:-1.073481 34:1.360517 35:0.859486
-1 1:1.054053 2:-0.059702 3:1.562858 4:-0.747283 5:1.541073 6:0.314620 7:-0.569222 8:1.385670 9:0.806291 10:2.130283 11:0.841279 12:-2.109515 13:-0.315546 14:1.817377 15:-0.527167 16:0.727454 17:0.846246 18:-0.162655 19:-0.176039 20:0.743651 21:-0.869617 22:0.071608 23:0.832548 24:-0.036915 25:0.646479 26:-0.625827 27:0.481851 28:0.045416 29:-1.011146 30:-0.104641 31:1.658805 32:0.036302 33:0.334951 34:-0.742933 35:-1.521225
-1 1:-0.710101 2:-1.928374 3:-0.144664 4:0.339657 5:1.806262 6:-0.257420 7:0.721854 8:-0.351761 9:-1.735552 10:-0.122550 11:0.806049 12:0.689056 13:0.044871 14:1.470315 15:-1.199302 16:-0.377349 17:0.029724 18:0.015353 19:-1.468657 20:0.351226 21:-0.762968 22:-0.783442 23:1.936364 24:-1.757530 25:-0.134189 26:-0.561824 27:0.251666 28:0.926040 29:0.015778 30:-2.343912 31:2.864931 32:1.423119 33:1.559979 34:-1.057485 35:1.094345
-1 1:-1.030341 2:1.822986 3:-0.089077 4:-1.167171 5:0.869032 6:-1.020305 7:0.371411 8:-0.524585 9:2.686365 10:0.716234 11:0.607545 12:-0.244980 13:0.671445 14:-1.507051 15:0.778713 16:1.376217 17:-1.225849 18:0.278866 19:0.740353 20:-1.516364 21:-0.173830 22:0.188619 23:-0.621672 24:0.130283 25:-0.422240 26:0.383483 27:-0.082094 28:1.251160 29:-0.255665 30:0.466868 31:1.158898 32:0.606728 33:-0.135714 34:-0.549353 35:0.965291
-1 1:-1.017531 2:0.245530 3:0.001389 4:-0.630741 5:2.029875 6:0.000204 7:1.718782 8:1.493569 9:0.317897 10:-0.080150 11:-1.632748 12:-0.461864 13:0.723850 14:1.307818 15:-0.725478 16:1.619842 17:-0.756761 18:0.558423 19:0.197659 20:-0.187758 21:-0.608559 22:0.837651 23:-0.800875 24:-0.565281 25:0.509571 26:-0.312504 27:-1.525329 28:-1.106491 29:-0.145127 30:-1.347756 31:2.105355 32:0.756881 33:0.783342 34:-0.768453 35:-0.886898
-1 1:-2.148771 2:-1.060607 3:-0.544949 4:0.525988 5:-1.039193 6:0.167260 7:0.136016 8:1.168229 9:-1.931471 10:0.814572 11:0.335305 12:-0.115296 13:-0.437927 14:-0.871054 15:-0.893086 16:0.718674 17:0.578037 18:1.975911 19:-0.601909 20:-0.237155 21:-2.112907 22:0.688032 23:-1.015042 24:-0.609052 25:0.095342 26:1.144550 27:0.973337 28:-1.316970 29:0.277752 30:-1.361544 31:-1.045572 32:-1.357888 33:0.000069 34:1.492080 35:0.951221
-1 1:0.940327 2:-1.981642 3:-0.236853 4:1.451760 5:1.454390 6:0.259773 7:-1.175827 8:-0.187229 9:0.133205 10:-0.034598 11:0.817529 12:0.767314 13:1.513410 14:1.474330 15:-0.478767 16:0.870723 17:2.625384 18:0.836472 19:-0.944777 20:-1.048355 21:3.142211 22:0.823083 23:-0.098170 24:-1.466103 25:0.652433 26:-0.095951 27:-1.201425 28:-0.563093 29:-0.335302 30:1.701787 31:-1.124318 32:0.152966 33:0.127918 34:1.183457 35:0.749257
-1 1:-0.788750 2:-0.593842 3:-1.304684 4:2.146339 5:0.720586 6:1.652076 7:0.293334 8:0.775329 9:0.520336 10:-0.518529 11:-3.019722 12:-0.284187 13:-0.685673 14:1.223397 15:0.446403 16:-0.381079 17:1.158155 18:0.713054 19:0.551567 20:0.367999 21:1.634685 22:0.168763 23:-1.179619 24:-0.975088 25:-0.669753 26:0.107509 27:0.835540 28:0.281918 29:-0.969600 30:0.553249 31:1.427688 32:-1.454840 33:0.129277 34:1.488789 35:0.636148
-1 1:0.491234 2:-1.003881 3:-1.639541 4:0.978228 5:0.323067 6:1.797187 7:-0.654407 8:-1.806662 9:0.857055 10:-0.565537 11:-1.325684 12:-0.277243 13:0.549530 14:1.464183 15:0.527042 16:0.224065 17:0.288536 18:-0.430009 19:0.621914 20:0.884279 21:-0.061103 22:-1.414552 23:0.281894 24:-1.094575 25:0.641184 26:0.475085 27:-0.329646 28:0.529461 29:-0.783106 30:-0.295433 31:2.205987 32:-0.054648 33:-0.676707 34:1.878484 35:0.120843
-1 1:0.618258 2:1.798200 3:1.005179 4:-0.001531 5:-0.077183 6:0.140094 7:0.127335 8:0.995135 9:-0.480130 10:0.021360 11:-1.892458 12:0.356750 13:1.446598 14:-2.220666 15:-0.617951 16:-0.782464 17:-0.014525 18:1.083919 19:-0.414290 20:0.067831 21:2.096993 22:-0.186999 23:0.501838 24:0.816312 25:-0.032695 26:-0.437793 27:-0.489372 28:-0.435771 29:-2.635370 30:-1.009113 31:0.728142 32:0.455983 33:0.069758 34:0.072185 35:-0.018140
-1 1:0.047366 2:0.940371 3:-0.209530 4:-0.626603 5:1.025842 6:-0.511353 7:2.171417 8:0.577496 9:-0.687794 10:1.505809 11:1.360848 12:0.260544 13:-0.097079 14:-2.220309 15:-0.413138 16:-1.836277 17:-1.830487 18:0.984575 19:-1.282490 20:0.188731 21:-0.811202 22:-1.393460 23:-0.497590 24:0.999259 25:-0.265852 26:0.919577 27:-2.537401 28:0.711880 29:-2.371562 30:0.666369 31:-0.734093 32:1.261956 33:0.791206 34:0.222065 35:-1.501221
-1 1:1.326116 2:-1.325083 3:-0.543365 4:-0.119239 5:2.877981 6:-1.075337 7:1.464693 8:-0.523246 9:-2.785139 10:0.988546 11:2.126853 12:0.163726 13:0.800378 14:0.012504 15:-1.008196 16:-1.434633 17:-0.141706 18:-1.098872 19:-1.045104 20:-1.691849 21:1.448386 22:0.956593 23:-0.485076 24:-0.042131 25:-1.170143 26:-0.826839 27:-0.124738 28:-0.138527 29:-0.180137 30:-0.082429 31:0.146127 32:-0.066815 33:-1.813250 34:1.214978 35:0.307646
-1 1:-0.237036 2:0.786670 3:-0.996868 4:1.991304 5:-0.782812 6:0.052294 7:-0.634986 8:-2.426336 9:0.707776 10:-1.943398 11:-0.598465 12:-0.939528 13:-1.001246 14:-2.718489 15:1.278242 16:0.679767 17:0.961919 18:0.151697 19:-1.301175 20:1.004286 21:-0.559890 22:0.163272 23:1.057339 24:0.383584 25:0.545735 26:1.950617 27:-1.704332 28:0.230202 29:0.007057 30:1.197711 31:-0.050429 32:1.519109 33:-1.734770 34:1.258911 35:0.137226
-1 1:0.324008 2:0.440542 3:-0.581853 4:-0.431631 5:-0.982931 6:-0.078864 7:-1.026397 8:0.352178 9:0.640142 10:-0.116222 11:-0.069672 12:-0.272182 13:0.417558 14:1.372765 15:-0.902959 16:1.225226 17:0.235968 18:0.352617 19:0.423119 20:-1.000902 21:-0.768359 22:2.065891 23:-0.301903 24:1.682049 25:0.820890 26:0.115957 27:-0.662493 28:0.059137 29:0.364188 30:2.950029 31:0.620826 32:0.608389 33:-1.317002 34:-0.433918 35:0.860746
-1 1:-0.341780 2:-1.216156 3:-0.231566 4:-0.230249 5:1.460760 6:-0.401210 7:-0.426623 8:1.486751 9:2.129102 10:0.435917 11:1.104260 12:-0.210604 13:-0.008231 14:-1.320297 15:-0.568103 16:0.888182 17:-1.001200 18:2.159817 19:-0.012420 20:-0.426817 21:-0.594461 22:1.055723 23:0.027346 24:-0.478546 25:0.737992 26:-1.336462 27:-0.961057 28:0.741675 29:-0.730546 30:0.378903 31:-1.941744 32:0.596857 33:-0.855648 34:-0.228925 35:0.910972
-1 1:1.700249 2:-0.450828 3:0.536184 4:1.537374 5:0.165537 6:0.630830 7:-1.665893 8:-0.367140 9:0.533030 10:-0.839519 11:0.851427 12:0.733016 13:-0.862196 14:1.336171 15:-1.671957 16:0.921768 17:1.434044 18:0.322189 19:-1.095624 20:-0.636433 21:-2.332064 22:-0.502470 23:0.728230 24:0.720192 25:-0.143069 26:-1.025548 27:1.234539 28:0.293812 29:-0.292922 30:-0.267894 31:0.212464 32:-0.602685 33:-0.285292 34:0.295725 35:0.803813
-1 1:-1.181834 2:0.374689 3:-0.482101 4:-1.146127 5:-0.020968 6:0.005459 7:1.366689 8:-0.096732 9:-0.701439 10:1.697426 11:-1.221724 12:-1.398555 13:-0.000245 14:0.764768 15:-0.305518 16:0.405638 17:1.147766 18:-0.434803 19:-1.488945 20:1.839118 21:1.343598 22:0.173792 23:-0.007594 24:0.563640 25:-0.388339 26:-0.197030 27:0.530753 28:0.148622 29:0.627748 30:1.261967 31:-0.247555 32:0.686266 33:-1.055753 34:-1.647118 35:-0.185757
-1 1:0.409071 2:0.882499 3:-0.584484 4:0.382887 5:-0.205087 6:-1.552009 7:-2.173283 8:-0.621127 9:-0.204439 10:0.505154 11:-0.107188 12:1.215367 13:0.369244 14:0.240487 15:-0.706747 16:0.955206 17:0.576047 18:0.397756 19:-0.957404 20:-0.979617 21:-0.796963 22:0.268984 23:-0.691840 24:0.113520 25:-1.249425 26:0.301664 27:-1.553930 28:0.858217 29:-0.287699 30:-0.619439 31:-0.897182 32:-2.041314 33:-2.051011 34:-0.137755 35:-1.845455
-1 1:0.579824 2:0.822859 3:-0.717875 4:-1.179620 5:-0.559721 6:0.847185 7:0.147585 8:-1.531711 9:0.531203 10:-1.523973 11:-0.267643 12:-0.110432 13:0.057431 14:-1.422077 15:0.299166 16:-0.281181 17:-1.074841 18:-2.003119 19:-0.601485 20:1.050785 21:-0.261109 22:-0.407730 23:-0.652324 24:-1.305155 25:0.144833 26:-0.059601 27:0.083190 28:-0.768447 29:2.647286 30:0.774277 31:0.220207 32:0.930982 33:1.076809 34:2.277910 35:-0.971322
-1 1:-0.414820 2:1.019462 3:-1.290696 4:-0.187042 5:-0.414053 6:-0.120231 7:-0.497895 8:1.166048 9:-1.466096 10:0.278194 11:-0.495680 12:-0.315781 13:0.381934 14:-0.557956 15:1.458075 16:0.555925 17:0.182857 18:-0.230930 19:-0.328825 20:-1.442690 21:0.480004 22:-0.343624 23:-0.073603 24:-2.603294 25:1.982691 26:1.421510 27:-1.380576 28:0.788278 29:-1.232725 30:-0.428932 31:0.654407 32:-0.081018 33:0.012746 34:-0.856207 35:0.567400
-1 1:1.059273 2:-2.063536 3:-0.178158 4:-0.082131 5:0.757609 6:-0.592788 7:1.266566 8:0.081138 9:-1.452077 10:-0.705149 11:-0.598573 12:0.872915 13:0.740535 14:-0.781123 15:-0.621891 16:-0.364162 17:-0.556338 18:1.560332 19:-0.743434 20:-1.315997 21:0.886569 22:0.332970 23:-2.260213 24:1.247936 25:0.812197 26:-0.803907 27:0.659532 28:-0.085530 29:2.116333 30:-0.071471 31:-0.569006 32:-1.739340 33:-0.113720 34:-0.322761 35:1.511281
-1 1:1.192035 2:-0.475650 3:1.727449 4:1.138427 5:-2.495623 6:1.106896 7:1.175967 8:-0.663952 9:-0.879560 10:-0.960765 11:-1.069315 12:1.001403 13:0.172407 14:0.857115 15:0.316421 16:1.277885 17:2.960622 18:0.718756 19:1.296395 20:0.051528 21:-0.893307 22:-0.364396 23:0.938232 24:0.014107 25:1.523942 26:0.546882 27:-1.060514 28:-2.040989 29:0.927385 30:0.474251 31:-1.534825 32:-1.715130 33:0.849377 34:1.084240 35:-0.020757
-1 1:0.549055 2:-1.414571 3:1.317327 4:0.420581 5:-0.921465 6:0.390459 7:0.990852 8:0.329487 9:-0.224464 10:-0.301126 11:-0.420359 12:-0.079235 13:1.884488 14:-1.223324 15:-0.422034 16:0.042278 17:-0.323516 18:0.562959 19:0.255302 20:-0.389808 21:0.639374 22:-0.171010 23:1.834958 24:-1.191044 25:0.056759 26:2.097365 27:-0.455895 28:0.223536 29:1.010670 30:1.525211 31:0.568777 32:0.346739 33:0.282953 34:0.161529 35:-0.558410
-1 1:-1.109130 2:-0.734256 3:1.724511 4:0.489230 5:-0.255037 6:-0.632480 7:-0.828546 8:0.251940 9:-0.109969 10:-1.100795 11:0.669843 12:-1.320563 13:-1.264778 14:0.938556 15:1.121518 16:0.966160 17:1.782260 18:0.066275 19:0.348097 20:0.957739 21:0.484577 22:-0.595938 23:1.102789 24:-0.039559 25:0.819614 26:1.438697 27:-2.185083 28:-1.726000 29:0.358542 30:1.253827 31:-0.631085 32:0.368042 33:0.313785 34:-1.258305 35:0.377196
-1 1:-1.362535 2:-1.378674 3:-0.596188 4:-0.390850 5:0.574897 6:0.010807 7:0.036048 8:-0.244419 9:-1.472026 10:-0.850730 11:0.739750 12:-0.047087 13:0.941238 14:1.478350 15:-0.121213 16:-0.737914 17:-1.802904 18:-1.197301 19:0.433170 20:-0.753996 21:-0.774117 22:-0.265783 23:2.476765 24:0.102895 25:-2.227771 26:0.582533 27:0.655739 28:1.250056 29:0.498735 30:0.062239 31:0.337424 32:0.794286 33:0.469664 34:-1.810817 35:-0.266346
-1 1:-0.041430 2:-0.375873 3:0.600216 4:-0.571281 5:0.233911 6:1.056060 7:-0.926695 8:0.629068 9:1.538516 10:-2.835319 11:0.388194 12:0.105876 13:-1.193499 14:-1.065458 15:0.763480 16:0.518419 17:-0.555709 18:-0.966977 19:0.247575 20:-1.980586 21:-1.148428 22:-0.035625 23:0.015188 24:-0.811105 25:1.561589 26:0.911442 27:-1.324096 28:-2.421477 29:0.204752 30:0.469568 31:-0.308961 32:1.421390 33:-2.053346 34:0.153653 35:-0.602626
-1 1:-0.198984 2:-0.512615 3:-1.139576 4:-1.001050 5:-0.241260 6:-0.414486 7:-0.124148 8:-0.581197 9:-0.795074 10:-0.967012 11:0.021672 12:0.969755 13:0.574099 14:-0.148814 15:0.057540 16:0.405646 17:-0.360508 18:1.566618 19:0.063205 20:1.390195 21:-1.796859 22:0.356757 23:1.096816 24:0.489625 25:1.161417 26:-1.313817 27:1.137570 28:1.738587 29:0.164019 30:-0.771897 31:0.429925 32:0.858352 33:0.834175 34:0.243997 35:0.513819
-1 1:-1.284056 2:1.715316 3:1.615794 4:-0.075271 5:-0.963769 6:1.043451 7:0.463169 8:-1.105786 9:-2.020697 10:0.521867 11:1.014193 12:0.709703 13:0.488672 14:-0.123757 15:-0.044686 16:-0.815413 17:-0.124664 18:0.552722 19:-1.819445 20:-0.085394 21:-0.816363 22:0.117259 23:-0.989420 24:1.867806 25:-0.334182 26:-0.009478 27:-2.725297 28:-0.121511 29:-0.575575 30:-0.953248 31:-0.043148 32:-0.755278 33:0.873820 34:-1.407964 35:0.326722
-1 1:-1.475523 2:-0.692543 3:-0.734540 4:-0.316603 5:0.064232 6:-0.240776 7:0.327888 8:1.091552 9:0.740667 10:0.686184 11:-0.071289 12:1.808499 13:1.933544 14:-0.039552 15:0.591533 16:0.940359 17:0.878077 18:2.340662 19:1.014409 20:-0.768143 21:1.179904 22:-0.600742 23:0.390662 24:-0.199707 25:-0.574662 26:-0.005039 27:-0.426594 28:-0.996209 29:-0.894064 30:-0.780986 31:-0.494918 32:-0.927634 33:-1.544831 34:-0.161312 35:0.326347
-1 1:-0.828743 2:-0.211104 3:0.369307 4:-0.021686 5:1.397769 6:0.179178 7:2.285860 8:1.395033 9:-1.375890 10:-0.780021 11:1.427556 12:1.132091 13:1.442886 14:1.244962 15:-1.321810 16:0.258687 17:0.885523 18:0.118532 19:-0.724343 20:-1.245418 21:-1.287691 22:-0.649557 23:0.685857 24:-0.103446 25:-0.445085 26:0.237818 27:-0.717930 28:0.329671 29:0.060939 30:-1.052339 31:-0.719294 32:-1.647461 33:0.495577 34:1.997151 35:-0.242233
-1 1:-2.322311 2:-0.759234 3:1.799242 4:0.138571 5:-1.005591 6:-0.611244 7:1.162401 8:0.815782 9:0.379819 10:-0.101039 11:0.824473 12:-1.356236 13:1.031517 14:-1.824368 15:1.453332 16:0.519560 17:-0.121200 18:0.489047 19:1.347037 20:0.067469 21:0.000650 22:1.143862 23:-0.924572 24:-0.732546 25:1.175831 26:-0.151436 27:0.179847 28:2.464657 29:1.759334 30:-0.605764 31:-1.037393 32:1.450195 33:0.732961 34:-0.636367 35:0.446962
-1 1:1.224552 2:-0.604733 3:-0.119632 4:0.170479 5:0.793362 6:-1.095301 7:0.534299 8:-2.098495 9:-1.182438 10:-2.233507 11:0.274372 12:-0.620021 13:-0.770976 14:2.320517 15:1.068859 16:-0.436233 17:-1.062781 18:0.179011 19:0.838148 20:-0.187556 21:-1.359839 22:0.965075 23:-0.065074 24:1.029992 25:0.403819 26:-0.528469 27:-1.814560 28:1.436455 29:0.931104 30:0.943074 31:0.634335 32:-1.097803 33:0.224113 34:0.923164 35:-1.615667
-1 1:-0.639646 2:0.110685 3:-0.378667 4:0.115917 5:0.142837 6:-0.771708 7:-0.068525 8:0.132599 9:-0.434299 10:1.189444 11:-1.125709 12:1.562121 13:0.239603 14:0.236460 15:0.309408 16:-1.794614 17:-0.840919 18:-0.187256 19:2.075011 20:1.190183 21:-0.252060 22:-0.639263 23:0.718206 24:0.368621 25:-1.252981 26:-0.748581 27:-1.836691 28:0.335217 29:0.325110 30:-0.421223 31:-0.099160 32:-0.393169 33:0.394316 34:1.764468 35:0.668087
-1 1:-0.411941 2:-1.074095 3:0.763908 4:-0.364579 5:-2.168566 6:-0.846519 7:-2.014124 8:-0.235441 9:-1.060906 10:0.563872 11:0.336989 12:-0.715531 13:0.142481 14:1.032183 15:0.765633 16:0.738695 17:0.577047 18:-0.460374 19:0.548227 20:-1.735465 21:-1.204040 22:-0.201472 23:1.359787 24:-0.658822 25:-0.161306 26:0.021391 27:-0.406266 28:0.256911 29:-0.296504 30:-1.438882 31:1.459870 32:-0.774438 33:-0.397784 34:0.151757 35:-0.403250
-1 1:1.002618 2:-0.012535 3:2.173665 4:-0.023966 5:-0.476780 6:-0.801484 7:-1.858387 8:-0.415444 9:0.790744 10:0.517800 11:-1.162909 12:1.628006 13:0.373470 14:-0.667760 15:-1.368367 16:2.059634 17:-0.770834 18:-0.044360 19:0.055553 20:-0.281373 21:0.202301 22:-1.480039 23:0.824007 24:0.044932 25:1.415302 26:-1.314551 27:1.654624 28:0.848421 29:-0.191139 30:-0.150472 31:-0.187824 32:-0.083325 33:1.068364 34:0.819653 35:1.720622
-1 1:-1.300571 2:-0.986162 3:0.691162 4:-0.231044 5:0.803525 6:0.896372 7:-0.066666 8:-0.317977 9:-1.019568 10:-1.292940 11:-1.103750 12:0.399330 13:1.139546 14:0.802018 15:-0.727139 16:0.244343 17:0.549477 18:0.894835 19:-0.144288 20:1.036824 21:0.353006 22:0.378037 23:-2.591468 24:0.596680 25:-0.098435 26:-1.650431 27:-0.215780 28:0.516738 29:-0.781655 30:-2.317545 31:0.032593 32:-0.830227 33:-0.387815 34:-1.394783 35:1.443728
-1 1:-1.053535 2:-0.383962 3:1.905962 4:-0.079422 5:0.883021 6:-0.123005 7:-0.657520 8:-0.911594 9:0.974488 10:0.310841 11:2.166350 12:0.223520 13:-1.430605 14:0.862689 15:0.111083 16:-2.075809 17:0.976479 18:-1.279823 19:-0.034395 20:-0.351044 21:0.045203 22:2.526911 23:1.305619 24:-0.114304 25:0.092995 26:0.663936 27:1.344871 28:-0.466137 29:-0.605169 30:0.405919 31:-0.444531 32:0.202904 33:-0.078883 34:1.010300 35:-0.986404
-1 1:-0.650405 2:-0.287117 3:-0.687870 4:1.276868 5:-0.938438 6:-1.551566 7:1.633425 8:-0.581311 9:-0.324350 10:0.023224 11:-0.142616 12:0.879450 13:-0.506561 14:1.477340 15:1.407803 16:-2.056711 17:-1.130365 18:-0.360230 19:0.566718 20:-0.246639 21:0.459447 22:-0.297034 23:1.086411 24:0.274270 25:0.798378 26:-0.698708 27:-1.569628 28:-3.364412 29:0.416004 30:-1.178850 31:1.370931 32:3.208914 33:-1.152370 34:-1.641876 35:-1.097387
-1 1:0.348305 2:-0.802747 3:0.837251 4:0.225504 5:1.339421 6:0.007471 7:0.866391 8:1.123611 9:-0.861269 10:-0.394169 11:-0.816127 12:1.095950 13:1.784887 14:1.732738 15:-0.383846 16:1.106223 17:0.034160 18:1.684051 19:-1.125507 20:-0.279290 21:-0.778163 22:1.429446 23:-0.063234 24:0.354489 25:-1.470516 26:0.954056 27:-0.612385 28:0.259632 29:1.036857 30:0.439868 31:-1.576852 32:-0.222528 33:0.050687 34:-0.545739 35:-0.800409
-1 1:-0.315362 2:-0.313944 3:0.054479 4:0.247098 5:-0.096623 6:0.753995 7:0.014530 8:1.461922 9:0.100221 10:0.279787 11:0.409629 12:0.698448 13:1.444723 14:-1.196390 15:-1.186512 16:-0.591724 17:-0.048839 18:-0.371337 19:0.488598 20:-0.818420 21:1.176885 22:0.317174 23:0.360210 24:-1.040597 25:0.349884 26:0.401111 27:-2.049525 28:-0.905508 29:0.433826 30:2.007421 31:-0.003313 32:-0.540937 33:1.049821 34:0.052056 35:0.706174
-1 1:-1.602342 2:1.025622 3:-3.593053 4:-0.284835 5:-0.165180 6:-0.240308 7:1.261623 8:0.312195 9:-0.091921 10:-0.992011 11:-0.010828 12:-0.665387 13:0.929017 14:-0.886515 15:-0.774918 16:-0.096831 17:-0.325750 18:0.201027 19:-0.428112 20:-0.169313 21:1.155311 22:0.316995 23:0.783477 24:-1.435575 25:-0.833128 26:-0.821764 27:-0.730440 28:0.010351 29:2.391444 30:-0.378347 31:-0.142309 32:0.189871 33:0.777659 34:-0.896248 35:-0.992683
-1 1:1.081263 2:-0.369218 3:-1.700734 4:1.136268 5:1.227487 6:-0.216616 7:-2.031206 8:-2.031655 9:-1.026195 10:0.265197 11:-0.555784 12:-0.479540 13:-1.323469 14:-1.279819 15:0.507036 16:-0.040050 17:-0.568309 18:0.114695 19:-0.722304 20:-0.710726 21:0.901079 22:-1.634083 23:1.917164 24:1.898399 25:0.120813 26:0.010114 27:0.446081 28:-1.679734 29:-0.120195 30:0.833654 31:0.935459 32:0.008936 33:0.362220 34:-0.322859 35:0.418052
-1 1:-0.248852 2:-0.051055 3:-0.250343 4:-0.346979 5:-0.041713 6:-0.530801 7:-2.542203 8:1.467070 9:-0.545953 10:-0.016681 11:-0.014684 12:-0.343153 13:-0.308373 14:0.670300 15:0.191681 16:-0.952634 17:0.539407 18:0.913947 19:1.118349 20:-0.539438 21:-0.890483 22:-1.371044 23:0.517496 24:-0.861087 25:1.078078 26:-0.536504 27:1.008770 28:-0.075654 29:-1.087265 30:-1.418411 31:1.392471 32:-1.033412 33:1.032849 34:0.254519 35:0.423789
-1 1:0.532805 2:0.301955 3:0.550052 4:1.552251 5:-0.051384 6:-0.528678 7:-0.589497 8:0.979501 9:-0.697981 10:1.385172 11:0.083754 12:-0.310989 13:-0.759313 14:-0.469622 15:0.062869 16:0.167527 17:-0.483349 18:-0.030429 19:0.391147 20:1.227039 21:0.002103 22:-1.383715 23:0.169927 24:-0.807732 25:0.247815 26:1.496540 27:0.875192 28:-0.150805 29:-0.115141 30:0.776414 31:0.998717 32:0.743064 33:-1.487861 34:1.203880 35:-0.451156
-1 1:0.179365 2:-0.840589 3:-1.055727 4:0.245837 5:0.572185 6:0.400214 7:-1.282242 8:0.480703 9:-0.743698 10:0.175337 11:1.530587 12:-0.170888 13:0.771917 14:-0.346504 15:0.441134 16:-2.165644 17:-0.474618 18:-0.620921 19:0.512107 20:-1.493533 21:-1.761129 22:0.324969 23:0.762935 24:-0.798079 25:2.194439 26:0.191545 27:-0.992786 28:0.443820 29:-1.570576 30:0.477576 31:-0.868077 32:-0.946120 33:-1.148005 34:-0.449082 35:1.879046
-1 1:0.087506 2:1.079944 3:2.149761 4:1.050334 5:-1.873047 6:-0.144063 7:1.494149 8:0.637443 9:0.218794 10:0.574189 11:0.815691 12:-0.237059 13:1.022247 14:0.864406 15:0.930166 16:-1.250096 17:1.516954 18:0.692246 19:-1.771396 20:0.040853 21:-1.508454 22:1.081509 23:0.864961 24:-0.565437 25:0.339906 26:-0.244460 27:1.724829 28:1.281343 29:1.853867 30:-0.065967 31:0.107868 32:-1.521347 33:1.296814 34:-0.472634 35:1.642158
-1 1:-0.041203 2:1.137453 3:0.033132 4:1.196231 5:-1.085642 6:-1.100021 7:0.176097 8:-2.375117 9:0.287185 10:0.483813 11:0.204942 12:1.332085 13:0.669828 14:0.761515 15:0.166126 16:1.151829 17:-0.470649 18:2.776013 19:0.873655 20:1.334504 21:0.275619 22:-0.403863 23:0.311482 24:1.133525 25:0.846542 26:1.856154 27:0.338543 28:0.539198 29:-0.847821 30:-0.631047 31:0.086753 32:0.045289 33:-0.361114 34:1.064297 35:-0.283610
-1 1:0.239202 2:0.046240 3:-0.970811 4:-0.815868 5:-0.082706 6:0.386544 7:-1.253346 8:0.545179 9:0.151687 10:-1.414039 11:-0.561227 12:-0.507422 13:-0.800814 14:1.058669 15:-0.010475 16:-0.393366 17:-0.180300 18:1.464007 19:-0.408896 20:-1.940160 21:-0.375454 22:-0.794121 23:-0.315325 24:0.725144 25:-0.021362 26:-1.171491 27:0.199878 28:0.817072 29:-0.313099 30:2.088713 31:-0.838437 32:-0.459853 33:0.435610 34:-1.013211 35:-0.572597
-1 1:0.749674 2:-0.069844 3:0.140378 4:0.815683 5:-0.218043 6:-0.623924 7:0.214701 8:1.196904 9:0.294816 10:-0.425619 11:0.587002 12:-0.818815 13:1.512522 14:-1.314686 15:0.510157 16:0.163088 17:0.362243 18:1.467900 19:-0.141981 20:-1.092019 21:0.782471 22:-0.350417 23:-0.805441 24:-0.833057 25:-0.430822 26:-0.873718 27:-0.949242 28:-0.238833 29:-0.019023 30:0.291130 31:0.780561 32:-0.931119 33:-1.679208 34:-0.369971 35:-0.276762
-1 1:-1.927529 2:0.011105 3:-0.038729 4:1.376038 5:-1.766988 6:1.513952 7:2.020826 8:-0.148351 9:0.316842 10:0.562955 11:0.606081 12:-0.298737 13:-0.406138 14:-1.061913 15:0.725828 16:-0.713609 17:2.398016 18:0.886975 19:0.875030 20:0.693553 21:2.482388 22:0.809799 23:0.753134 24:0.386229 25:0.553655 26:0.042120 27:1.407493 28:0.886334 29:1.370159 30:0.827832 31:-0.249682 32:-0.049035 33:-0.522081 34:0.477123 35:0.585116
-1 1:-0.225142 2:-0.046290 3:-0.406948 4:0.007874 5:-0.174406 6:0.388295 7:-1.474490 8:2.055559 9:0.720463 10:0.067108 11:1.935540 12:1.155343 13:0.157539 14:-0.040586 15:-0.223076 16:-0.366132 17:-1.056760 18:-0.933324 19:-1.241453 20:0.175393 21:0.331364 22:0.062105 23:-0.051216 24:0.748663 25:-0.244303 26:-2.041515 27:-0.342784 28:-0.421737 29:-0.642964 30:-0.773597 31:-0.422012 32:1.512816 33:-1.025566 34:-0.358004 35:0.798525
-1 1:0.632818 2:-0.922049 3:-1.076580 4:-0.411085 5:-0.912045 6:-0.689513 7:-2.423349 8:0.147618 9:-1.390125 10:1.420407 11:1.728564 12:0.101348 13:-1.008728 14:2.014231 15:0.895362 16:-0.857696 17:-0.589423 18:0.274992 19:1.774626 20:-0.391969 21:1.387017 22:-0.180473 23:1.107882 24:-0.511435 25:0.612688 26:0.922759 27:1.575940 28:1.299072 29:0.211904 30:-0.432069 31:-0.343988 32:-0.956111 33:1.231861 34:-0.072633 35:-0.774235
-1 1:-1.432792 2:-0.312268 3:-0.000561 4:0.218518 5:0.023175 6:1.199545 7:-0.462046 8:0.513092 9:-0.203520 10:-0.611873 11:0.831807 12:1.034166 13:-1.291461 14:-0.838515 15:0.544521 16:1.999692 17:-0.687407 18:-1.513457 19:-1.420522 20:0.346288 21:0.102400 22:0.867668 23:-0.254626 24:0.924649 25:-1.256023 26:1.212187 27:1.035336 28:1.629770 29:1.047159 30:0.181931 31:-1.511793 32:-0.996112 33:-0.644438 34:0.468934 35:-0.657784
-1 1:0.185405 2:-0.818808 3:-0.734486 4:-0.456443 5:-1.019035 6:-0.810153 7:-0.409235 8:-0.562387 9:0.426858 10:-1.672376 11:-0.324837 12:0.087868 13:-0.732082 14:0.538652 15:-0.019477 16:0.254904 17:-0.670135 18:1.461211 19:-1.106601 20:-1.177042 21:0.691595 22:0.336125 23:-0.118965 24:-0.983953 25:-1.032396 26:1.168039 27:0.974947 28:-1.710820 29:-0.042128 30:0.323717 31:0.933367 32:0.374943 33:0.382972 34:0.478936 35:-1.394145
-1 1:0.316221 2:0.067080 3:0.210838 4:0.341492 5:1.782490 6:-1.750434 7:1.095774 8:0.689183 9:2.470381 10:-0.670196 11:-1.599385 12:1.092135 13:1.209429 14:-1.100201 15:-1.610704 16:0.882220 17:0.106093 18:-0.274348 19:0.133421 20:0.668002 21:-0.373430 22:0.899625 23:1.136094 24:1.522168 25:-0.264179 26:0.259792 27:0.346575 28:0.894605 29:-0.221104 30:0.615847 31:0.241456 32:1.967353 33:-0.652850 34:0.982071 35:-1.048091
-1 1:-1.227479 2:1.090985 3:0.748753 4:-0.530235 5:-0.258739 6:0.633909 7:-1.608410 8:-0.407589 9:-0.074505 10:0.363157 11:0.260734 12:1.245523 13:1.288784 14:0.439459 15:-0.393236 16:-0.997038 17:-0.516097 18:-0.343806 19:-1.955730 20:-1.492563 21:0.045633 22:-0.102964 23:-1.245325 24:-2.526097 25:1.064727 26:0.695670 27:0.426409 28:-0.680170 29:-0.092942 30:0.434643 31:-1.654536 32:0.109238 33:-1.136473 34:-0.506317 35:-0.932344
-1 1:-0.707947 2:1.054641 3:-0.277055 4:-1.182745 5:-0.257749 6:-0.360659 7:-0.651981 8:-1.056184 9:0.406504 10:-1.061715 11:0.640066 12:0.066382 13:-1.170489 14:-0.415203 15:-3.395528 16:1.187357 17:1.474415 18:2.151319 19:-0.590594 20:1.328559 21:1.495154 22:-2.150179 23:-0.859183 24:0.065327 25:-0.769382 26:-0.335649 27:-1.977256 28:-2.092336 29:1.231401 30:1.043192 31:-1.615629 32:0.578084 33:-0.881556 34:0.815916 35:-0.545401
-1 1:1.352685 2:0.178136 3:0.302635 4:-0.372581 5:-0.054980 6:-2.518445 7:-1.103912 8:-0.748366 9:-0.099191 10:0.653211 11:1.123324 12:0.063978 13:2.007024 14:-0.691941 15:-0.991311 16:-0.927060 17:-0.330694 18:-0.187457 19:-0.123026 20:-0.903659 21:1.208708 22:2.179759 23:0.401373 24:-1.164820 25:-0.187039 26:0.304523 27:-0.780207 28:1.539810 29:-0.311104 30:-1.686015 31:-0.636204 32:0.008748 33:-1.037501 34:-1.531438 35:-1.602799
-1 1:-0.839059 2:-0.433785 3:1.137529 4:-1.469189 5:1.338511 6:1.505261 7:0.991402 8:1.047832 9:0.083204 10:-0.627573 11:0.625466 12:0.090638 13:0.648288 14:1.620147 15:-0.532637 16:0.873606 17:1.190621 18:-0.852244 19:0.943925 20:-1.522262 21:0.457186 22:-1.706915 23:0.255816 24:0.515900 25:-2.101271 26:1.617794 27:0.251619 28:0.020310 29:-0.140823 30:1.227305 31:-1.713568 32:-0.541502 33:-0.103708 34:-1.363750 35:-0.141810
-1 1:1.640734 2:-0.612784 3:-1.277525 4:-0.705449 5:-0.636365 6:0.078559 7:-0.017552 8:-0.675848 9:0.759456 10:1.033963 11:-0.194520 12:-0.448654 13:-0.212313 14:1.786330 15:-0.840874 16:2.263061 17:0.796715 18:1.406392 19:0.177910 20:-0.640299 21:0.923048 22:0.734602 23:-0.778443 24:-0.631516 25:-1.049958 26:-0.045665 27:-0.296830 28:0.511877 29:0.325527 30:1.100779 31:-0.412903 32:-0.679314 33:-0.676348 34:0.292660 35:-1.053510
-1 1:-1.561940 2:-1.803944 3:1.545938 4:-1.202532 5:-0.217215 6:-0.737573 7:1.588225 8:0.807439 9:-0.026242 10:0.466392 11:-0.376941 12:-0.398536 13:2.244574 14:-1.259697 15:0.380484 16:-0.197776 17:1.330906 18:0.396438 19:-0.728007 20:-0.291994 21:-1.202256 22:-0.898476 23:0.134057 24:-0.683669 25:0.174978 26:0.118005 27:-0.363428 28:0.360819 29:0.559266 30:0.732603 31:-0.192917 32:0.205796 33:-0.106648 34:1.606581 35:-0.635844
-1 1:1.017590 2:-0.053832 3:-0.414008 4:-0.300142 5:-0.304323 6:0.455390 7:-1.791758 8:1.263728 9:-1.954570 10:-0.528354 11:-0.321122 12:1.344706 13:0.176347 14:-1.306187 15:0.333918 16:1.453264 17:1.589151 18:-0.220624 19:-0.063802 20:1.469242 21:-0.781062 22:1.427225 23:-1.071699 24:-2.149850 25:-0.171759 26:0.618118 27:-0.802032 28:-0.189871 29:-0.136824 30:1.410863 31:-1.589971 32:-0.293168 33:-1.399954 34:0.367899 35:0.384003
-1 1:0.009980 2:-1.603819 3:0.933734 4:-0.119307 5:0.363544 6:-0.218646 7:1.551937 8:1.211262 9:0.389500 10:1.987955 11:-1.441072 12:1.733965 13:1.143495 14:-0.128916 15:-1.195931 16:-0.612432 17:-1.442747 18:-0.490526 19:1.830777 20:0.617420 21:1.107572 22:0.528265 23:0.362023 24:1.290949 25:-1.760004 26:1.532425 27:0.125935 28:1.199106 29:-0.480110 30:-0.980019 31:-2.014372 32:-1.260988 33:2.033851 34:-0.954874 35:0.191197
-1 1:-0.655434 2:0.234829 3:0.598816 4:-1.283283 5:-0.131593 6:0.615332 7:-0.845493 8:-1.709441 9:0.271422 10:0.621560 11:2.339231 12:-0.114561 13:-0.611305 14:2.471606 15:0.994551 16:1.786802 17:1.243494 18:-0.260204 19:0.175997 20:-1.430155 21:-0.635797 22:0.253640 23:0.589222 24:-0.256873 25:-0.427873 26:-0.519342 27:-1.473758 28:-0.790208 29:-0.461064 30:1.396238 31:-1.322002 32:0.035859 33:1.473910 34:0.527892 35:-0.335546
-1 1:1.109819 2:-0.122310 3:0.828893 4:0.250268 5:0.918798 6:1.949745 7:0.843169 8:0.014904 9:0.153112 10:0.819103 11:0.648215 12:-0.995491 13:0.007390 14:0.380274 15:0.018888 16:-0.066848 17:-0.322380 18:1.696104 19:0.775560 20:-1.067031 21:-0.376871 22:-0.440839 23:-0.669554 24:0.613174 25:0.799560 26:1.558412 27:-0.718475 28:0.371378 29:1.482840 30:0.453544 31:-1.570468 32:-1.031627 33:-0.264421 34:1.756563 35:0.393928
-1 1:1.292508 2:-2.295220 3:0.506895 4:1.859542 5:-0.279814 6:-0.706131 7:-1.643065 8:0.753621 9:-0.161288 10:0.158712 11:-0.042792 12:0.459645 13:0.396297 14:1.875908 15:-0.529072 16:-2.351742 17:-0.192774 18:0.388394 19:-0.263885 20:-2.101109 21:1.566980 22:-0.470374 23:1.597351 24:1.362247 25:-1.312205 26:0.897568 27:-0.051693 28:0.317992 29:1.065084 30:0.230331 31:0.326358 32:0.308967 33:-1.570604 34:0.686562 35:-0.493486
-1 1:1.962766 2:1.024724 3:-0.089162 4:1.927685 5:1.072556 6:0.334616 7:-0.360389 8:0.896401 9:-0.183101 10:-0.245453 11:-0.408479 12:-0.464347 13:-1.261476 14:-1.629657 15:-0.547681 16:-1.124403 17:-1.319131 18:1.540032 19:0.722395 20:-1.281268 21:1.456342 22:-1.985927 23:-0.246863 24:0.723802 25:-0.143654 26:0.036959 27:1.892800 28:-2.500839 29:0.351568 30:-0.013454 31:-0.247752 32:2.249247 33:-0.400718 34:0.437987 35:0.474306
-1 1:1.271019 2:1.059543 3:0.158523 4:0.023139 5:1.056797 6:-0.808378 7:0.441130 8:-0.138140 9:-0.042263 10:-0.174768 11:0.102451 12:0.611693 13:-0.065559 14:-2.440758 15:1.393178 16:0.566173 17:-0.037634 18:-0.321053 19:-1.132679 20:1.868948 21:-1.763627 22:0.423549 23:-1.207534 24:0.663906 25:-0.282371 26:-1.101782 27:0.083534 28:0.067277 29:2.536744 30:1.004628 31:1.897029 32:0.465857 33:1.278079 34:-0.696149 35:1.482569
-1 1:1.333665 2:1.561579 3:-0.200282 4:-1.169149 5:-1.132869 6:0.268887 7:-0.911267 8:-2.928618 9:-0.108065 10:-1.339523 11:0.790802 12:-1.034019 13:-0.809977 14:-0.853615 15:-0.041729 16:0.753810 17:-0.685612 18:0.697032 19:-0.754409 20:-0.764020 21:0.882583 22:-1.630074 23:0.152377 24:0.383606 25:-1.887398 26:0.949953 27:0.983072 28:1.243152 29:0.053404 30:2.741134 31:0.176997 32:0.903022 33:-0.715277 34:0.805804 35:-0.791402
-1 1:-0.620812 2:0.340229 3:-0.347204 4:-0.403486 5:2.498306 6:-0.142134 7:0.590211 8:-0.257743 9:-0.729885 10:0.688386 11:-0.565916 12:-0.454879 13:0.741669 14:-2.052108 15:1.245289 16:-0.752429 17:0.824821 18:0.880036 19:0.242436 20:-0.535736 21:0.496134 22:-0.834506 23:-0.308616 24:-0.483575 25:0.308725 26:-0.713177 27:0.866494 28:-0.971303 29:-0.458127 30:-0.064505 31:-0.708154 32:0.524595 33:0.238534 34:-0.452529 35:-0.026739
-1 1:0.296315 2:-0.813726 3:0.994124 4:1.839478 5:-1.860931 6:-1.103889 7:-1.414896 8:0.767183 9:-2.028566 10:0.678145 11:-0.896479 12:0.960245 13:0.641729 14:-0.969075 15:0.459927 16:0.719989 17:-0.865556 18:0.518148 19:0.349750 20:-1.163648 21:0.495991 22:-0.252581 23:-0.798142 24:1.540089 25:1.097673 26:-0.775917 27:-0.860857 28:-1.640664 29:0.110394 30:-0.054640 31:0.807049 32:0.515821 33:-0.130668 34:1.140625 35:-1.637555
-1 1:-1.651349 2:-0.943824 3:-1.487700 4:0.222727 5:-1.081615 6:0.463247 7:1.259787 8:-1.773427 9:1.455883 10:-1.145922 11:-1.851384 12:-1.207231 13:-0.664166 14:0.447534 15:-2.864458 16:1.799652 17:-1.630013 18:0.269176 19:-1.341178 20:1.138042 21:-1.711041 22:-0.504438 23:0.330636 24:-0.693684 25:0.167736 26:-1.636301 27:0.087252 28:1.720046 29:1.565124 30:-3.084359 31:1.456664 32:-1.961869 33:-0.982507 34:0.754293 35:0.640961
-1 1:-0.845576 2:-0.266734 3:0.763737 4:-0.260827 5:-0.166668 6:-1.141855 7:-0.907505 8:-1.161841 9:-1.777548 10:0.291462 11:-0.513535 12:0.885539 13:0.255257 14:-1.491992 15:0.864468 16:1.078037 17:1.008499 18:1.134973 19:-0.048411 20:-0.381417 21:0.002540 22:-0.700592 23:-0.679444 24:-1.051868 25:-0.255048 26:-0.489256 27:0.621305 28:0.217510 29:0.780277 30:-0.544833 31:-0.598243 32:0.740114 33:0.011480 34:-0.002346 35:-1.568778
-1 1:-0.223868 2:-0.658871 3:0.816288 4:0.707641 5:1.464767 6:-1.056714 7:0.358769 8:0.796229 9:0.061196 10:0.833348 11:-0.142880 12:-0.406456 13:0.049877 14:1.158803 15:-0.108017 16:-0.144471 17:-0.624693 18:0.714263 19:0.859744 20:0.443005 21:-0.079863 22:-0.209824 23:-0.098385 24:-1.019173 25:0.972862 26:2.786907 27:-1.873360 28:1.104817 29:0.936816 30:0.368050 31:0.569279 32:0.826237 33:-0.558169 34:-0.613338 35:-2.060237
-1 1:-0.294718 2:-0.897259 3:-0.546918 4:0.666833 5:0.713268 6:0.266088 7:0.328852 8:0.093447 9:-0.832954 10:-0.827381 11:1.089413 12:1.574196 13:-0.442329 14:-0.098074 15:0.445970 16:-1.631438 17:0.547242 18:-0.061622 19:0.082976 20:0.541905 21:-1.174780 22:-0.203067 23:-1.057986 24:-0.072771 25:-0.048532 26:-0.249271 27:1.336170 28:-0.420162 29:-2.209603 30:0.364567 31:0.987067 32:0.541410 33:0.218425 34:-0.678572 35:-0.140110
-1 1:0.965400 2:-0.850238 3:-0.439857 4:0.311365 5:-0.130259 6:-2.304236 7:-0.848012 8:0.422226 9:-0.442700 10:0.789337 11:1.188465 12:-0.462923 13:-0.377350 14:-0.517166 15:-0.107692 16:-0.552488 17:-1.080639 18:1.162733 19:1.775606 20:1.429241 21:-1.053513 22:0.323811 23:-0.206059 24:-1.269468 25:2.289161 26:0.048702 27:0.313929 28:-0.652708 29:0.325482 30:-1.192246 31:-1.181037 32:-1.813462 33:0.535059 34:-1.164822 35:-0.619285
-1 1:0.473286 2:1.603193 3:-0.309867 4:-0.070064 5:-1.794867 6:-2.477813 7:-0.273706 8:0.303766 9:-0.336912 10:1.514112 11:-0.330800 12:0.189100 13:-0.569195 14:1.185606 15:-0.228844 16:-0.420911 17:0.906242 18:-0.597515 19:1.218704 20:0.171118 21:-1.684434 22:-0.580337 23:0.847456 24:-0.008300 25:-0.635469 26:-0.099743 27:-0.945953 28:-0.112854 29:0.242189 30:-0.185306 31:0.276575 32:-0.370136 33:-1.626113 34:-1.101593 35:0.799984
-1 1:0.820546 2:-0.521267 3:0.755273 4:2.069550 5:-1.127673 6:-2.650169 7:-0.565378 8:0.411181 9:0.519417 10:0.986779 11:0.865346 12:-0.517777 13:1.422101 14:-0.247621 15:-0.051051 16:0.557187 17:0.309102 18:0.373916 19:0.136973 20:0.719195 21:1.685766 22:-1.106726 23:1.465188 24:0.488000 25:-0.858889 26:-0.236130 27:-0.696761 28:-0.653160 29:-1.347737 30:0.441508 31:0.234958 32:-0.375014 33:0.150975 34:-1.716499 35:0.510859
-1 1:0.136618 2:0.207658 3:0.393473 4:-1.206880 5:-0.537581 6:-0.779912 7:-0.050986 8:-0.029390 9:0.530740 10:-1.318167 11:-0.395364 12:1.455881 13:-0.183387 14:1.470293 15:-0.944180 16:-0.140250 17:-1.510315 18:1.103946 19:-1.735576 20:1.385984 21:-0.248303 22:1.659707 23:0.623156 24:1.463589 25:-1.086833 26:-0.060988 27:0.014134 28:-1.099233 29:-1.794293 30:-0.308757 31:0.822086 32:0.927266 33:-0.087434 34:-0.061543 35:0.990043
-1 1:0.180239 2:1.102288 3:-0.623757 4:-0.955484 5:-1.328561 6:-1.402724 7:-2.125086 8:-0.693023 9:0.795401 10:-1.003043 11:-0.131435 12:-0.868631 13:-0.843163 14:0.771648 15:-0.934158 16:-1.414885 17:-0.251003 18:-0.157404 19:-0.597328 20:0.411253 21:0.150768 22:1.042553 23:-1.116782 24:-0.744256 25:-0.255876 26:0.818380 27:-0.431815 28:2.353595 29:-1.433057 30:-0.514425 31:-1.983120 32:-0.115621 33:0.124709 34:1.475734 35:-0.885501
-1 1:-1.446954 2:0.391335 3:0.568474 4:-1.972036 5:2.250682 6:-0.929583 7:-0.203625 8:2.105015 9:-0.512063 10:-0.165717 11:-2.242169 12:-1.232744 13:0.609782 14:-1.254584 15:-0.065270 16:-0.666478 17:-0.702344 18:0.340122 19:1.858757 20:-1.697670 21:0.200282 22:-0.119135 23:0.868004 24:-2.682872 25:0.088087 26:-0.088012 27:-0.273814 28:0.628644 29:-0.215995 30:0.856931 31:0.394011 32:0.689677 33:-0.593227 34:0.984974 35:0.356012
-1 1:-0.503679 2:0.094844 3:-0.456141 4:-0.585198 5:0.297695 6:-1.447576 7:0.991114 8:-0.271083 9:-0.046652 10:0.875819 11:0.004486 12:0.505675 13:1.251808 14:-1.026487 15:0.764979 16:0.432310 17:1.167639 18:0.952060 19:1.559364 20:1.311077 21:-0.421487 22:-0.238761 23:-0.289571 24:-0.507512 25:-0.996207 26:2.004646 27:-0.891360 28:-2.338649 29:0.230362 30:-1.002422 31:1.687995 32:-0.924622 33:-0.495547 34:-1.741014 35:0.310830
-1 1:-0.729657 2:-0.957647 3:-0.122002 4:-0.296415 5:0.075198 6:-1.501064 7:0.868594 8:-0.256536 9:-1.472953 10:0.864151 11:-2.085790 12:-0.971960 13:-0.083287 14:1.011741 15:-0.029647 16:-0.618600 17:0.503842 18:0.230903 19:1.587790 20:0.262383 21:-1.264690 22:-0.226474 23:1.151258 24:-0.133456 25:0.655858 26:-1.390205 27:-2.058191 28:0.631294 29:-0.019396 30:0.925882 31:-0.963808 32:0.922964 33:0.728231 34:1.122128 35:-0.932124
-1 1:-1.975132 2:-0.398249 3:2.462895 4:0.113618 5:-0.868680 6:1.771849 7:-1.700534 8:-1.169943 9:0.035600 10:0.453216 11:0.602159 12:-1.335909 13:-0.322417 14:-1.796261 15:-0.990585 16:-0.825679 17:0.781458 18:-1.314171 19:-2.840139 20:0.943630 21:0.744268 22:0.465501 23:-1.008144 24:0.852131 25:0.645221 26:2.091701 27:0.818016 28:-0.656586 29:1.026025 30:0.404386 31:-0.517177 32:-1.775638 33:0.688446 34:1.318749 35:0.096116
-1 1:1.593482 2:0.168763 3:-0.201365 4:0.337442 5:-0.319440 6:-0.916698 7:0.692305 8:-1.655760 9:-0.253663 10:0.385989 11:-0.291068 12:0.820480 13:-0.605601 14:-0.250979 15:0.259338 16:0.439161 17:0.208549 18:0.815981 19:0.116051 20:0.831027 21:-1.902343 22:0.866785 23:0.836083 24:-0.748292 25:-0.673053 26:-0.578757 27:0.088501 28:-0.418377 29:-1.194637 30:0.975433 31:1.440995 32:-0.495453 33:0.627193 34:0.883297 35:-1.469222
-1 1:0.281788 2:-1.059308 3:-0.580441 4:-0.149532 5:0.384522 6:-1.016882 7:-1.281721 8:1.134674 9:0.060758 10:-0.348010 11:-2.423987 12:0.521525 13:-0.183720 14:0.783527 15:0.402318 16:0.398992 17:-0.163128 18:0.794883 19:-2.003401 20:1.685258 21:-0.155476 22:-1.374018 23:-0.354809 24:-0.052412 25:-0.921082 26:0.048526 27:-1.802900 28:-0.511627 29:1.551857 30:0.721001 31:0.401171 32:-2.281499 33:0.440262 34:0.330073 35:1.089905
-1 1:-1.938630 2:1.114698 3:1.090939 4:1.294522 5:0.919515 6:0.851874 7:-0.443430 8:-2.686385 9:-0.389820 10:1.511607 11:-0.496113 12:1.112263 13:1.578279 14:1.140315 15:0.910397 16:-0.561299 17:1.414902 18:0.355109 19:-0.601754 20:-0.095965 21:0.895342 22:1.411208 23:1.395577 24:-0.232797 25:0.062450 26:0.745997 27:0.872361 28:-0.970603 29:-0.283476 30:1.424513 31:-0.328717 32:-0.311796 33:0.751440 34:-0.874796 35:-1.333503
-1 1:0.198856 2:-0.561585 3:-1.196925 4:-0.504587 5:0.579388 6:-0.505883 7:-0.271825 8:-0.272019 9:0.612716 10:-0.749742 11:-0.086598 12:-0.322964 13:-0.067518 14:-1.402108 15:-0.466348 16:0.064017 17:0.600840 18:-1.569390 19:-1.048317 20:-1.037403 21:-0.638862 22:-0.029654 23:0.205292 24:1.166945 25:0.731083 26:-0.505283 27:-0.664721 28:-0.428209 29:0.573591 30:0.781049 31:-1.213831 32:-0.093436 33:-0.996117 34:-1.023191 35:-2.906707
-1 1:-0.390104 2:0.179506 3:-0.966380 4:-1.036031 5:0.330074 6:-0.035662 7:1.548102 8:-1.323479 9:0.859033 10:-0.607828 11:1.651335 12:0.168076 13:-0.732321 14:-0.346362 15:0.127232 16:-0.420402 17:0.385721 18:1.473877 19:0.346902 20:-0.461555 21:0.666870 22:-0.856321 23:1.499155 24:0.052735 25:-1.264385 26:-0.728536 27:-0.098952 28:0.867811 29:-1.061342 30:0.557447 31:-1.087589 32:0.237943 33:0.357318 34:0.086718 35:-0.186834
-1 1:0.733855 2:-0.541425 3:-1.149335 4:0.557759 5:1.361012 6:-0.352365 7:0.436070 8:-1.005237 9:-0.653060 10:0.775771 11:0.456221 12:-0.268118 13:1.494648 14:1.184902 15:-0.334581 16:-1.209085 17:2.559850 18:0.576636 19:0.696888 20:-2.143523 21:-0.026733 22:-1.050270 23:-0.934495 24:-1.216617 25:-0.466118 26:-1.060054 27:0.943331 28:-1.476105 29:-1.551667 30:0.743838 31:-2.383954 32:0.326806 33:0.255246 34:0.669269 35:2.647102
-1 1:0.322076 2:0.123210 3:0.468170 4:-0.215735 5:-0.073806 6:-0.444755 7:0.503179 8:-0.154550 9:1.112105 10:0.656752 11:1.479097 12:1.467862 13:-0.317019 14:-0.114585 15:0.369689 16:-0.255926 17:-0.663113 18:0.877118 19:0.450030 20:-0.043473 21:-0.337599 22:-0.899675 23:1.432766 24:0.522102 25:-0.492709 26:1.525846 27:0.306586 28:-0.060997 29:-1.015594 30:-0.743460 31:-1.573103 32:-0.050738 33:0.410028 34:-1.804671 35:1.132244
-1 1:2.234772 2:0.353550 3:-0.106216 4:-0.674986 5:0.159785 6:-1.329048 7:-0.637411 8:-1.320996 9:0.211387 10:0.317375 11:-0.420167 12:-0.194680 13:1.702137 14:1.060861 15:0.892349 16:0.614953 17:1.014270 18:0.604787 19:1.623929 20:-0.065912 21:-0.586013 22:1.647896 23:0.629094 24:-0.235292 25:0.336553 26:0.914860 27:0.872071 28:-1.121735 29:0.289919 30:0.263738 31:1.373941 32:-0.113122 33:0.102578 34:-0.651435 35:-0.167173
-1 1:0.134026 2:-0.465745 3:-1.633660 4:0.395481 5:-0.566275 6:-0.598143 7:1.461358 8:1.808540 9:1.096474 10:0.664553 11:0.246075 12:-0.294569 13:-0.389840 14:-0.542646 15:-0.487350 16:-0.740308 17:0.105994 18:0.209036 19:-0.230546 20:-0.421606 21:-0.671901 22:-0.406667 23:-0.142531 24:-0.575916 25:-0.144265 26:1.110148 27:-0.831297 28:0.285585 29:0.531412 30:-1.007601 31:-0.376197 32:0.482038 33:-0.053035 34:0.050540 35:-0.373313
-1 1:-0.797302 2:-1.328959 3:1.601240 4:-2.404709 5:0.063799 6:-0.445256 7:0.111159 8:-0.465819 9:-1.329984 10:-0.257448 11:1.222546 12:-0.551870 13:0.292265 14:1.048133 15:0.929070 16:0.722202 17:1.466853 18:-0.049674 19:0.753776 20:1.175287 21:-0.741930 22:1.122397 23:-0.894550 24:-1.172444 25:1.608858 26:0.392929 27:0.768170 28:-0.288792 29:0.023847 30:-0.912623 31:1.305003 32:0.710772 33:-0.576019 34:0.305179 35:0.512035
-1 1:0.764113 2:-0.212463 3:0.598268 4:0.564284 5:0.922777 6:-0.085519 7:0.182833 8:0.495992 9:-3.183920 10:1.976271 11:0.648956 12:-1.134417 13:-1.705830 14:-1.461747 15:-0.832264 16:-0.503726 17:-1.322597 18:-0.726846 19:0.731364 20:-0.062450 21:-1.317124 22:0.276935 23:-1.769216 24:0.016218 25:-2.194845 26:0.604044 27:1.863295 28:0.674029 29:0.760385 30:0.384425 31:0.423063 32:0.193290 33:-1.076167 34:-1.262819 35:0.482765
-1 1:-0.803115 2:0.623440 3:-1.375828 4:0.495462 5:1.014087 6:-0.224339 7:0.352698 8:0.680518 9:0.338148 10:-0.018560 11:-1.096705 12:-2.117083 13:0.016050 14:-0.555826 15:-0.590805 16:-1.467232 17:-0.619530 18:0.758852 19:-0.418787 20:0.651758 21:1.091649 22:0.436616 23:0.197138 24:0.873697 25:-0.788152 26:0.749359 27:-1.036862 28:-0.756665 29:0.288439 30:-1.641525 31:0.525571 32:1.294440 33:2.237477 34:-0.203499 35:1.665082
-1 1:-0.997133 2:-0.859624 3:-0.620255 4:-1.436336 5:-0.019014 6:-0.528728 7:-0.072655 8:0.133494 9:-1.394727 10:-1.529565 11:0.231718 12:-0.119809 13:0.242074 14:-0.690088 15:1.129078 16:-1.005478 17:-0.760776 18:-2.062556 19:-1.936540 20:0.377154 21:-1.099415 22:-0.849436 23:1.122770 24:-1.387407 25:0.066969 26:-0.545822 27:0.683543 28:0.150028 29:1.230803 30:-1.687486 31:-0.486087 32:-0.770240 33:-0.618543 34:0.478713 35:0.122567
-1 1:-0.891856 2:2.028133 3:-1.903447 4:0.917985 5:1.051276 6:-0.403428 7:1.274181 8:-0.303930 9:-0.515524 10:-1.048983 11:-0.404371 12:-1.165981 13:-0.554837 14:1.089387 15:0.730844 16:-0.572290 17:0.319409 18:1.470532 19:-0.352732 20:0.914364 21:-0.187299 22:-0.501405 23:0.553165 24:2.490385 25:-1.129690 26:0.587923 27:0.717509 28:0.326024 29:-0.893414 30:-0.070630 31:-1.190609 32:3.641010 33:0.382554 34:0.780647 35:-0.710209
-1 1:1.131795 2:-0.396471 3:1.101683 4:-0.261386 5:0.544198 6:0.480877 7:0.048224 8:0.501615 9:2.065909 10:1.764269 11:-0.384016 12:-0.603022 13:1.677508 14:0.646344 15:0.391639 16:-1.597795 17:0.097533 18:-0.010581 19:-0.682065 20:-1.610143 21:-0.569547 22:0.770782 23:2.015300 24:-0.098270 25:0.544001 26:0.531249 27:-0.628588 28:0.086235 29:1.311022 30:-0.168498 31:0.386181 32:-0.495842 33:0.793969 34:-0.236265 35:-2.297664
-1 1:0.753244 2:-0.865235 3:1.199142 4:0.555126 5:0.165390 6:0.205378 7:1.331929 8:-0.231571 9:0.086316 10:-0.125926 11:0.647708 12:0.311099 13:-1.033881 14:0.669953 15:1.084092 16:0.460150 17:2.554130 18:-0.971184 19:0.753275 20:-0.073213 21:-0.066753 22:-1.914399 23:1.011456 24:1.217442 25:-0.795344 26:0.126500 27:2.278553 28:0.119709 29:-0.437974 30:0.149316 31:2.691238 32:0.390953 33:-0.297115 34:-0.854690 35:0.608014
-1 1:-0.419120 2:0.346768 3:-0.176057 4:1.002165 5:-0.970782 6:-0.214199 7:0.492548 8:0.294345 9:0.302454 10:-0.468364 11:-0.399347 12:-1.718785 13:-0.625325 14:1.578070 15:-0.211912 16:-0.307433 17:0.145233 18:-0.432876 19:-1.388873 20:0.784107 21:-0.056294 22:0.459723 23:-0.060090 24:0.945963 25:0.723258 26:-0.306052 27:-1.436869 28:0.378752 29:0.871247 30:-0.713044 31:-2.069790 32:0.790575 33:0.125762 34:-0.030269 35:0.341668
-1 1:0.340540 2:-0.325311 3:-1.664001 4:-1.043233 5:0.396625 6:-1.690229 7:-1.050826 8:0.314739 9:0.682494 10:-0.358296 11:-0.955302 12:0.327758 13:-0.555371 14:-0.818411 15:-0.678762 16:0.181579 17:-0.116147 18:0.447684 19:0.516462 20:-0.524247 21:0.940215 22:-0.929917 23:-0.879330 24:0.387399 25:-0.530158 26:0.448639 27:0.157194 28:0.670406 29:-0.851007 30:1.035454 31:0.868395 32:-0.049860 33:-1.222111 34:-0.303871 35:0.430278
-1 1:1.189544 2:1.383439 3:-0.460365 4:0.941092 5:0.793635 6:1.826601 7:-0.046687 8:-1.654711 9:1.053892 10:-1.571705 11:1.461511 12:-1.069824 13:0.796829 14:0.005812 15:-0.681949 16:-0.707577 17:0.270959 18:-0.287647 19:-0.345575 20:-0.372506 21:0.274964 22:0.125923 23:-0.279483 24:-0.600287 25:-1.505874 26:0.560008 27:1.233485 28:-1.663841 29:0.669197 30:-0.437636 31:-1.255330 32:1.185616 33:-1.114858 34:-1.360021 35:0.536427
-1 1:-0.215293 2:0.453873 3:1.192212 4:-0.826930 5:0.946024 6:-0.605200 7:2.604635 8:-0.472486 9:0.755894 10:0.271712 11:-0.488831 12:-0.250846 13:-0.695786 14:-0.100593 15:1.525034 16:-0.920119 17:-0.456657 18:0.206539 19:-1.209603 20:0.594570 21:1.328895 22:0.476023 23:0.452424 24:1.634945 25:-0.172445 26:1.125459 27:-0.809832 28:-0.340270 29:-0.271779 30:-0.791184 31:1.348455 32:0.506843 33:-1.795499 34:0.914982 35:-0.102405
-1 1:0.042962 2:-1.434242 3:0.719489 4:0.717360 5:0.903993 6:-1.377461 7:0.019450 8:0.467458 9:-2.270384 10:0.895462 11:1.012505 12:-0.316753 13:0.381306 14:-0.640183 15:0.145946 16:-1.207963 17:-0.831304 18:-0.975389 19:0.066600 20:-0.175395 21:1.225578 22:0.246665 23:0.632673 24:-0.118233 25:-0.581714 26:1.623703 27:-0.975773 28:0.369405 29:-0.791184 30:0.458452 31:-2.710848 32:-0.526385 33:-0.680020 34:0.353863 35:0.870157
-1 1:2.238224 2:-0.863676 3:-1.592501 4:-0.788848 5:0.504644 6:0.670666 7:0.116956 8:0.524522 9:0.804088 10:0.294190 11:-1.338119 12:-0.268987 13:0.333849 14:0.388327 15:-0.076431 16:0.625994 17:0.408712 18:0.712958 19:-0.232056 20:-0.451603 21:-2.153596 22:-0.106108 23:-1.514457 24:1.443422 25:0.602572 26:-1.783655 27:0.649472 28:1.058680 29:0.504238 30:0.910708 31:0.278558 32:-0.253280 33:0.319118 34:-1.419276 35:-0.006422
-1 1:-0.311900 2:0.575553 3:-2.089197 4:-0.169870 5:1.218525 6:-1.205960 7:2.791137 8:-0.109117 9:-1.782609 10:0.649590 11:0.109730 12:-1.606167 13:-0.486839 14:0.990250 15:-0.630295 16:-0.486582 17:1.923115 18:-0.517500 19:-0.154486 20:0.770498 21:1.034388 22:-0.658701 23:-1.079905 24:-1.113056 25:0.422931 26:-0.279832 27:1.315614 28:-1.012648 29:-0.136911 30:-0.865065 31:0.130427 32:0.349397 33:0.953774 34:-0.439783 35:-2.073338
-1 1:-0.707024 2:0.086094 3:-0.489846 4:1.330390 5:1.603878 6:0.130099 7:-0.431438 8:-0.067428 9:-0.323437 10:-1.381708 11:-2.182315 12:1.256110 13:-0.296186 14:-1.295938 15:-1.825741 16:-0.617741 17:1.243045 18:-0.362817 19:0.141865 20:0.073924 21:0.726030 22:0.864623 23:0.896550 24:0.873984 25:0.919852 26:0.281344 27:2.125639 28:-0.349868 29:-0.229623 30:0.310029 31:0.868694 32:1.175951 33:0.586851 34:0.166801 35:-0.375822
-1 1:0.887818 2:0.346754 3:-0.032440 4:-1.733346 5:-0.549151 6:-1.064394 7:1.802882 8:-1.392091 9:-0.523765 10:0.484204 11:0.149838 12:0.248953 13:0.596259 14:0.123378 15:0.205109 16:-1.342682 17:0.025845 18:-0.179005 19:-0.913596 20:-0.609362 21:0.919966 22:0.725800 23:0.200827 24:0.479558 25:-0.120333 26:-0.470233 27:-1.199019 28:0.229671 29:1.340760 30:0.841615 31:0.250071 32:-3.690323 33:-0.723188 34:0.235089 35:0.387595
-1 1:-0.403517 2:-0.466920 3:0.352405 4:-0.506849 5:2.446023 6:0.555443 7:0.209424 8:-1.818542 9:-0.910344 10:-0.724007 11:0.008811 12:1.987690 13:0.056688 14:-1.304851 15:-0.575358 16:0.662653 17:0.706720 18:-1.266040 19:-1.157076 20:0.391381 21:1.027306 22:0.036122 23:-0.647558 24:0.735551 25:0.685158 26:0.841597 27:-0.424487 28:0.212433 29:0.305280 30:-1.342904 31:-0.548006 32:-1.426719 33:-1.649707 34:0.224068 35:0.824032
-1 1:0.063609 2:0.658141 3:0.088785 4:-0.327645 5:-0.879938 6:-0.679859 7:-2.128458 8:-0.173546 9:0.941222 10:-0.815599 11:1.142166 12:0.490795 13:0.032693 14:-1.345597 15:1.080580 16:-1.322558 17:-1.461940 18:-0.303756 19:1.907293 20:0.250259 21:1.421298 22:0.727611 23:-0.400686 24:-0.530899 25:0.480919 26:-0.903623 27:0.655970 28:1.267634 29:-2.298550 30:0.897596 31:-2.211368 32:-0.562381 33:2.347422 34:-0.408767 35:1.653177
-1 1:1.442080 2:0.046526 3:-1.131361 4:-0.491984 5:1.416172 6:-1.453422 7:0.763828 8:-0.049656 9:-0.038472 10:-0.620435 11:0.401014 12:0.045069 13:1.436463 14:-1.242571 15:1.155994 16:0.958794 17:1.125487 18:-0.558236 19:1.600954 20:-1.891817 21:-0.977675 22:-0.494284 23:-0.724321 24:1.413823 25:0.022587 26:-1.587216 27:0.778661 28:1.041757 29:1.576592 30:0.696074 31:-0.167926 32:-1.703896 33:-0.437176 34:2.084761 35:0.009131
-1 1:-0.056665 2:-0.350565 3:-0.193219 4:0.796154 5:0.235168 6:-0.130170 7:0.040570 8:-0.418068 9:1.052729 10:-0.317683 11:-1.222576 12:1.097513 13:-1.143726 14:-0.471161 15:0.372456 16:-0.616324 17:0.448940 18:0.141495 19:-0.031842 20:2.414223 21:0.251969 22:-1.668958 23:-0.111588 24:-0.780315 25:-0.925657 26:-0.958989 27:1.052379 28:-0.328425 29:0.340106 30:0.259448 31:1.090168 32:0.602996 33:-0.207252 34:0.417608 35:0.260774
-1 1:0.576646 2:-0.533357 3:-1.085522 4:-0.739106 5:0.948084 6:-1.814845 7:-1.097994 8:-0.743264 9:-0.715286 10:-1.275408 11:0.644218 12:-0.438909 13:-0.592001 14:-0.371861 15:1.164945 16:-1.110572 17:-1.468412 18:-2.697495 19:-0.434036 20:-1.324411 21:-1.285321 22:-0.142148 23:-1.234718 24:-1.521887 25:-0.885657 26:-0.888714 27:2.731403 28:0.504769 29:1.023109 30:-0.315198 31:-1.950833 32:-0.152314 33:0.451823 34:1.146975 35:-2.252937
-1 1:1.249747 2:0.262055 3:-0.965096 4:-0.468790 5:1.520781 6:-0.769911 7:-0.004963 8:-0.825715 9:0.491781 10:-0.983611 11:0.298517 12:-0.342124 13:-0.703720 14:1.558562 15:0.598517 16:-1.897821 17:-2.224731 18:-3.010247 19:0.916908 20:-0.337832 21:-0.559290 22:2.156518 23:1.129116 24:0.109171 25:-1.145359 26:0.052345 27:1.296265 28:-0.246618 29:0.244860 30:0.927603 31:-2.339689 32:0.434403 33:-0.760390 34:1.791808 35:-0.161317
-1 1:0.587994 2:-0.552944 3:0.717225 4:1.083563 5:0.786860 6:-0.163122 7:1.710711 8:-0.977095 9:0.124384 10:1.065385 11:0.075720 12:2.211783 13:-1.460715 14:2.320369 15:-1.057276 16:-0.109131 17:3.207562 18:1.243777 19:0.358594 20:-1.238654 21:0.061286 22:-0.119261 23:-0.732652 24:1.789470 25:-0.335299 26:0.053505 27:-0.330206 28:-0.153581 29:0.178781 30:0.499780 31:-0.201888 32:1.321903 33:-0.176186 34:1.378301 35:0.285027
-1 1:-1.591091 2:-1.076432 3:0.040908 4:-1.622653 5:-1.583535 6:-0.242885 7:0.483365 8:-1.116435 9:-0.289420 10:0.436112 11:-0.761165 12:0.020260 13:-0.194550 14:0.293798 15:1.024580 16:-1.695698 17:0.050473 18:-1.255534 19:0.061770 20:-0.807918 21:0.512248 22:0.630768 23:1.586344 24:-0.761841 25:-0.740918 26:0.671456 27:-0.586204 28:1.230064 29:1.688976 30:-1.101851 31:-1.107853 32:-0.046549 33:2.077312 34:0.718079 35:-0.775344
-1 1:0.257651 2:-1.835863 3:-0.455607 4:1.397519 5:1.218178 6:0.399962 7:-0.519482 8:-0.907619 9:-1.460368 10:-0.412470 11:0.005429 12:1.609784 13:-0.206294 14:-0.730412 15:1.920123 16:-2.371499 17:0.477295 18:0.169401 19:-0.504806 20:-0.156955 21:-0.111620 22:-0.291018 23:0.660606 24:0.224939 25:0.182568 26:0.034768 27:1.260329 28:0.173613 29:1.618641 30:0.906731 31:-1.158918 32:-0.357474 33:-0.887940 34:-0.541448 35:-1.516883
-1 1:1.758870 2:1.457383 3:-0.118710 4:0.632264 5:-0.140297 6:-0.075635 7:-1.352677 8:0.564967 9:-0.234347 10:-1.151785 11:0.714491 12:-2.298385 13:0.869907 14:-0.330760 15:0.583686 16:0.804116 17:0.744534 18:-0.356644 19:0.204648 20:1.005936 21:-0.538906 22:-0.814673 23:-0.305524 24:-1.530171 25:-0.599551 26:-0.643400 27:-0.331811 28:-2.951770 29:1.014742 30:0.212363 31:0.004733 32:-0.011616 33:-1.081075 34:-1.987412 35:0.998121
-1 1:-0.243217 2:-0.121717 3:-0.506391 4:-2.547942 5:-0.436187 6:-0.016652 7:0.566810 8:-0.643331 9:-0.378894 10:-0.520200 11:-0.590200 12:0.060408 13:-0.187506 14:0.966119 15:0.296341 16:1.206062 17:0.498103 18:1.051539 19:-0.473644 20:-1.116781 21:-1.008219 22:-0.516495 23:1.031491 24:-0.271872 25:0.168408 26:1.457091 27:-0.255915 28:0.089964 29:-1.001748 30:-2.048107 31:0.205208 32:1.008225 33:0.783064 34:0.900306 35:-1.006582
-1 1:-0.877013 2:0.242579 3:-0.745335 4:0.423262 5:-1.533222 6:0.339947 7:-0.777557 8:-1.402762 9:1.256010 10:1.065518 11:-0.401519 12:-0.703025 13:0.193667 14:0.599781 15:0.303603 16:0.098315 17:-1.928303 18:0.312825 19:-0.492341 20:-1.107937 21:-0.405690 22:-0.768028 23:-0.308453 24:-0.296210 25:0.058601 26:-1.592374 27:-0.806721 28:0.999362 29:0.285660 30:0.753645 31:1.444583 32:0.425010 33:0.513516 34:1.417576 35:1.214346
-1 1:0.277559 2:1.349241 3:0.580372 4:-0.170794 5:-0.281014 6:0.458963 7:0.193651 8:2.166102 9:2.642080 10:0.267871 11:-0.103619 12:1.132087 13:-1.319072 14:-0.489973 15:-2.061050 16:0.549288 17:0.536908 18:-0.942277 19:1.101807 20:0.047252 21:1.215871 22:-0.805859 23:-0.732236 24:-0.602927 25:-0.746270 26:1.797342 27:-1.704343 28:0.026581 29:-0.473243 30:-1.155178 31:-0.243733 32:1.213882 33:0.893966 34:0.258904 35:1.706272
-1 1:0.347948 2:1.486894 3:-1.487310 4:1.079845 5:-0.282509 6:0.249739 7:-1.054279 8:-0.008844 9:-0.236547 10:-0.238186 11:1.412227 12:-0.223266 13:-0.612890 14:0.853692 15:-0.456590 16:0.107764 17:-0.859645 18:0.037909 19:0.191149 20:-0.501160 21:0.794296 22:-2.498955 23:-0.121783 24:0.198204 25:-0.322156 26:-0.858719 27:0.343034 28:0.729444 29:0.348618 30:0.063377 31:1.057244 32:0.339403 33:-0.423659 34:-0.655453 35:0.544508
-1 1:0.441453 2:0.266561 3:-0.341698 4:1.583266 5:0.075418 6:0.595995 7:-1.024341 8:0.382086 9:0.114961 10:2.475447 11:0.278076 12:-0.230151 13:2.046582 14:0.167868 15:-0.080307 16:-0.670568 17:0.287449 18:-0.452123 19:-0.309641 20:1.677963 21:-1.781882 22:-0.231013 23:-0.964710 24:0.518944 25:0.071472 26:-1.575748 27:0.058916 28:1.522659 29:0.751797 30:-0.694909 31:-1.432507 32:-0.868570 33:-0.071105 34:-1.014034 35:1.270971
-1 1:-0.620061 2:1.386489 3:-0.812889 4:-0.229729 5:-0.569893 6:-0.475534 7:-0.301433 8:0.764133 9:0.075149 10:0.180373 11:1.954889 12:2.250118 13:-1.123860 14:0.753664 15:1.361438 16:1.012815 17:-0.613819 18:-0.458835 19:-1.113756 20:-0.150381 21:0.231257 22:0.346286 23:-0.340233 24:-0.627577 25:1.316131 26:1.440139 27:0.792044 28:0.190346 29:-2.144298 30:1.838068 31:0.609589 32:-0.026372 33:-1.970286 34:-1.306275 35:-1.082220
-1 1:0.708711 2:1.209891 3:-0.545832 4:-0.383273 5:0.802338 6:-2.237555 7:1.310435 8:-0.132351 9:-0.371994 10:-0.296064 11:0.487534 12:-0.083659 13:0.960462 14:-1.537556 15:0.766024 16:-0.097501 17:0.435518 18:0.259044 19:-0.987598 20:0.953374 21:-0.450591 22:-0.755055 23:0.574092 24:0.787529 25:-0.391578 26:-3.090276 27:-0.866862 28:0.359067 29:2.184914 30:0.135458 31:0.225123 32:0.018065 33:2.088061 34:0.050353 35:-1.793748
-1 1:-0.934057 2:-1.101403 3:-0.532165 4:0.608354 5:1.034479 6:0.486293 7:-0.307222 8:-0.934925 9:-1.139721 10:0.543084 11:0.284454 12:0.474364 13:-0.385289 14:-3.303547 15:-0.269512 16:-1.550987 17:-0.192753 18:-1.136349 19:-0.529207 20:-0.722118 21:-0.416538 22:-0.200172 23:0.459717 24:-0.390956 25:0.998300 26:-0.841658 27:-1.225638 28:-0.147150 29:-0.955811 30:-0.845484 31:0.277726 32:-1.114186 33:-0.129325 34:0.908340 35:1.441085
-1 1:-0.261076 2:-0.075442 3:-0.839801 4:0.677681 5:-0.611608 6:0.104942 7:1.210905 8:1.588523 9:-0.565666 10:-1.519146 11:-0.661427 12:-0.745736 13:-1.668377 14:1.627254 15:1.191183 16:3.319837 17:-0.012664 18:-1.642920 19:-0.774985 20:-0.447362 21:1.336629 22:-0.240102 23:0.248247 24:1.095553 25:0.544448 26:-1.103425 27:0.303712 28:0.096327 29:0.669948 30:-1.220692 31:1.434010 32:-0.359849 33:0.589547 34:1.207886 35:-0.004252
-1 1:0.220175 2:1.035141 3:1.681473 4:0.536087 5:-0.722866 6:1.326718 7:0.426701 8:-0.093582 9:-1.467612 10:1.702371 11:-0.997130 12:0.051440 13:0.275023 14:0.086446 15:-0.055818 16:0.406779 17:-1.808106 18:1.031107 19:1.037971 20:0.819345 21:0.388951 22:0.771495 23:0.375150 24:1.511018 25:-2.372304 26:-0.347435 27:-2.045428 28:0.625189 29:-0.295212 30:0.701715 31:-0.015812 32:-1.203182 33:-0.912898 34:-0.486880 35:0.429357
-1 1:0.106014 2:-0.532596 3:-0.954082 4:-0.837116 5:-0.587066 6:-0.451414 7:-0.002968 8:0.525239 9:-1.930695 10:0.199437 11:-1.497507 12:-0.610715 13:0.210113 14:0.571282 15:1.173372 16:-0.208961 17:1.653312 18:1.695868 19:0.278948 20:0.422691 21:-1.950686 22:0.649811 23:0.685384 24:0.580582 25:-0.376293 26:1.380376 27:0.541900 28:-0.598429 29:-0.057784 30:-0.557069 31:0.879274 32:-0.687198 33:0.536886 34:0.582354 35:0.892293
-1 1:1.069866 2:0.258688 3:-0.025358 4:-0.363661 5:-0.345425 6:-0.433716 7:0.063661 8:1.102039 9:0.455388 10:-1.395281 11:0.559159 12:1.651384 13:-0.197801 14:-0.338952 15:-1.441315 16:-1.012335 17:0.058994 18:-2.878164 19:-0.235261 20:-0.570038 21:0.448244 22:0.604879 23:1.513919 24:-1.156428 25:0.427113 26:-0.962527 27:0.754398 28:-0.897542 29:-0.457735 30:-2.010250 31:0.930221 32:0.472791 33:-0.299058 34:0.269082 35:0.503533
-1 1:0.254430 2:1.364113 3:1.065857 4:0.046538 5:0.439739 6:0.260634 7:-0.629657 8:-0.785463 9:-0.000481 10:-0.353351 11:-0.278093 12:-0.364780 13:0.743268 14:0.786460 15:-0.277220 16:-0.065997 17:-0.275644 18:-0.225858 19:0.443738 20:0.417803 21:-0.807404 22:0.562267 23:-1.277170 24:-0.100215 25:0.654129 26:0.101546 27:1.091978 28:-0.351663 29:1.236440 30:-0.287058 31:0.211584 32:0.323957 33:-1.962577 34:0.324295 35:-0.709096
-1 1:-0.432922 2:-1.487290 3:-0.255577 4:-1.607497 5:0.128392 6:-0.106840 7:1.418558 8:0.117747 9:-0.189599 10:1.328685 11:-0.231737 12:-0.112846 13:1.292322 14:0.718341 15:-0.454278 16:-1.087626 17:-0.825812 18:-1.277888 19:-0.482696 20:0.664027 21:0.325201 22:0.356672 23:-0.381686 24:0.547189 25:-0.388365 26:0.478528 27:0.379814 28:-0.101328 29:0.772905 30:-0.222664 31:-0.202521 32:-1.079262 33:-1.164727 34:-0.745744 35:0.505172
-1 1:-0.507317 2:0.866987 3:-0.711009 4:-0.131133 5:-1.618444 6:-0.336760 7:-0.790746 8:-0.888734 9:0.812470 10:-0.217153 11:1.343570 12:0.399603 13:-0.621762 14:0.116868 15:-1.629667 16:-0.218025 17:-0.826267 18:-1.420097 19:-0.060977 20:-0.196799 21:0.484201 22:0.468402 23:-0.446399 24:-0.318713 25:0.789193 26:-0.392103 27:0.787609 28:-0.698247 29:1.574410 30:-0.889334 31:0.486036 32:0.727222 33:-0.818101 34:0.633720 35:0.637522
-1 1:1.069033 2:1.275306 3:0.409737 4:-1.416730 5:-0.580836 6:-1.769563 7:-0.674732 8:-1.233485 9:0.378430 10:-1.254249 11:-0.202971 12:-1.464010 13:1.234108 14:0.036847 15:1.122210 16:0.021194 17:0.208679 18:-0.394989 19:-1.445174 20:0.108644 21:-0.389867 22:-0.276615 23:-0.895234 24:-0.788739 25:0.899595 26:-0.745935 27:-0.183215 28:-0.549556 29:0.466999 30:0.758503 31:-0.327294 32:0.936300 33:0.294728 34:-0.429064 35:0.773278
-1 1:0.174002 2:-0.417729 3:-0.679304 4:0.189500 5:-0.593983 6:0.232073 7:-1.179894 8:0.087576 9:-0.034672 10:-0.426368 11:0.641992 12:1.080323 13:-1.301029 14:-0.218705 15:-0.126488 16:-1.348176 17:-0.486470 18:-0.220113 19:-1.601548 20:0.609716 21:-0.150027 22:0.696803 23:-0.147140 24:-0.770236 25:-1.003845 26:0.075987 27:0.368818 28:-0.105214 29:-1.400889 30:-2.087001 31:0.118245 32:-1.088711 33:-0.831142 34:-0.514509 35:1.284196
-1 1:0.262365 2:0.608145 3:0.382279 4:0.973967 5:-0.043165 6:0.016708 7:-0.460182 8:-0.345239 9:-0.756397 10:0.955123 11:-0.385528 12:-0.027098 13:-0.137236 14:1.107918 15:-0.660383 16:-1.300118 17:0.437569 18:0.182709 19:-0.162993 20:-1.078367 21:0.716260 22:-0.631621 23:0.516091 24:0.583340 25:1.461288 26:-1.033401 27:1.940564 28:1.174001 29:0.731351 30:-0.614627 31:0.708411 32:3.134638 33:-0.079863 34:2.017033 35:-0.150811
-1 1:0.017151 2:0.356423 3:0.410751 4:-0.703214 5:-2.385400 6:0.985965 7:1.908737 8:0.438998 9:-0.778327 10:0.118189 11:0.471011 12:-0.823999 13:1.328333 14:0.051252 15:0.563488 16:-0.689006 17:-1.079823 18:0.328286 19:-1.136213 20:-0.371717 21:-0.202624 22:-0.505678 23:0.703320 24:-0.164601 25:-0.309827 26:2.112416 27:-1.413421 28:0.589917 29:-0.311636 30:-0.325595 31:0.047965 32:0.070547 33:0.268479 34:-0.955219 35:1.000058
-1 1:-1.195188 2:0.321075 3:-1.290012 4:-0.580382 5:-1.138670 6:0.531758 7:1.036579 8:0.777469 9:-0.794020 10:-0.855916 11:-0.177202 12:-1.333542 13:-0.593029 14:0.585905 15:0.281801 16:1.337700 17:-1.183172 18:-0.387978 19:-0.634464 20:-0.706561 21:-1.516602 22:0.644555 23:0.171191 24:-1.022389 25:-0.817824 26:0.339488 27:1.593092 28:0.621654 29:1.294261 30:-2.494099 31:-0.112826 32:0.233592 33:-0.157031 34:-0.036784 35:1.253706
-1 1:0.704837 2:0.893770 3:-1.982933 4:1.437332 5:-0.004506 6:0.368338 7:1.882701 8:-1.325796 9:-0.003599 10:-0.742626 11:-0.135511 12:-1.427815 13:-0.274454 14:-0.693402 15:-0.209750 16:0.630930 17:0.051976 18:-1.106950 19:-0.114453 20:0.096130 21:-0.577382 22:-3.225448 23:-0.120480 24:-1.357834 25:1.013816 26:-1.056340 27:2.446665 28:-2.248425 29:0.982812 30:-0.308900 31:0.646937 32:0.149771 33:1.145465 34:1.065986 35:1.790188
-1 1:-0.954330 2:1.811345 3:0.094735 4:0.459247 5:1.940423 6:-1.251067 7:0.502959 8:-0.257331 9:-1.026704 10:-1.582038 11:0.097603 12:0.084619 13:-1.641770 14:-0.059567 15:-0.641704 16:-1.392156 17:0.645446 18:1.143364 19:0.707193 20:-0.612359 21:0.498162 22:-0.184289 23:-0.957140 24:0.008554 25:0.024046 26:1.419361 27:0.307343 28:0.022756 29:0.406739 30:1.149633 31:-0.273290 32:-0.392457 33:0.988371 34:1.071857 35:-1.716630
-1 1:1.330935 2:1.709256 3:-0.031710 4:0.073845 5:0.111336 6:0.415710 7:0.308344 8:-0.732936 9:-0.456300 10:-0.484691 11:-0.614808 12:0.910681 13:-0.921865 14:-0.581489 15:-1.506091 16:-1.006051 17:0.679510 18:-0.085014 19:-0.713172 20:-0.511950 21:0.957699 22:0.522284 23:3.616258 24:-1.175382 25:-0.087992 26:0.478406 27:-2.022018 28:-0.088810 29:0.999020 30:0.206495 31:0.846893 32:0.259819 33:-1.228714 34:0.828164 35:-0.062859
-1 1:0.867446 2:-1.066716 3:-0.195316 4:-1.190541 5:0.360047 6:-0.328330 7:1.147857 8:-0.214139 9:-0.256847 10:1.223497 11:0.440497 12:0.710700 13:1.103617 14:1.244213 15:-0.153435 16:0.448271 17:-0.262921 18:-0.048622 19:0.302519 20:-0.265846 21:0.699010 22:0.289934 23:-1.771914 24:0.832469 25:0.771401 26:-0.358625 27:2.121583 28:0.387806 29:-0.259598 30:1.202199 31:0.029094 32:-0.500405 33:-0.125552 34:-0.145279 35:0.181703
-1 1:1.312938 2:-0.480043 3:-0.746354 4:-0.386562 5:-0.899686 6:-1.822335 7:0.344865 8:-2.206957 9:-0.295553 10:-0.157397 11:0.307024 12:-0.554313 13:0.510414 14:0.671477 15:0.524135 16:-0.903738 17:0.140805 18:2.778415 19:0.535137 20:1.264351 21:0.707910 22:0.876680 23:-0.219830 24:-0.300518 25:-0.411677 26:-0.780895 27:1.033342 28:-0.255983 29:-0.711989 30:0.461696 31:-1.545003 32:-0.883755 33:-1.055654 34:0.407619 35:-1.711738
-1 1:0.685278 2:-2.191433 3:1.144684 4:-2.422333 5:0.413939 6:0.244080 7:-0.635618 8:0.062028 9:0.412118 10:-0.562878 11:-0.601596 12:1.151003 13:1.141900 14:2.028879 15:-0.175473 16:-0.704842 17:-0.574182 18:-1.685721 19:-0.209279 20:0.205960 21:-0.656589 22:0.605597 23:-0.089018 24:0.102766 25:0.819234 26:-2.364567 27:0.302084 28:-0.703173 29:0.381775 30:1.083702 31:-0.803580 32:-0.893144 33:0.072424 34:1.184572 35:-0.512104
-1 1:-0.859299 2:0.995110 3:0.434809 4:-0.194003 5:-0.011713 6:0.330401 7:-0.253374 8:-0.929304 9:-0.159756 10:-1.739275 11:0.418095 12:1.873466 13:-0.665320 14:0.610488 15:0.735368 16:0.684521 17:-0.451933 18:1.205257 19:-1.025668 20:0.492387 21:-0.335596 22:0.207569 23:1.181190 24:-0.163312 25:-0.544251 26:-0.514364 27:0.210740 28:-1.441537 29:1.687569 30:0.288160 31:-0.196518 32:0.809219 33:-0.292683 34:2.258965 35:0.144340
-1 1:-0.186988 2:-0.616684 3:0.400501 4:1.324265 5:-1.196911 6:-0.822033 7:1.025233 8:0.848012 9:-0.054339 10:-0.040807 11:-0.720626 12:0.484602 13:-0.810257 14:0.759945 15:-0.225990 16:-0.290720 17:-1.151002 18:-0.963790 19:0.354063 20:-0.754233 21:-1.066642 22:-1.437085 23:0.763128 24:-1.118167 25:1.373487 26:-0.034930 27:-1.580883 28:-1.753221 29:0.101906 30:0.854208 31:-0.148853 32:0.651222 33:1.032180 34:0.897971 35:1.171229
-1 1:0.339944 2:-0.792543 3:-0.517211 4:2.190595 5:-0.631441 6:-0.574046 7:-0.425065 8:0.506133 9:0.885475 10:-1.383504 11:0.140264 12:-0.277051 13:-0.095679 14:0.919306 15:-0.160072 16:2.456935 17:0.127930 18:0.353025 19:-0.254495 20:-0.456534 21:0.076113 22:-2.445515 23:-0.005476 24:-0.226400 25:1.304785 26:-1.599832 27:0.079682 28:0.176655 29:0.744689 30:-0.453707 31:-1.518518 32:1.397607 33:-0.348644 34:-1.947177 35:0.928695
-1 1:0.460357 2:2.744847 3:-0.649336 4:-0.807795 5:2.100469 6:-1.596363 7:-2.059017 8:-0.745227 9:1.359153 10:-0.560587 11:-0.581881 12:0.075064 13:0.005594 14:1.085429 15:1.428697 16:1.274575 17:0.786663 18:0.044456 19:0.028484 20:0.575958 21:0.481048 22:0.836816 23:-0.525752 24:-0.125718 25:1.195089 26:-0.053938 27:-0.887016 28:1.563182 29:0.208571 30:-0.652731 31:-0.704488 32:0.867805 33:-0.736092 34:0.263529 35:-0.186222
-1 1:0.994493 2:-1.137589 3:2.178248 4:0.083002 5:0.579595 6:0.001869 7:0.612074 8:-0.033448 9:0.269178 10:-0.019748 11:0.468852 12:0.924575 13:1.931311 14:0.841148 15:0.893533 16:-1.045423 17:1.117936 18:0.028712 19:-0.290579 20:-0.056926 21:0.301298 22:0.363477 23:0.854824 24:-0.418584 25:-1.467100 26:-0.053984 27:-0.715186 28:-0.940337 29:-0.007184 30:0.609933 31:0.500675 32:0.538360 33:-0.793052 34:-0.049778 35:1.733713
-1 1:-0.628098 2:-0.343508 3:0.176346 4:0.957523 5:-0.401195 6:0.123285 7:-0.303405 8:-1.263413 9:0.365057 10:0.063361 11:1.056631 12:-0.919357 13:2.827423 14:1.558300 15:-0.346578 16:0.713175 17:1.510353 18:0.179850 19:-0.874188 20:-0.646525 21:0.536905 22:0.249895 23:0.143016 24:-0.341311 25:-0.079580 26:-0.593301 27:-0.408987 28:-2.408878 29:-0.417552 30:0.462264 31:-0.676264 32:-0.771348 33:0.982960 34:0.187444 35:1.137810
-1 1:0.451694 2:-0.436697 3:1.336675 4:0.084924 5:-1.858759 6:1.060190 7:0.128883 8:0.194492 9:0.948558 10:-1.727721 11:1.276241 12:-0.898089 13:0.683386 14:-0.929110 15:0.792989 16:-0.517495 17:-1.453507 18:1.184692 19:-1.325981 20:-0.260093 21:-1.528235 22:0.658871 23:-0.903054 24:2.473225 25:0.313339 26:-0.257107 27:0.707515 28:-0.659176 29:-0.231684 30:-2.042408 31:0.296883 32:0.175081 33:-0.776677 34:0.252984 35:0.813384
-1 1:0.007097 2:-0.577865 3:-1.458020 4:-0.317166 5:1.374087 6:-1.138565 7:-1.168726 8:-1.365651 9:-1.708614 10:-0.914222 11:-0.321338 12:1.400820 13:-2.464546 14:0.003094 15:-0.044207 16:-0.592531 17:0.758744 18:1.479263 19:0.080112 20:0.847767 21:-0.428380 22:0.512993 23:-1.799321 24:0.148352 25:0.580343 26:-0.762416 27:-0.534448 28:2.465894 29:-0.601078 30:0.238359 31:-0.302484 32:0.552292 33:0.961594 34:-0.861228 35:-0.221846
-1 1:-0.289920 2:-0.143608 3:0.827086 4:0.339779 5:2.154406 6:-0.692348 7:-1.262082 8:-0.599555 9:-0.716085 10:-1.672095 11:-0.762970 12:-0.557175 13:0.265985 14:2.947819 15:0.474388 16:-0.888059 17:0.542371 18:0.785137 19:0.766356 20:0.098005 21:-0.712132 22:0.652354 23:-0.586008 24:0.504461 25:0.290367 26:0.145733 27:0.929741 28:1.629012 29:-1.283497 30:0.936048 31:0.388699 32:0.711336 33:-0.823616 34:0.106153 35:0.374588
-1 1:-0.970469 2:0.143606 3:0.120114 4:-0.491796 5:0.322296 6:-0.678430 7:0.847338 8:0.359482 9:0.764276 10:0.186365 11:1.318305 12:-1.540234 13:1.418263 14:-1.630808 15:-0.539180 16:0.646426 17:-0.357502 18:0.839919 19:2.448588 20:-0.844356 21:-0.727841 22:-0.554923 23:0.402069 24:-1.490228 25:-0.449495 26:-0.688383 27:0.364196 28:-1.839370 29:-0.244439 30:1.605765 31:-0.388604 32:-0.218620 33:-0.171404 34:1.482989 35:1.386807
-1 1:0.551326 2:0.876988 3:0.965373 4:-0.853553 5:0.519399 6:2.480370 7:0.707140 8:0.462270 9:-0.027051 10:0.581020 11:-0.785352 12:1.477045 13:1.487194 14:-1.617809 15:1.038800 16:-0.056886 17:-0.095307 18:0.866639 19:2.256518 20:0.493056 21:-0.237529 22:0.027802 23:-0.937107 24:0.039048 25:0.471026 26:0.789924 27:-0.019874 28:0.309715 29:-0.020661 30:-0.441024 31:-0.466187 32:0.942928 33:-0.662358 34:1.572165 35:-0.489827
-1 1:-0.022790 2:0.583356 3:1.376142 4:0.290420 5:0.742763 6:0.844065 7:1.518468 8:-1.011582 9:-0.060586 10:1.591304 11:1.955621 12:-2.093484 13:1.662287 14:1.527215 15:0.183803 16:0.279849 17:0.542003 18:0.174935 19:1.951071 20:1.071729 21:-1.323053 22:0.116254 23:-0.304702 24:1.120768 25:1.039115 26:1.798265 27:1.796812 28:0.112177 29:-0.060488 30:-0.682335 31:0.155900 32:-1.391090 33:2.091088 34:-1.197491 35:-0.293681
-1 1:-0.570499 2:-0.022109 3:-2.066796 4:-0.013994 5:1.185350 6:0.577713 7:0.744556 8:-0.450493 9:0.036078 10:2.725568 11:-1.055563 12:1.158172 13:-0.067052 14:0.184493 15:-1.474515 16:-0.227444 17:0.634765 18:0.018319 19:0.705577 20:-0.573207 21:-0.357349 22:0.472274 23:0.989631 24:-0.622554 25:0.734264 26:0.624422 27:0.790752 28:0.088684 29:0.187864 30:0.870693 31:-1.362532 32:-0.716208 33:1.353155 34:1.099304 35:-0.561914
-1 1:1.966913 2:1.260664 3:0.780514 4:1.893792 5:-1.394519 6:-0.884915 7:-0.548508 8:-1.447633 9:-0.361336 10:1.088307 11:-0.927291 12:0.758383 13:0.423821 14:-0.785615 15:0.075729 16:0.617400 17:-0.041768 18:1.841925 19:0.220296 20:1.465237 21:0.759986 22:0.888861 23:0.608402 24:0.421619 25:-1.186252 26:0.679960 27:-1.231078 28:0.048513 29:1.243724 30:1.935440 31:-0.602044 32:2.059240 33:-0.567579 34:-0.257994 35:-1.908499
-1 1:1.149558 2:-0.550157 3:0.185739 4:-0.207036 5:0.374453 6:0.324283 7:1.267117 8:-1.287408 9:-0.610744 10:-0.369533 11:0.236548 12:2.203680 13:0.738574 14:-2.164791 15:-1.161770 16:0.028944 17:-0.481424 18:0.149444 19:0.810237 20:-2.682282 21:-0.471955 22:0.187572 23:0.448068 24:-1.148376 25:0.169264 26:-0.777116 27:-2.038855 28:0.511342 29:-0.057521 30:0.351499 31:-0.439535 32:-1.126777 33:-0.172549 34:-0.983078 35:0.897134
-1 1:2.123994 2:0.742007 3:-1.478100 4:2.046105 5:0.327302 6:-0.651587 7:0.145234 8:-1.444180 9:2.023008 10:-0.406988 11:-0.714484 12:1.671367 13:1.086442 14:0.498616 15:-0.603372 16:1.122677 17:0.032403 18:-0.723025 19:0.015554 20:1.668350 21:-1.416453 22:-0.424144 23:-1.237009 24:0.541586 25:0.939883 26:-0.605259 27:0.004327 28:-1.452772 29:-1.226233 30:-0.645944 31:0.674535 32:0.429586 33:1.611303 34:-0.187543 35:-0.487138
-1 1:0.602990 2:-0.374998 3:1.191353 4:0.855834 5:-0.001296 6:-1.069829 7:-0.056756 8:0.214236 9:0.239347 10:1.386503 11:-1.094808 12:-0.996873 13:-0.628490 14:0.057625 15:-0.056663 16:1.026604 17:0.837144 18:0.741829 19:-0.597003 20:0.214781 21:0.281468 22:-0.165156 23:0.280494 24:-0.895386 25:-0.659019 26:-1.554125 27:-0.158470 28:-0.356419 29:-1.256364 30:-1.014754 31:0.286210 32:0.321071 33:1.388827 34:-0.176501 35:-1.445823
-1 1:0.332256 2:-0.115787 3:-0.301095 4:1.321058 5:-1.644704 6:-0.528095 7:-0.598111 8:0.888576 9:0.248208 10:-0.934535 11:0.471397 12:0.093498 13:0.681671 14:1.179128 15:1.733098 16:0.791417 17:-0.566140 18:0.107637 19:1.012937 20:0.624848 21:0.686916 22:0.024385 23:-0.407805 24:0.827290 25:2.337123 26:-1.763495 27:-0.413811 28:1.135403 29:0.115696 30:1.264135 31:1.176193 32:-1.432091 33:-1.419901 34:-0.328133 35:-0.466702
-1 1:1.193528 2:-0.015373 3:0.032731 4:0.597394 5:0.479050 6:0.702657 7:1.368967 8:0.418040 9:-0.042418 10:-1.305742 11:0.062591 12:0.114672 13:-0.029061 14:-0.178363 15:1.161730 16:0.443139 17:-1.117491 18:0.205551 19:1.534085 20:-1.696599 21:-0.714121 22:0.017038 23:1.325496 24:-1.277891 25:-0.059280 26:-2.859356 27:0.683128 28:-1.626116 29:1.353311 30:-0.313683 31:0.119794 32:-1.634250 33:0.834662 34:-0.987588 35:-1.111105
-1 1:0.040728 2:0.022025 3:-1.176694 4:0.629727 5:1.083083 6:-0.871613 7:-1.380769 8:0.798450 9:-0.068601 10:-1.420994 11:0.762320 12:-1.437779 13:-0.270114 14:-0.380454 15:0.199270 16:-0.562560 17:-3.147115 18:0.994786 19:0.437614 20:0.239904 21:-0.788087 22:0.538048 23:-0.240791 24:0.552041 25:0.603707 26:-0.965264 27:1.098019 28:-1.207009 29:-0.366010 30:0.388730 31:-0.692257 32:1.906211 33:-0.726788 34:-0.184765 35:-0.612676
-1 1:0.930098 2:-0.722194 3:1.095525 4:0.922477 5:-0.334291 6:-0.331657 7:1.982095 8:0.120791 9:0.367294 10:0.083444 11:-2.201983 12:1.229845 13:0.503854 14:-0.433939 15:-1.535563 16:0.918485 17:0.582899 18:1.368581 19:-0.435369 20:0.408728 21:-0.668634 22:-0.523016 23:0.535432 24:-0.359226 25:2.069300 26:1.163486 27:-0.193979 28:-0.335697 29:1.210559 30:-0.605415 31:-0.600311 32:0.052390 33:2.214498 34:0.210461 35:0.812355
-1 1:0.812631 2:-1.139005 3:0.640055 4:1.685727 5:0.578304 6:-0.733824 7:-1.711987 8:-1.351455 9:-0.442605 10:0.779613 11:0.195073 12:0.666353 13:1.096677 14:0.165031 15:-2.411501 16:-0.773603 17:0.117432 18:0.902855 19:0.601037 20:-0.441074 21:-0.299201 22:-0.424133 23:0.620123 24:-0.738260 25:-0.923561 26:0.107674 27:0.500391 28:-1.236988 29:-0.596639 30:0.997043 31:0.522705 32:0.488534 33:-0.704149 34:0.251508 35:0.793150
-1 1:-0.385448 2:-1.330805 3:-1.064689 4:-1.647354 5:0.035589 6:1.461864 7:0.021046 8:1.811818 9:-0.145721 10:0.525434 11:0.081724 12:0.373928 13:1.635576 14:-0.925053 15:-0.216516 16:-0.972259 17:0.626291 18:0.987165 19:-0.672976 20:1.223353 21:0.500980 22:-0.787314 23:0.608759 24:-0.370682 25:1.340056 26:1.825181 27:-0.420028 28:0.374066 29:0.385161 30:0.131185 31:-1.155634 32:0.666117 33:-0.944724 34:0.805079 35:-1.416839
-1 1:0.311111 2:0.037057 3:-0.697263 4:-0.790062 5:2.392718 6:1.123360 7:0.649758 8:1.462190 9:-1.432242 10:0.411633 11:-1.348551 12:0.055813 13:-0.179066 14:-0.804089 15:-0.974265 16:-1.371614 17:-0.072999 18:-0.715430 19:-0.823745 20:-0.800427 21:0.709586 22:0.607719 23:2.167131 24:-0.237918 25:-0.078094 26:0.404577 27:0.800952 28:-0.448937 29:-0.808245 30:-2.951740 31:-0.158522 32:0.652617 33:2.237315 34:-0.721661 35:1.174677
-1 1:-0.415459 2:-0.537445 3:-1.019510 4:-1.712069 5:-0.725563 6:-1.085361 7:1.593659 8:-1.686747 9:1.055727 10:2.004300 11:-0.393984 12:-0.636945 13:-0.405451 14:-0.606085 15:0.413862 16:-0.264162 17:-0.650746 18:-0.645747 19:0.923497 20:0.292753 21:-0.804007 22:-1.318376 23:0.461413 24:-0.534693 25:0.067237 26:-2.382053 27:-0.073888 28:0.380811 29:1.417064 30:-0.514141 31:0.034570 32:-0.518169 33:-0.116188 34:1.111349 35:-0.392114
-1 1:1.928114 2:0.629575 3:-0.180866 4:0.068647 5:-0.485516 6:-0.002453 7:0.454148 8:-0.168335 9:0.083396 10:0.583251 11:1.536556 12:-0.006298 13:-0.513050 14:-1.166562 15:-1.464073 16:-0.141174 17:0.458385 18:1.086507 19:0.739786 20:1.332634 21:0.554741 22:1.044639 23:-0.550971 24:0.741109 25:1.932789 26:-0.458425 27:0.084483 28:0.640821 29:0.493012 30:0.025616 31:0.254345 32:-0.305725 33:0.939799 34:-0.951872 35:1.717016
-1 1:1.851245 2:0.133821 3:0.392688 4:-0.094835 5:-2.215848 6:-0.860551 7:0.274551 8:-0.655687 9:-1.023765 10:-1.388326 11:0.417987 12:-0.726835 13:-0.525919 14:0.249408 15:0.178458 16:-0.159286 17:1.046630 18:-0.412490 19:-1.431104 20:0.883873 21:0.820101 22:-0.054111 23:0.132179 24:-0.400411 25:1.466950 26:0.103153 27:-1.281387 28:1.425856 29:-0.412741 30:-0.001393 31:-1.298595 32:1.071364 33:0.450864 34:1.015316 35:2.831423
-1 1:-0.619579 2:1.056073 3:-1.394780 4:-0.643148 5:-0.767563 6:0.830715 7:0.165866 8:-0.127697 9:1.258852 10:-1.043473 11:-0.290833 12:-0.288529 13:1.239008 14:-2.370143 15:-0.697246 16:1.700411 17:0.036237 18:-0.227551 19:0.823144 20:-0.218657 21:2.563382 22:0.985982 23:0.150861 24:0.625350 25:0.130040 26:0.914539 27:1.582610 28:-0.706432 29:0.499287 30:-1.162880 31:-0.704250 32:-2.020299 33:-1.316087 34:-1.133965 35:-0.522688
-1 1:-2.268158 2:0.304588 3:-1.585844 4:0.071231 5:0.564253 6:1.739155 7:0.890941 8:0.331260 9:0.802807 10:0.787891 11:-0.081431 12:-0.322772 13:0.762764 14:0.041606 15:0.227599 16:-0.406427 17:1.230680 18:0.763189 19:0.050326 20:-1.015088 21:0.364852 22:-1.161921 23:1.082255 24:-0.214156 25:0.132750 26:0.811423 27:-1.814048 28:0.688456 29:-0.768696 30:0.595682 31:-0.313244 32:0.450844 33:0.941257 34:0.327977 35:-0.710937
-1 1:-0.729571 2:0.910574 3:1.979259 4:-1.286641 5:1.158081 6:1.039729 7:-2.050664 8:1.935204 9:-0.010167 10:0.349223 11:-1.419219 12:0.297441 13:-0.431604 14:0.385552 15:0.131018 16:-0.966408 17:-0.450729 18:-0.886868 19:-0.322828 20:-1.574668 21:0.346600 22:-0.760690 23:2.167321 24:-0.470404 25:0.733561 26:-1.362090 27:-0.451264 28:0.218450 29:1.626612 30:-1.789446 31:-0.295380 32:-0.386875 33:1.133344 34:-1.399159 35:0.230392
-1 1:-2.288398 2:-0.710032 3:-0.594447 4:0.360546 5:-0.436436 6:-0.229192 7:0.683261 8:-1.100078 9:-2.142638 10:0.646903 11:0.847875 12:0.537425 13:0.588695 14:0.258705 15:1.499663 16:0.246062 17:0.190294 18:-0.917836 19:-0.377591 20:0.068176 21:-0.362043 22:1.022028 23:-0.455405 24:-0.118490 25:-0.144793 26:-1.544572 27:0.168323 28:0.798232 29:1.288114 30:0.162394 31:0.661923 32:1.308661 33:-0.118744 34:0.656169 35:-0.243235
-1 1:-0.336868 2:2.147980 3:1.009521 4:-0.711167 5:1.050712 6:-1.106951 7:1.038594 8:-0.293693 9:0.282521 10:0.378742 11:1.743941 12:1.097456 13:0.036242 14:0.302805 15:0.046331 16:-2.711367 17:-1.499800 18:1.556397 19:-1.602275 20:1.155817 21:-0.213445 22:-1.527820 23:0.601502 24:-0.043075 25:-0.363221 26:0.648215 27:-0.006016 28:-1.463597 29:0.108072 30:-1.468708 31:0.270522 32:2.396639 33:-0.245601 34:0.842495 35:0.332933
-1 1:0.547686 2:-1.253687 3:-0.545670 4:0.077562 5:0.568140 6:-0.638722 7:0.735189 8:0.849232 9:0.878574 10:-0.214552 11:0.226971 12:0.602540 13:1.838565 14:-0.150743 15:-1.042943 16:-0.564886 17:-1.296535 18:0.128407 19:1.016198 20:1.062034 21:0.475708 22:0.208802 23:0.222207 24:1.577931 25:1.040221 26:-0.435794 27:-0.202369 28:0.287297 29:0.308683 30:0.284457 31:-0.407395 32:-0.049468 33:0.892180 34:0.840130 35:1.783837
-1 1:-2.273547 2:-0.646722 3:-1.090100 4:-0.372936 5:1.640981 6:0.871261 7:1.266109 8:-0.501336 9:-1.192669 10:1.144892 11:1.314918 12:1.524897 13:1.400194 14:0.091681 15:0.623347 16:1.114747 17:0.507876 18:-0.932174 19:-1.684436 20:-0.761323 21:-0.089762 22:-1.863900 23:-0.598937 24:-1.289176 25:0.963886 26:2.410240 27:-1.978121 28:0.777990 29:-0.592980 30:1.415196 31:-0.532778 32:-0.589779 33:0.154073 34:-0.736158 35:-0.109644
-1 1:-0.288049 2:2.300877 3:0.967060 4:0.637737 5:1.319907 6:-1.201979 7:-1.634922 8:2.209997 9:-0.402932 10:-0.472550 11:-0.529947 12:-1.270239 13:-0.010535 14:3.310477 15:-0.036141 16:0.726623 17:-0.416479 18:0.330765 19:0.323764 20:0.257386 21:1.180887 22:-1.103090 23:1.072222 24:1.222368 25:0.776264 26:0.773829 27:1.512611 28:1.287555 29:-1.092784 30:0.380306 31:-0.543963 32:0.377326 33:0.672859 34:-1.074644 35:-1.191736
-1 1:-0.305601 2:-0.271265 3:-0.741835 4:1.010066 5:-1.465769 6:-0.345592 7:-0.002823 8:-1.013431 9:0.834571 10:0.310642 11:1.050710 12:0.318807 13:1.306643 14:-0.342393 15:2.635176 16:1.288028 17:0.064762 18:-0.538133 19:-1.614862 20:-0.919879 21:-1.135118 22:-0.140764 23:0.343953 24:-0.676388 25:-0.647814 26:-1.957564 27:-0.374626 28:-0.179288 29:0.200085 30:-0.874763 31:1.671807 32:-0.368080 33:-0.482182 34:-0.777807 35:0.466534
-1 1:0.406813 2:0.424074 3:1.213710 4:-0.689945 5:0.449725 6:-0.788884 7:0.336489 8:-0.672476 9:-0.340587 10:-0.497099 11:1.844456 12:0.638893 13:1.488665 14:0.503086 15:-0.436768 16:-1.133146 17:-0.480741 18:-0.670328 19:-1.151000 20:-0.369279 21:0.359531 22:0.984638 23:-0.377286 24:0.045802 25:0.095904 26:-0.243442 27:-1.697165 28:0.635439 29:-0.546919 30:1.892545 31:-0.041626 32:1.069888 33:-1.181852 34:-0.239451 35:2.118625
-1 1:0.420619 2:-1.061723 3:1.784255 4:-0.507332 5:0.516525 6:0.478728 7:0.446754 8:-0.826819 9:-1.482000 10:-0.054513 11:-0.458422 12:1.610930 13:1.242518 14:0.025899 15:0.343822 16:-0.417857 17:-1.073759 18:-0.274378 19:-2.556162 20:0.444383 21:-0.949767 22:0.205510 23:0.344338 24:-0.207883 25:0.953613 26:0.011954 27:-0.849762 28:-0.988670 29:1.439040 30:-1.131565 31:0.041443 32:0.206436 33:1.669352 34:-2.601842 35:1.134286
-1 1:-0.216184 2:-1.166661 3:1.918705 4:-0.603755 5:-0.830815 6:0.276315 7:-1.297087 8:-1.195214 9:0.341668 10:0.330491 11:-0.763391 12:0.625190 13:0.588887 14:2.337456 15:0.087028 16:-0.811900 17:0.377903 18:-0.792227 19:-0.147135 20:0.322659 21:-0.655289 22:0.586218 23:1.135195 24:1.698717 25:-0.554282 26:1.440365 27:0.242851 28:-1.194512 29:-0.691456 30:-0.840047 31:0.941032 32:0.745629 33:0.201840 34:1.939949 35:-0.457989
-1 1:0.389480 2:-0.309233 3:0.622710 4:1.499994 5:2.095438 6:0.780257 7:-0.715596 8:-0.702862 9:0.940695 10:2.030070 11:-0.443606 12:-0.248105 13:-0.193613 14:0.234992 15:0.494872 16:-0.669627 17:0.833093 18:0.930739 19:1.695338 20:-0.229738 21:0.504857 22:1.041826 23:0.432326 24:-0.171118 25:0.779519 26:-1.967325 27:-0.893438 28:0.396439 29:-0.130358 30:0.652924 31:1.031313 32:-2.214408 33:0.300668 34:-1.249180 35:1.678765
-1 1:0.670444 2:-1.096782 3:-2.482059 4:-0.946116 5:-0.824363 6:1.460794 7:-0.166877 8:-0.094321 9:-0.390017 10:-0.702578 11:0.693781 12:0.340788 13:0.296887 14:-0.661593 15:2.698051 16:-0.658370 17:-1.207856 18:-0.045265 19:-0.056523 20:-1.576114 21:0.386410 22:-0.730002 23:-0.493705 24:1.152705 25:-1.640765 26:-1.266764 27:-0.502977 28:0.288187 29:0.272337 30:-0.721642 31:-2.275205 32:-1.012040 33:0.089933 34:0.302853 35:0.829974
-1 1:-0.349938 2:2.617789 3:-1.496790 4:-0.239789 5:0.247415 6:-1.268120 7:0.262656 8:0.007888 9:0.032232 10:1.706452 11:0.808040 12:0.007585 13:-1.137742 14:0.477290 15:-0.047232 16:0.356278 17:-0.451596 18:0.641456 19:1.067935 20:0.730800 21:0.339932 22:0.397393 23:-0.847317 24:-0.066498 25:-0.752174 26:0.533084 27:-0.776811 28:-0.643438 29:-1.241643 30:0.253060 31:0.194520 32:1.523061 33:-1.848182 34:-0.623397 35:-0.300537
-1 1:0.398344 2:-1.302106 3:-1.614065 4:1.125965 5:-0.048007 6:1.506063 7:-2.079625 8:-1.109720 9:1.347458 10:-2.026946 11:0.402717 12:-1.054157 13:-0.659391 14:0.318132 15:-0.678887 16:0.245544 17:-1.231358 18:0.289339 19:-2.382687 20:0.741217 21:1.243185 22:1.169091 23:0.112238 24:-0.467767 25:0.808893 26:0.540179 27:-1.946437 28:-0.835941 29:0.313148 30:0.170667 31:-0.212867 32:0.265900 33:-0.280413 34:-0.807220 35:-0.540035
-1 1:-0.486324 2:-1.044769 3:0.028771 4:0.620995 5:-0.154847 6:0.353186 7:1.348704 8:-0.506967 9:0.589148 10:1.518733 11:0.923697 12:0.029204 13:-0.721757 14:-0.250641 15:-1.799356 16:0.310486 17:-0.620220 18:-0.460796 19:-0.611127 20:0.220832 21:1.191396 22:-0.042517 23:0.307610 24:0.642712 25:1.639817 26:-0.972097 27:-0.779079 28:-0.515351 29:1.437874 30:-1.284265 31:-0.719966 32:1.195132 33:0.263630 34:-0.273639 35:-1.118813
-1 1:1.336241 2:0.111263 3:-1.705275 4:1.270330 5:-0.343497 6:-0.721306 7:-0.630529 8:1.151760 9:-0.673543 10:-0.312351 11:-1.109852 12:0.666894 13:0.887113 14:0.277936 15:-1.472523 16:-1.370360 17:-0.136920 18:-0.387825 19:-0.190520 20:0.516254 21:0.578962 22:0.207640 23:0.186201 24:-1.004263 25:0.045126 26:-0.006567 27:1.397269 28:-0.631288 29:0.483025 30:-0.045131 31:0.547920 32:-0.377398 33:-0.533571 34:-1.249615 35:-0.549971
-1 1:-0.905639 2:-1.251114 3:0.752303 4:-0.571352 5:0.773492 6:-0.476626 7:0.149419 8:0.239734 9:-0.686350 10:0.535756 11:-0.070517 12:-0.319241 13:0.319876 14:2.088618 15:-0.159398 16:-0.340230 17:-0.878556 18:1.511737 19:-0.205011 20:-0.175139 21:0.478506 22:0.121412 23:-0.475755 24:0.830384 25:0.328558 26:-0.353650 27:-1.459342 28:-0.548855 29:0.294267 30:-1.074641 31:-1.383620 32:-0.352574 33:-0.032961 34:-0.620709 35:0.408369
-1 1:0.645566 2:-1.209047 3:-1.510457 4:1.885053 5:1.103453 6:-1.415826 7:0.495819 8:1.413660 9:0.854752 10:-0.561343 11:-0.234336 12:2.151213 13:0.203126 14:0.503891 15:0.557194 16:0.209393 17:-0.064253 18:0.558306 19:-1.372457 20:-0.496310 21:1.252452 22:0.959974 23:0.085571 24:0.498080 25:-0.135215 26:-0.788453 27:0.213487 28:-0.124352 29:0.751267 30:1.433961 31:0.148174 32:0.007271 33:-0.470722 34:0.119911 35:0.154950
-1 1:0.037480 2:0.505999 3:-0.323893 4:-1.191670 5:0.580031 6:0.203403 7:0.604298 8:-0.746434 9:1.332670 10:0.132326 11:1.484171 12:-0.873054 13:-2.768377 14:0.239152 15:-1.030076 16:0.075671 17:0.569057 18:0.040707 19:-2.010712 20:1.407418 21:0.531248 22:-1.007214 23:0.254255 24:-1.908045 25:-1.212899 26:-1.461680 27:-0.885821 28:-2.052062 29:0.479847 30:1.235071 31:-0.527119 32:0.006965 33:-1.884439 34:-0.627459 35:0.172517
-1 1:-0.249952 2:0.722560 3:1.539949 4:1.894202 5:-0.136977 6:-0.492205 7:2.319863 8:0.981844 9:-0.402987 10:0.808136 11:-0.746159 12:-0.242282 13:-0.331803 14:-0.232218 15:0.818589 16:-0.608063 17:-1.115976 18:0.519197 19:0.952983 20:-0.257970 21:-0.068572 22:-0.223405 23:-0.478513 24:2.434432 25:-1.006688 26:-1.325036 27:0.576012 28:0.381619 29:-0.249832 30:-2.047988 31:0.388781 32:0.270512 33:-0.828353 34:1.638944 35:0.737082
-1 1:0.692685 2:-0.572804 3:-2.426658 4:-0.368509 5:1.248450 6:0.302976 7:-0.260885 8:1.127888 9:-1.366184 10:-0.576745 11:-1.423205 12:-0.548478 13:-0.717558 14:0.282756 15:-0.490374 16:0.627165 17:-0.564367 18:-0.224016 19:-0.392724 20:0.997658 21:0.099576 22:1.166282 23:-0.056919 24:2.153607 25:1.016710 26:0.402992 27:0.538317 28:0.860877 29:-0.789500 30:-0.674427 31:-0.287829 32:1.943945 33:-0.765310 34:-0.477111 35:-0.963378
-1 1:0.607518 2:-1.029463 3:-0.020860 4:2.060661 5:-0.360282 6:-0.701194 7:0.812160 8:1.445637 9:-0.893059 10:0.531139 11:-1.829242 12:0.173888 13:-0.426820 14:-0.557612 15:-0.085947 16:-1.450030 17:-0.188912 18:-1.172755 19:0.321899 20:0.124059 21:-1.500381 22:0.346602 23:-1.569378 24:-1.292069 25:0.099993 26:-0.085351 27:0.446910 28:0.659331 29:-0.694670 30:-0.072798 31:0.369863 32:2.926015 33:-1.647136 34:-1.407653 35:0.726641
-1 1:-2.913677 2:2.801708 3:-0.952245 4:0.449247 5:-0.426314 6:2.203238 7:0.829205 8:-0.057548 9:0.511280 10:-0.791501 11:-0.819482 12:-0.346182 13:-1.374821 14:0.018974 15:0.570144 16:-0.979707 17:-0.785877 18:-1.044960 19:0.481581 20:-0.184757 21:1.549872 22:0.929722 23:0.393085 24:-2.102464 25:-1.183154 26:-1.001945 27:-1.267035 28:0.029630 29:0.405221 30:0.265455 31:-1.135428 32:0.160023 33:0.233422 34:-0.195240 35:-2.550819
-1 1:0.309199 2:1.410005 3:1.846538 4:1.130512 5:0.528003 6:-0.751955 7:-0.603907 8:-0.807062 9:0.955025 10:0.238336 11:0.296661 12:0.055744 13:0.651841 14:0.571364 15:-0.000799 16:-0.824922 17:-0.067085 18:0.381611 19:0.711045 20:0.232051 21:-0.793953 22:0.444367 23:-0.602960 24:-1.633670 25:-1.153344 26:-2.305814 27:1.217770 28:0.587923 29:-0.406019 30:0.431903 31:0.522895 32:-0.355165 33:0.854625 34:-3.103867 35:0.272164
-1 1:-0.867748 2:-0.207863 3:0.903193 4:-0.304557 5:0.116032 6:-0.684321 7:0.386521 8:1.276073 9:0.644178 10:0.409193 11:-2.625331 12:0.158447 13:0.369553 14:-1.390782 15:0.495349 16:0.452856 17:1.116916 18:-1.749744 19:0.364653 20:-1.046025 21:-1.672093 22:2.211809 23:-0.444300 24:0.344712 25:-0.126714 26:1.654319 27:-0.982268 28:-0.132045 29:2.005177 30:-2.503777 31:0.943081 32:-0.175423 33:1.400737 34:-0.934407 35:-0.519822
-1 1:-0.292311 2:-0.550920 3:-0.970603 4:0.276547 5:-0.568062 6:0.064986 7:0.889349 8:0.677157 9:0.122091 10:1.477439 11:1.145517 12:-0.406489 13:0.178832 14:-0.387271 15:0.248277 16:-0.796896 17:0.099526 18:0.790744 19:-0.279573 20:0.428171 21:0.682604 22:3.598690 23:-1.441471 24:-0.301731 25:-0.561131 26:-1.616362 27:0.497929 28:0.654059 29:0.570885 30:-1.390849 31:-0.284778 32:-0.263640 33:1.282769 34:-1.276382 35:2.665041
-1 1:1.172026 2:-0.074637 3:0.568341 4:-0.286417 5:-0.767027 6:0.367646 7:-1.412928 8:-0.048034 9:-0.425815 10:0.575745 11:0.699984 12:0.222579 13:-0.443506 14:0.989865 15:0.681080 16:0.743297 17:-0.474037 18:0.399951 19:-1.638506 20:0.167491 21:-0.501566 22:1.778771 23:-0.224558 24:1.996854 25:-0.539762 26:-0.071856 27:0.849659 28:0.753624 29:0.950128 30:-1.092875 31:-0.141179 32:0.390397 33:1.840771 34:-0.272137 35:-0.162015
-1 1:-1.475297 2:0.295468 3:-0.934497 4:-0.322046 5:-0.984315 6:1.681451 7:-0.206867 8:0.501391 9:-2.312738 10:-0.617035 11:-0.037181 12:0.527061 13:0.478606 14:2.496082 15:2.242511 16:-1.132534 17:0.848454 18:-0.665738 19:0.049697 20:-1.356095 21:0.612773 22:-1.442693 23:0.682513 24:-0.098965 25:2.663136 26:-0.408967 27:-2.429355 28:0.356648 29:0.041937 30:-1.612598 31:-0.103096 32:-0.865022 33:0.919394 34:-0.025856 35:-0.757986
-1 1:1.149616 2:0.983134 3:0.031178 4:0.635670 5:-2.075953 6:-1.705255 7:0.898515 8:1.682417 9:-0.794722 10:-0.305168 11:-1.130059 12:-0.388107 13:0.982447 14:-1.295009 15:-0.944772 16:-1.754296 17:-1.854693 18:-1.258697 19:0.873760 20:1.176184 21:-2.004724 22:-1.072304 23:-0.292379 24:-0.373095 25:-1.453437 26:1.172524 27:0.546313 28:0.839331 29:2.071189 30:0.689666 31:0.493704 32:1.013697 33:1.610356 34:0.741106 35:-1.011783
-1 1:-1.043457 2:-0.982790 3:-0.716807 4:0.121975 5:-0.884441 6:0.243375 7:0.049328 8:-2.274461 9:-1.034777 10:-0.832985 11:-2.512915 12:0.322452 13:-0.123033 14:0.545936 15:0.916596 16:-0.903333 17:-0.469888 18:0.517931 19:-0.015734 20:0.717967 21:-0.631636 22:-1.218736 23:0.716590 24:0.879591 25:-0.031476 26:0.007441 27:0.238834 28:1.435192 29:-0.570839 30:-2.316406 31:0.255665 32:-0.871767 33:-0.441453 34:-1.352615 35:0.973234
-1 1:-1.030383 2:-0.942323 3:1.035661 4:-0.428524 5:1.349130 6:-0.018653 7:1.138399 8:-0.669468 9:-1.008318 10:0.905883 11:-0.861405 12:1.864946 13:-0.916596 14:2.533182 15:0.682921 16:-0.420595 17:0.546457 18:0.497201 19:0.580903 20:0.099357 21:0.405703 22:1.603449 23:-1.437183 24:0.186745 25:-0.983330 26:-0.661138 27:-0.670424 28:1.802137 29:0.196009 30:1.265287 31:-2.430286 32:-0.317857 33:2.346071 34:0.043067 35:-1.143286
-1 1:-0.722066 2:0.659056 3:-0.934528 4:0.989576 5:-0.044493 6:-1.615074 7:0.015416 8:1.531540 9:1.354213 10:-0.966900 11:-1.285825 12:0.898048 13:-1.275327 14:0.508113 15:0.173042 16:2.378398 17:-1.305509 18:0.050546 19:0.012578 20:-0.908324 21:0.213420 22:-1.271876 23:-1.363974 24:0.524063 25:1.071223 26:-1.214700 27:-1.179578 28:-0.258204 29:0.984176 30:0.658521 31:1.251295 32:1.426528 33:1.356415 34:0.579291 35:1.558002
-1 1:0.304194 2:0.800285 3:-0.661864 4:2.016386 5:0.464131 6:0.289343 7:1.049572 8:-0.863839 9:1.624754 10:-0.333447 11:1.552603 12:-0.599514 13:0.432060 14:-0.920547 15:0.011117 16:1.065829 17:-0.344584 18:-0.689108 19:0.593812 20:-0.023530 21:1.748665 22:-0.873739 23:-0.469278 24:-0.479538 25:0.576246 26:-1.246119 27:0.729136 28:0.426498 29:-0.043138 30:-0.104809 31:1.042617 32:1.637608 33:0.513382 34:0.906638 35:0.548150
-1 1:0.972563 2:-0.577772 3:0.733753 4:-0.200976 5:-0.845085 6:-0.955393 7:1.050463 8:-0.868392 9:-0.206333 10:-0.845355 11:-0.199875 12:-0.361717 13:2.116165 14:-0.196313 15:-0.861006 16:0.770504 17:-0.340284 18:0.422084 19:-0.727304 20:0.892860 21:-0.615767 22:1.410075 23:-1.615195 24:1.384563 25:1.581257 26:1.962456 27:0.621421 28:-2.785955 29:-0.650105 30:3.391690 31:0.986816 32:-0.679195 33:-0.797057 34:0.137354 35:-2.042776
-1 1:0.544874 2:-0.449812 3:0.468763 4:-0.906804 5:0.390233 6:-0.458349 7:-0.808426 8:-0.419981 9:-0.542792 10:0.159754 11:-1.114819 12:0.801362 13:-0.758435 14:-0.165643 15:0.015771 16:-1.734557 17:-1.819013 18:-0.379984 19:1.393919 20:0.297598 21:-0.674347 22:1.094069 23:-0.122119 24:-0.421976 25:-0.913567 26:-0.610544 27:0.596784 28:0.127997 29:1.189878 30:-1.004418 31:-0.996952 32:-0.438093 33:-2.351412 34:-0.947979 35:-2.019472
-1 1:-0.701526 2:2.060893 3:1.878078 4:-0.483175 5:-0.401384 6:1.537925 7:1.357827 8:-0.427343 9:1.591220 10:1.613358 11:-0.173164 12:-1.754673 13:-2.301303 14:-0.211722 15:-1.406257 16:0.051272 17:1.368095 18:0.590717 19:-0.637079 20:-1.141590 21:0.694820 22:-0.987728 23:-0.345305 24:-0.043634 25:-0.785668 26:0.642698 27:0.681681 28:-1.147496 29:-1.298136 30:0.206292 31:-0.635316 32:0.506472 33:0.625836 34:-1.562502 35:-0.673906
-1 1:-1.422268 2:-0.592419 3:0.258932 4:0.700936 5:0.386617 6:-0.609352 7:0.799305 8:-0.085270 9:-1.427868 10:-1.330638 11:-0.918159 12:-2.013450 13:0.812753 14:1.893961 15:-1.367571 16:-0.899052 17:0.195769 18:-1.697221 19:-1.049462 20:-1.074948 21:-0.399223 22:-1.706076 23:-1.234746 24:0.342657 25:1.686611 26:0.048413 27:-1.218286 28:0.226484 29:0.205064 30:-0.209770 31:0.210663 32:-1.087014 33:-0.063041 34:0.425186 35:0.599064
-1 1:-0.138147 2:0.502665 3:0.865840 4:-0.034073 5:-1.368527 6:0.372532 7:0.682080 8:-0.703042 9:-0.599208 10:-3.548293 11:-0.273238 12:-0.517293 13:-1.189437 14:0.474570 15:0.431068 16:-1.081695 17:0.609417 18:0.741384 19:-0.075828 20:-0.075660 21:-1.103482 22:0.579488 23:-0.348842 24:-1.940406 25:-0.552269 26:-1.836594 27:-1.039215 28:-0.124859 29:-1.202831 30:-1.774646 31:0.219931 32:0.326134 33:-0.138091 34:0.939745 35:-0.129438
-1 1:0.122895 2:0.352021 3:-0.464417 4:-1.286337 5:-0.938990 6:-2.096879 7:0.346745 8:0.546788 9:0.916760 10:-1.303081 11:1.078739 12:-0.373431 13:1.789148 14:-0.335597 15:0.322712 16:0.419246 17:-0.940351 18:-1.241413 19:0.342532 20:-0.873483 21:0.177630 22:0.644644 23:-0.401583 24:-1.692502 25:1.033322 26:0.730941 27:0.595579 28:1.588599 29:0.280655 30:0.785143 31:-1.024756 32:-0.179366 33:0.692846 34:0.788896 35:-1.194749
-1 1:1.392177 2:0.719391 3:-0.184171 4:0.131833 5:0.602923 6:-0.511642 7:-1.585197 8:-0.571315 9:-1.976759 10:1.012892 11:-1.624079 12:1.651787 13:-0.002243 14:-1.861419 15:-0.142714 16:-0.604756 17:-0.677072 18:1.408955 19:-0.556434 20:0.685165 21:-0.704276 22:0.249228 23:-0.103801 24:1.697113 25:0.872846 26:-0.134699 27:1.727441 28:0.037804 29:-0.802338 30:1.558445 31:2.303074 32:0.467831 33:-1.162422 34:0.113513 35:-0.252418
-1 1:1.737479 2:3.294900 3:-1.185523 4:0.110142 5:1.140754 6:0.219289 7:0.266405 8:0.253815 9:-0.364793 10:0.067894 11:-0.117219 12:0.746393 13:0.788788 14:-0.209603 15:0.374986 16:2.003734 17:-0.324879 18:-0.884626 19:-1.742411 20:0.803333 21:-0.772672 22:0.093261 23:0.848187 24:-1.618435 25:0.860435 26:-0.319840 27:1.554252 28:-0.620752 29:0.923914 30:-0.895284 31:-0.841713 32:1.277465 33:-0.043257 34:-0.058736 35:-0.210539
-1 1:-0.390005 2:1.126862 3:-0.508523 4:0.237335 5:-0.209724 6:-0.426885 7:-0.855128 8:0.624723 9:-0.795591 10:1.635057 11:0.809056 12:0.644629 13:0.003586 14:0.222706 15:0.475366 16:0.452561 17:0.328628 18:-0.788558 19:-1.135352 20:0.480311 21:-0.900883 22:-1.005796 23:-1.245134 24:0.593096 25:0.495176 26:-0.705389 27:-1.034435 28:0.128006 29:0.029244 30:0.029982 31:1.570496 32:0.979209 33:-0.335409 34:0.103442 35:1.200724
-1 1:1.052891 2:-0.330122 3:-0.408890 4:0.531798 5:-2.482755 6:-0.730436 7:-0.463701 8:0.742967 9:-0.689503 10:-2.039009 11:0.253896 12:-0.327773 13:1.610321 14:-1.570836 15:-0.188525 16:1.080065 17:0.657543 18:-0.694630 19:-1.014584 20:-1.268030 21:-0.612993 22:-0.487981 23:-1.977978 24:0.131577 25:0.774898 26:0.915844 27:-0.308030 28:0.963065 29:-1.080627 30:0.404243 31:-0.243048 32:0.680597 33:-1.465068 34:-0.109014 35:1.112145
-1 1:1.063202 2:0.153189 3:-1.015659 4:-0.869135 5:0.649208 6:0.346992 7:-0.468687 8:-1.125086 9:1.188825 10:-0.690461 11:0.045123 12:0.321069 13:0.086702 14:0.297731 15:0.587882 16:0.168164 17:0.604119 18:0.040875 19:-0.660319 20:-0.557676 21:0.503229 22:0.246641 23:-0.450809 24:0.747658 25:-0.365269 26:-0.631563 27:0.255679 28:-0.998548 29:-2.199020 30:-0.521864 31:-3.248923 32:-0.459271 33:-0.605746 34:0.139342 35:-0.446762
-1 1:-1.054963 2:0.214630 3:0.503037 4:-0.531322 5:0.682063 6:0.115767 7:-0.558856 8:-0.338650 9:-1.122285 10:-0.194268 11:-0.624337 12:-0.839819 13:-0.571956 14:0.744917 15:0.406777 16:-1.642778 17:-0.888953 18:-0.988534 19:-1.420216 20:0.745451 21:1.334182 22:1.416307 23:0.106910 24:1.416044 25:-1.332551 26:0.875328 27:-1.061506 28:0.612222 29:0.630813 30:0.554436 31:0.710672 32:1.076563 33:1.483935 34:0.226115 35:-0.943450
-1 1:-1.782236 2:-1.782083 3:-0.247646 4:-0.062611 5:0.849138 6:-1.475800 7:-0.029979 8:0.227798 9:1.096870 10:0.034926 11:-1.479852 12:-1.215650 13:0.053583 14:-0.188164 15:1.253955 16:0.933441 17:-2.177035 18:0.957371 19:0.220982 20:-0.104507 21:-0.036743 22:-0.437191 23:0.158939 24:0.359651 25:-1.739753 26:-0.431415 27:1.410823 28:-2.189782 29:-0.078860 30:-0.306469 31:-0.781681 32:-0.413593 33:0.994591 34:1.216090 35:-1.394100
-1 1:1.636421 2:0.377924 3:-0.855616 4:-1.396879 5:0.738363 6:0.815046 7:0.512249 8:0.231312 9:-0.032581 10:-2.758831 11:-0.144954 12:-0.460113 13:1.462912 14:-0.057900 15:1.040817 16:-0.796502 17:0.127119 18:-1.152530 19:-0.104990 20:-0.133753 21:-0.480917 22:-1.038531 23:0.704635 24:0.077054 25:0.080295 26:-0.113665 27:-0.924432 28:0.755017 29:-0.504064 30:-0.755053 31:-0.611128 32:0.348596 33:-0.946697 34:-1.714961 35:-0.287497
-1 1:-0.424138 2:-0.391104 3:0.541676 4:-1.335778 5:0.301347 6:-1.276972 7:-0.460022 8:0.604504 9:-0.763463 10:-0.983283 11:0.893643 12:0.051908 13:0.385040 14:0.427566 15:-0.251865 16:0.327299 17:-0.889883 18:-0.727150 19:-0.004980 20:-0.285264 21:0.125073 22:-0.211445 23:-1.730650 24:0.814945 25:0.070440 26:-1.417080 27:-1.099610 28:0.798108 29:-1.210143 30:-0.896036 31:-0.577850 32:-0.334495 33:1.392378 34:-1.169848 35:-0.214590
-1 1:1.719080 2:-0.601418 3:0.758439 4:-0.007622 5:-0.204048 6:-0.752302 7:-0.206803 8:-0.261007 9:2.067590 10:-0.961407 11:-0.469964 12:0.114476 13:-1.159979 14:-0.181757 15:0.358436 16:1.696425 17:-0.676320 18:-0.170687 19:-0.585592 20:1.607409 21:-0.997649 22:0.951131 23:1.158890 24:1.335199 25:-1.845199 26:-0.156041 27:0.776674 28:0.052246 29:-0.598736 30:0.971358 31:0.246949 32:-0.130351 33:2.298564 34:1.082632 35:0.339307
-1 1:0.489140 2:1.098534 3:0.567993 4:0.365044 5:-0.859527 6:1.309865 7:1.849979 8:-1.463444 9:0.274896 10:-0.759630 11:0.872890 12:-0.582486 13:0.646666 14:-0.315586 15:-0.430430 16:-1.144433 17:-0.730406 18:0.276529 19:-1.124769 20:0.161425 21:1.993636 22:0.749186 23:0.624756 24:-0.145593 25:-1.239718 26:1.272446 27:-0.978251 28:-1.297720 29:1.948202 30:-1.002295 31:0.257477 32:0.404767 33:0.819168 34:0.521487 35:-1.256882
-1 1:0.409252 2:-2.173644 3:1.739558 4:1.337912 5:0.780656 6:-0.778098 7:-0.268212 8:1.314962 9:-0.382581 10:-1.636107 11:-0.345757 12:0.578131 13:-0.407651 14:-0.821781 15:1.493097 16:0.155952 17:0.698232 18:-1.214522 19:-0.274716 20:-0.018113 21:0.590259 22:1.473580 23:-0.297654 24:1.286031 25:-1.371754 26:0.871958 27:-0.927460 28:-1.321749 29:1.355164 30:1.896148 31:-1.038813 32:-0.421972 33:-0.629336 34:-0.264747 35:-1.287813
-1 1:0.712804 2:0.852406 3:-0.938724 4:1.035076 5:1.215568 6:-0.658393 7:1.268950 8:0.992610 9:-0.753397 10:-0.725703 11:0.212127 12:-1.390874 13:-0.398373 14:-1.183941 15:-0.921384 16:0.398521 17:-1.499962 18:1.024103 19:2.934029 20:-0.093342 21:-0.585663 22:-1.102237 23:-0.034744 24:-0.883485 25:0.369830 26:0.558992 27:1.363275 28:-0.192321 29:-1.093102 30:0.737800 31:2.063629 32:3.337033 33:0.430550 34:1.687374 35:-0.401956
-1 1:0.107244 2:-0.143098 3:1.376232 4:-0.036356 5:0.459007 6:0.631196 7:0.202573 8:0.529402 9:-1.362078 10:-0.767382 11:0.413969 12:1.260590 13:0.974824 14:1.065143 15:-2.418719 16:0.407801 17:0.309048 18:-1.684495 19:0.008776 20:-2.581519 21:-1.277630 22:-0.355629 23:-0.729964 24:1.070368 25:-0.604374 26:1.234887 27:0.134470 28:0.253891 29:0.918136 30:-0.736262 31:-0.728520 32:-1.727946 33:1.364004 34:1.435309 35:0.754998
-1 1:-1.164724 2:-0.961685 3:-0.801639 4:-0.409113 5:-0.425230 6:-0.930841 7:-0.814415 8:-0.115525 9:-1.458487 10:-0.168145 11:0.932819 12:1.663324 13:-0.310463 14:1.225131 15:-1.282205 16:0.045824 17:0.317879 18:0.189582 19:0.088453 20:-0.402093 21:-0.481254 22:-0.524662 23:1.746727 24:0.688362 25:1.448705 26:-0.585454 27:0.164048 28:-0.956320 29:1.292051 30:-1.085932 31:1.147378 32:0.951033 33:-0.539922 34:1.025172 35:-0.487636
-1 1:0.187231 2:-0.572388 3:-0.132545 4:1.301310 5:-0.299292 6:2.862350 7:0.766235 8:-0.547418 9:0.895368 10:-0.028368 11:-0.305091 12:-2.195726 13:0.717121 14:-0.537816 15:-0.060853 16:2.016682 17:0.341374 18:-1.291008 19:0.228683 20:-0.539009 21:0.220362 22:0.169673 23:-1.023579 24:1.654478 25:-0.787435 26:-1.818721 27:0.249423 28:-0.826955 29:-0.991206 30:1.280636 31:0.279749 32:-0.043308 33:-2.090122 34:0.271589 35:1.014050
-1 1:0.399505 2:0.449823 3:1.975963 4:-0.514025 5:0.739574 6:-1.188278 7:0.859210 8:-0.774217 9:1.607325 10:-0.651829 11:-0.480994 12:1.660581 13:0.174178 14:-1.950196 15:-1.948477 16:1.428649 17:-1.205743 18:-0.706586 19:0.954157 20:-1.016968 21:-0.098939 22:-0.143808 23:0.450876 24:-1.153495 25:0.436170 26:-0.552069 27:-2.371277 28:-0.672950 29:-0.286508 30:1.591758 31:-0.437084 32:-0.530649 33:-1.076832 34:1.164254 35:0.789855
-1 1:0.073439 2:-0.497740 3:-1.519458 4:1.933951 5:-1.344373 6:-0.885608 7:-1.329226 8:1.327291 9:-0.785357 10:-0.767948 11:-2.192277 12:0.372854 13:-0.070933 14:-1.121209 15:-0.004647 16:-0.739129 17:0.692783 18:-0.417382 19:0.954644 20:1.303042 21:-0.735798 22:-1.014766 23:1.663876 24:1.613845 25:-1.850624 26:-1.328814 27:-0.131784 28:-0.036613 29:1.226961 30:1.263114 31:0.085968 32:-1.572362 33:-0.505483 34:0.694202 35:1.593595
-1 1:0.754662 2:1.429156 3:0.803686 4:-0.812011 5:-0.016468 6:0.792362 7:0.733331 8:1.071466 9:1.731741 10:0.887380 11:-1.058776 12:-0.590990 13:-0.574554 14:-1.454837 15:-0.270543 16:0.967194 17:-0.238448 18:0.067652 19:0.376667 20:0.541689 21:0.329858 22:-0.661545 23:-0.636387 24:-0.481944 25:1.029855 26:-0.440901 27:-0.901166 28:-2.339527 29:0.554469 30:-0.806575 31:-0.668003 32:-0.860858 33:1.722834 34:0.445621 35:0.221322
-1 1:1.272822 2:-0.225281 3:1.441851 4:-0.277847 5:1.298213 6:1.864970 7:0.202939 8:-0.237741 9:-0.339499 10:-0.263493 11:0.763545 12:-0.261840 13:-0.463928 14:-1.090907 15:-0.563629 16:-0.259361 17:-0.054792 18:0.090604 19:-0.146612 20:-1.645094 21:-0.721101 22:0.231793 23:0.116867 24:0.894015 25:-0.065752 26:1.084113 27:1.271370 28:-1.001162 29:0.609892 30:-0.177113 31:-0.236293 32:-0.497947 33:-0.401561 34:0.912634 35:-0.778493
-1 1:-2.336294 2:-0.534501 3:-0.820498 4:0.451393 5:-1.649945 6:-2.070707 7:-0.590370 8:2.321369 9:0.419129 10:-0.187718 11:-0.182617 12:0.149173 13:-0.900541 14:0.314321 15:2.644138 16:0.453329 17:-0.945898 18:0.250227 19:-0.178392 20:-0.444354 21:1.577070 22:-1.143147 23:1.686089 24:-0.830177 25:0.078456 26:-1.422067 27:-1.168928 28:-0.493113 29:-1.006656 30:-0.285460 31:-1.283667 32:0.165590 33:0.258688 34:0.639438 35:-0.565118
-1 1:0.551508 2:-0.680077 3:0.435460 4:-0.353331 5:-1.031596 6:0.225077 7:-0.034462 8:0.478825 9:-0.141826 10:0.027894 11:0.699253 12:-1.167039 13:-1.502832 14:-0.473666 15:0.135311 16:-0.251848 17:0.664891 18:0.631845 19:-2.312553 20:0.345206 21:-0.116026 22:0.759579 23:-0.727325 24:0.844447 25:0.171696 26:0.314270 27:0.006687 28:-0.019858 29:-2.162230 30:0.062436 31:2.013816 32:-0.248771 33:0.531193 34:1.118701 35:1.282613
1 1:0.294381 2:0.089987 3:0.164237 4:0.243550 5:0.031287 6:-0.062147 7:-0.058092 8:0.000403 9:0.235814 10:-0.057392 11:-0.007787 12:0.031611 13:-0.270476 14:0.001453 15:0.047047 16:-0.091008 17:0.247380 18:-0.416457 19:-0.149773 20:0.077392 21:0.140457 22:0.214975 23:-0.057463 24:0.216592 25:-0.012997 26:-0.042637 27:0.028885 28:0.279883 29:0.139230 30:0.265711 31:-0.242258 32:0.028332 33:0.163595 34:-0.083180 35:-0.153596
1 1:0.109632 2:0.294861 3:-0.104576 4:0.196026 5:-0.257282 6:-0.046258 7:0.012104 8:-0.336951 9:-0.185572 10:0.333595 11:0.036124 12:-0.177655 13:-0.297634 14:-0.008374 15:-0.038732 16:-0.080104 17:0.154072 18:0.095866 19:0.066945 20:0.250249 21:-0.039580 22:0.179174 23:0.001518 24:-0.143513 25:-0.199482 26:0.191292 27:-0.302995 28:-0.006856 29:-0.018284 30:0.093072 31:0.063259 32:-0.006588 33:-0.137246 34:0.132825 35:0.149780
1 1:0.264076 2:0.283846 3:-0.132482 4:0.126735 5:0.113099 6:0.041974 7:0.022078 8:-0.105874 9:-0.152425 10:-0.100159 11:-0.030216 12:0.141870 13:0.099992 14:0.163119 15:0.048405 16:0.198597 17:-0.250425 18:0.107760 19:-0.002598 20:0.182763 21:-0.147664 22:-0.237108 23:0.294533 24:0.062645 25:-0.166330 26:0.287293 27:-0.121548 28:0.080191 29:-0.162868 30:0.132595 31:0.042996 32:-0.200824 33:0.276157 34:-0.245560 35:-0.162628
1 1:-0.047030 2:-0.083385 3:0.082982 4:-0.059765 5:-0.003905 6:-0.061333 7:0.113944 8:-0.201123 9:-0.215969 10:0.124189 11:-0.037684 12:0.107252 13:-0.443451 14:-0.151822 15:-0.083089 16:-0.251515 17:0.033499 18:0.064189 19:0.256961 20:0.132398 21:0.112624 22:-0.076148 23:0.232148 24:0.329275 25:0.186952 26:-0.133544 27:0.087684 28:0.308763 29:-0.201193 30:-0.153025 31:-0.116040 32:0.028031 33:-0.118167 34:0.036265 35:0.198707
1 1:0.053348 2:0.092419 3:-0.107652 4:-0.259039 5:0.092708 6:0.292470 7:0.017006 8:0.068992 9:-0.223440 10:-0.244052 11:0.090738 12:0.020836 13:0.046312 14:0.085273 15:0.058338 16:-0.313116 17:0.117142 18:-0.067673 19:-0.058331 20:0.300192 21:-0.176637 22:0.079600 23:-0.211111 24:-0.027355 25:-0.276743 26:-0.062750 27:-0.081572 28:0.276666 29:-0.247511 30:0.222543 31:-0.120447 32:-0.284718 33:-0.073588 34:-0.015942 35:0.106303
1 1:0.230653 2:0.050721 3:0.011197 4:-0.065341 5:0.040758 6:0.171895 7:0.122365 8:-0.477130 9:0.163065 10:0.227786 11:-0.095542 12:0.227779 13:-0.037181 14:0.103542 15:0.034527 16:-0.199458 17:-0.183403 18:0.048822 19:-0.225258 20:0.084861 21:0.215781 22:0.034797 23:-0.208319 24:-0.154236 25:-0.078938 26:0.096459 27:-0.288953 28:-0.075427 29:0.072255 30:-0.078924 31:0.229356 32:0.144954 33:0.083876 34:0.104391 35:0.238310
1 1:-0.151583 2:0.035590 3:-0.057661 4:-0.190424 5:-0.167124 6:-0.118711 7:-0.262328 8:-0.095544 9:-0.080170 10:-0.158459 11:0.068935 12:0.016219 13:0.057071 14:-0.040008 15:-0.178719 16:0.227525 17:0.248302 18:0.140015 19:-0.015840 20:-0.071907 21:-0.302155 22:-0.306006 23:-0.221919 24:0.152818 25:-0.295600 26:0.000847 27:-0.047868 28:0.121705 29:0.175299 30:-0.320621 31:0.154938 32:-0.073248 33:0.065315 34:0.264685 35:-0.071838
1 1:0.223139 2:-0.025219 3:0.154107 4:0.232653 5:0.129470 6:0.204185 7:0.186434 8:0.036239 9:-0.021444 10:-0.262166 11:0.009352 12:-0.161949 13:-0.119648 14:-0.290236 15:0.072625 16:-0.053385 17:0.086828 18:0.134103 19:-0.270747 20:0.064155 21:0.231240 22:-0.355482 23:-0.114749 24:0.014984 25:0.121120 26:0.204986 27:0.107495 28:-0.170457 29:0.212643 30:-0.048968 31:-0.050528 32:0.101505 33:-0.322547 34:-0.095227 35:0.089103
1 1:-0.126140 2:0.097991 3:0.180391 4:0.239668 5:0.231495 6:0.308027 7:-0.053672 8:0.338692 9:0.124457 10:0.131233 11:-0.184890 12:0.119142 13:0.093993 14:0.025243 15:-0.105857 16:-0.022017 17:0.049372 18:0.011874 19:-0.290765 20:0.089317 21:0.214861 22:-0.008153 23:-0.069193 24:-0.052056 25:0.055352 26:-0.183516 27:0.276285 28:-0.220985 29:-0.218826 30:-0.082306 31:0.255109 32:-0.034072 33:-0.153090 34:0.195926 35:0.150744
1 1:-0.281783 2:0.097511 3:0.135845 4:0.397776 5:-0.042392 6:0.015711 7:-0.004099 8:-0.423045 9:0.161938 10:0.020544 11:-0.069174 12:0.000982 13:-0.298580 14:-0.011820 15:-0.110795 16:0.043104 17:0.000558 18:-0.139755 19:0.229198 20:0.173369 21:-0.218603 22:0.061960 23:-0.054283 24:0.035898 25:-0.211595 26:-0.032994 27:-0.178727 28:-0.036560 29:0.120903 30:0.238200 31:-0.095503 32:0.017275 33:0.074567 34:-0.004505 35:0.308297
1 1:-0.004171 2:-0.231336 3:0.122145 4:-0.066893 5:0.130594 6:-0.044375 7:-0.315719 8:-0.125846 9:0.041875 10:0.113784 11:0.094906 12:-0.046439 13:-0.318624 14:-0.173795 15:-0.114729 16:0.218667 17:0.092133 18:-0.259381 19:0.068568 20:0.111263 21:-0.249438 22:-0.041469 23:-0.094876 24:0.067821 25:-0.268135 26:-0.154864 27:-0.245573 28:-0.046978 29:0.163472 30:-0.160403 31:0.201497 32:-0.374263 33:0.034995 34:-0.100441 35:0.027300
1 1:-0.414709 2:-0.075928 3:0.180655 4:0.213753 5:0.098318 6:-0.149075 7:-0.157822 8:-0.136377 9:-0.139468 10:-0.107856 11:0.052583 12:0.064756 13:-0.130836 14:0.067131 15:0.026990 16:-0.066407 17:0.008999 18:0.021673 19:-0.032952 20:0.253183 21:-0.232229 22:-0.183543 23:-0.236185 24:0.016224 25:-0.279182 26:0.325697 27:-0.031878 28:0.165336 29:0.129700 30:-0.058276 31:-0.118428 32:-0.018761 33:-0.255884 34:0.140784 35:0.249107
1 1:0.091750 2:-0.097118 3:0.010753 4:-0.254382 5:0.117624 6:-0.038630 7:-0.298916 8:-0.416676 9:-0.136706 10:0.080650 11:-0.214101 12:-0.044658 13:0.256254 14:-0.277945 15:-0.064903 16:0.113951 17:-0.030509 18:0.144158 19:0.313514 20:0.207514 21:0.003367 22:0.112661 23:-0.064153 24:-0.095176 25:-0.099997 26:0.189008 27:0.217027 28:0.120466 29:0.021876 30:0.209096 31:0.103301 32:-0.112694 33:-0.145894 34:0.120248 35:0.079298
1 1:-0.174042 2:0.031584 3:0.400318 4:-0.091988 5:-0.332540 6:0.037610 7:0.077085 8:0.030044 9:-0.008514 10:0.127226 11:-0.071259 12:-0.206965 13:-0.137380 14:0.175543 15:0.103246 16:0.237757 17:-0.012711 18:-0.061756 19:0.109914 20:-0.255016 21:-0.102142 22:-0.192757 23:-0.036597 24:-0.012907 25:-0.294480 26:-0.298112 27:-0.141849 28:0.038002 29:0.038770 30:-0.250737 31:-0.030213 32:-0.135892 33:0.166896 34:0.095495 35:0.228126
1 1:0.213730 2:-0.094461 3:-0.048220 4:-0.025024 5:-0.180557 6:0.030057 7:-0.169962 8:-0.206113 9:0.118374 10:-0.034655 11:0.292994 12:-0.067220 13:0.114106 14:0.188798 15:0.121860 16:-0.391694 17:-0.151916 18:0.212376 19:0.084833 20:-0.102225 21:0.292236 22:-0.015838 23:0.046308 24:-0.100220 25:0.045430 26:0.045534 27:-0.220366 28:-0.230100 29:0.007858 30:-0.328052 31:-0.257574 32:0.061820 33:-0.101520 34:-0.163687 35:-0.103895
1 1:-0.035670 2:0.097952 3:0.086227 4:0.042353 5:-0.147479 6:-0.073272 7:0.052262 8:0.070089 9:0.020229 10:0.240779 11:-0.134642 12:-0.032724 13:-0.101239 14:0.023280 15:-0.009545 16:-0.007997 17:0.486031 18:-0.063958 19:-0.251844 20:0.123576 21:-0.128609 22:0.076103 23:0.191226 24:0.051249 25:0.205820 26:-0.239606 27:0.285733 28:0.137052 29:0.116579 30:-0.192714 31:-0.313642 32:0.010808 33:0.295951 34:0.160445 35:0.115438
1 1:-0.006344 2:0.002303 3:-0.238354 4:0.175767 5:-0.079596 6:0.210895 7:-0.213084 8:-0.006358 9:-0.066169 10:-0.027372 11:0.086568 12:-0.003636 13:0.320358 14:-0.391210 15:-0.009026 16:-0.063440 17:-0.107484 18:0.050789 19:-0.173064 20:-0.213095 21:-0.216127 22:-0.254223 23:-0.056046 24:0.301822 25:0.258814 26:-0.179772 27:-0.141172 28:-0.050281 29:0.018768 30:-0.127619 31:-0.100156 32:0.104207 33:-0.249528 34:-0.132235 35:-0.097283
1 1:-0.238054 2:-0.235234 3:-0.228571 4:-0.022457 5:0.322270 6:0.162984 7:-0.054885 8:0.228918 9:-0.079750 10:0.166410 11:0.068498 12:-0.024698 13:0.008731 14:-0.223833 15:-0.136067 16:0.101833 17:0.169715 18:0.116455 19:0.292040 20:0.074126 21:0.093767 22:-0.071384 23:-0.145678 24:-0.015085 25:0.197921 26:0.163601 27:0.445527 28:-0.126729 29:0.033572 30:-0.047404 31:-0.106891 32:-0.119810 33:-0.048489 34:-0.136293 35:-0.178700
1 1:0.013894 2:0.307372 3:-0.023742 4:-0.002492 5:0.078629 6:0.052262 7:0.296352 8:-0.385775 9:-0.068684 10:-0.167109 11:0.223815 12:-0.127737 13:-0.199293 14:0.063994 15:-0.109740 16:-0.091845 17:0.027542 18:-0.044167 19:-0.124859 20:-0.290704 21:-0.030037 22:-0.194589 23:0.154143 24:-0.061667 25:-0.285864 26:-0.223877 27:-0.139579 28:-0.176726 29:-0.084679 30:-0.200403 31:-0.075665 32:0.233336 33:0.136421 34:0.093489 35:0.096486
1 1:0.026573 2:-0.061021 3:-0.032914 4:0.064372 5:-0.158604 6:0.075249 7:-0.085837 8:-0.205934 9:0.065840 10:0.347986 11:-0.012981 12:-0.058306 13:0.051887 14:-0.389087 15:0.118511 16:-0.218487 17:-0.112545 18:0.301701 19:0.006464 20:-0.011191 21:-0.192193 22:0.459900 23:0.057859 24:-0.054218 25:-0.210115 26:0.145154 27:-0.065259 28:0.108968 29:-0.003450 30:-0.052185 31:0.078647 32:-0.190111 33:0.159810 34:-0.205151 35:-0.110724
1 1:-0.170693 2:-0.004742 3:-0.250176 4:0.132829 5:-0.208877 6:-0.215502 7:0.056016 8:-0.219381 9:-0.177058 10:-0.005032 11:-0.012926 12:-0.139662 13:0.181777 14:0.094191 15:-0.005009 16:-0.009805 17:-0.084164 18:0.137583 19:0.268369 20:0.072489 21:-0.207853 22:0.096991 23:-0.192239 24:-0.429891 25:-0.022757 26:0.334826 27:0.330014 28:0.050952 29:-0.025651 30:-0.030650 31:-0.001527 32:-0.141748 33:-0.141127 34:0.084440 35:0.075220
1 1:-0.085767 2:0.089204 3:0.056137 4:-0.078097 5:-0.120389 6:0.039083 7:-0.030568 8:0.032031 9:0.047372 10:-0.216914 11:0.065193 12:0.001461 13:-0.132028 14:-0.100680 15:0.062000 16:-0.033031 17:-0.430058 18:-0.044449 19:-0.183218 20:-0.175431 21:-0.061042 22:0.221155 23:-0.213227 24:-0.399235 25:0.245645 26:0.261017 27:0.356312 28:-0.018036 29:0.071527 30:-0.086193 31:0.091357 32:0.023286 33:0.251471 34:0.118693 35:-0.090163
1 1:0.006749 2:-0.105345 3:-0.117397 4:0.030996 5:0.067832 6:0.223575 7:-0.107693 8:0.231869 9:0.176661 10:0.174991 11:0.203851 12:-0.123727 13:-0.251680 14:-0.031669 15:0.132482 16:0.272427 17:-0.130854 18:0.145400 19:0.164580 20:-0.178436 21:0.169718 22:0.085141 23:-0.019530 24:0.128871 25:-0.006906 26:-0.098096 27:-0.113273 28:-0.125255 29:-0.305057 30:-0.045365 31:-0.355632 32:0.202663 33:0.271502 34:-0.233173 35:-0.013723
1 1:0.265007 2:-0.106538 3:0.062655 4:-0.154206 5:0.174812 6:-0.258054 7:-0.177493 8:0.347536 9:0.016606 10:-0.001638 11:0.332758 12:0.215730 13:-0.004801 14:-0.020242 15:0.020798 16:-0.089672 17:0.012578 18:-0.094048 19:0.222339 20:0.105155 21:0.151164 22:0.043577 23:0.232449 24:-0.097132 25:-0.228384 26:0.128836 27:0.085124 28:-0.245729 29:0.098757 30:0.034365 31:-0.240543 32:0.304683 33:0.086702 34:0.041378 35:0.099358
1 1:-0.137374 2:-0.015899 3:-0.081140 4:0.007383 5:0.170461 6:0.408936 7:-0.230521 8:-0.030035 9:-0.061634 10:0.100115 11:0.070730 12:-0.141180 13:-0.000089 14:0.131951 15:-0.042415 16:-0.163685 17:0.264016 18:-0.087651 19:-0.217123 20:-0.340369 21:0.122157 22:-0.185100 23:0.127766 24:-0.077997 25:0.170128 26:-0.312264 27:-0.071689 28:0.016041 29:0.126345 30:0.243679 31:0.146932 32:0.017069 33:0.008882 34:0.034796 35:0.311155
1 1:0.009309 2:-0.057103 3:-0.034527 4:-0.106778 5:0.276693 6:-0.378396 7:0.467834 8:-0.102883 9:-0.035520 10:-0.063169 11:-0.014391 12:-0.014789 13:-0.006146 14:0.034038 15:0.145494 16:0.195232 17:-0.226292 18:0.006479 19:0.183257 20:-0.185609 21:0.089810 22:-0.025514 23:-0.030795 24:-0.063507 25:-0.086197 26:-0.086498 27:-0.038445 28:0.140960 29:0.108874 30:-0.189325 31:-0.340723 32:0.283905 33:-0.132696 34:-0.192602 35:-0.019167
1 1:-0.135077 2:0.057844 3:-0.223808 4:-0.184641 5:0.130219 6:-0.071860 7:-0.136231 8:0.040295 9:-0.118249 10:0.178408 11:-0.085653 12:0.006120 13:0.067719 14:-0.225685 15:-0.261815 16:0.140814 17:0.252444 18:-0.053715 19:-0.051821 20:-0.012843 21:0.184211 22:0.102626 23:-0.227206 24:-0.481460 25:-0.075341 26:0.080237 27:0.105181 28:-0.052136 29:0.003641 30:0.403213 31:-0.108509 32:0.175563 33:0.116460 34:-0.083793 35:0.076260
1 1:-0.380473 2:0.056527 3:0.080454 4:0.047182 5:-0.051093 6:-0.147831 7:0.105307 8:0.127140 9:-0.168888 10:0.045259 11:-0.216163 12:0.109920 13:-0.079159 14:-0.090865 15:-0.033469 16:-0.148654 17:-0.004837 18:0.057004 19:-0.109267 20:-0.155173 21:-0.041673 22:0.443671 23:-0.257557 24:0.076524 25:-0.117157 26:0.105235 27:0.037983 28:0.048063 29:-0.081815 30:0.203673 31:-0.025099 32:0.478963 33:0.158969 34:-0.072249 35:-0.131103
1 1:0.096055 2:0.138638 3:0.137054 4:0.113567 5:-0.501609 6:-0.145272 7:0.140200 8:-0.117911 9:0.382292 10:-0.179615 11:0.015468 12:0.162225 13:-0.094590 14:0.260759 15:0.223157 16:0.033984 17:0.015302 18:-0.103588 19:-0.022449 20:0.218867 21:0.141460 22:-0.029776 23:-0.050704 24:-0.106494 25:-0.044230 26:-0.031050 27:0.027488 28:0.217431 29:0.207640 30:0.053448 31:0.097939 32:-0.265268 33:0.072373 34:0.073080 35:-0.138179
1 1:-0.095012 2:-0.117507 3:0.193689 4:0.426551 5:0.001718 6:-0.198123 7:-0.046304 8:-0.002468 9:0.184848 10:0.076679 11:0.072261 12:0.222866 13:0.084343 14:-0.126709 15:-0.261501 16:-0.058465 17:0.156857 18:-0.286627 19:0.174926 20:0.018254 21:0.102983 22:0.031890 23:0.264275 24:-0.118015 25:-0.042362 26:-0.072595 27:-0.155728 28:0.045866 29:0.044347 30:0.391290 31:0.301531 32:0.078892 33:-0.056963 34:0.020168 35:0.063370
1 1:-0.124973 2:-0.153546 3:0.043144 4:-0.412935 5:0.257677 6:0.075156 7:0.046715 8:-0.019749 9:-0.038817 10:-0.175260 11:-0.203772 12:0.001447 13:0.223361 14:-0.136344 15:0.019970 16:0.031824 17:-0.257351 18:0.100157 19:-0.077139 20:0.160281 21:0.277128 22:0.165858 23:-0.180988 24:-0.034507 25:-0.326503 26:-0.202070 27:-0.114795 28:-0.266557 29:-0.130500 30:0.028226 31:0.156674 32:0.174050 33:-0.101121 34:0.096809 35:-0.009105
1 1:-0.041133 2:-0.151802 3:0.162057 4:-0.045201 5:-0.271614 6:0.157060 7:-0.052774 8:0.111449 9:-0.007306 10:-0.017852 11:-0.168952 12:0.148040 13:-0.300691 14:0.294052 15:0.147420 16:0.064007 17:0.146263 18:-0.090451 19:-0.129209 20:-0.249716 21:-0.124077 22:0.132426 23:-0.172906 24:-0.410127 25:-0.254797 26:0.010622 27:0.236987 28:-0.038701 29:-0.048402 30:0.128675 31:0.028749 32:-0.224708 33:-0.215020 34:0.030553 35:-0.004969
1 1:0.038463 2:-0.098122 3:0.553403 4:-0.092203 5:-0.107710 6:-0.074143 7:-0.038245 8:-0.208924 9:0.104071 10:0.158597 11:0.223133 12:0.161874 13:-0.066879 14:-0.064559 15:0.348976 16:-0.045055 17:0.108278 18:0.019123 19:0.109666 20:0.071358 21:0.068744 22:-0.088622 23:0.087296 24:-0.028665 25:-0.176730 26:-0.168908 27:-0.132010 28:0.139284 29:0.183274 30:0.209530 31:-0.151431 32:0.103493 33:-0.300474 34:-0.124229 35:-0.061837
1 1:-0.040872 2:-0.014311 3:0.127748 4:-0.001126 5:-0.096333 6:-0.098887 7:0.245253 8:0.257329 9:0.006667 10:-0.134108 11:0.149136 12:0.221720 13:-0.221962 14:-0.255751 15:0.040013 16:0.011078 17:0.447785 18:0.242494 19:-0.134964 20:-0.181905 21:-0.175090 22:-0.261128 23:-0.136433 24:0.143785 25:0.120165 26:-0.034740 27:0.014930 28:0.176293 29:-0.245771 30:-0.004988 31:-0.043598 32:-0.216096 33:0.030589 34:0.130703 35:0.088335
1 1:0.154159 2:0.125272 3:-0.091616 4:-0.227852 5:0.043323 6:0.039801 7:-0.372267 8:-0.105569 9:-0.105803 10:-0.147341 11:-0.259378 12:0.126585 13:-0.094430 14:-0.034208 15:-0.003003 16:-0.021534 17:-0.041241 18:0.006656 19:-0.280868 20:-0.006261 21:-0.082612 22:-0.425865 23:-0.072333 24:-0.309549 25:0.130157 26:-0.006861 27:0.176260 28:-0.061536 29:-0.106730 30:-0.090285 31:-0.235705 32:0.290912 33:-0.096343 34:-0.097902 35:0.141180
1 1:0.078016 2:-0.239226 3:-0.099248 4:0.117127 5:0.267811 6:-0.015866 7:0.077980 8:0.163742 9:0.084692 10:0.098219 11:0.328695 12:0.061654 13:0.096469 14:0.047855 15:-0.298486 16:0.198579 17:0.072182 18:0.042168 19:0.101523 20:0.208495 21:-0.110538 22:0.088692 23:0.068158 24:-0.314566 25:0.021899 26:-0.045273 27:0.197295 28:-0.286686 29:-0.242755 30:0.298503 31:-0.032756 32:-0.101287 33:-0.191170 34:0.129667 35:0.136553
1 1:-0.148028 2:0.028119 3:-0.453197 4:0.039031 5:0.027228 6:-0.054784 7:-0.114974 8:-0.240258 9:0.049714 10:0.115178 11:0.070537 12:0.003777 13:-0.011987 14:-0.235696 15:0.117628 16:-0.050720 17:-0.035381 18:0.006961 19:-0.085883 20:0.009433 21:0.181235 22:-0.039063 23:0.441922 24:-0.081019 25:0.147634 26:-0.062337 27:-0.185923 28:-0.080237 29:0.061760 30:0.010346 31:-0.466738 32:-0.002907 33:-0.155781 34:0.036668 35:-0.209279
1 1:-0.029894 2:-0.088071 3:-0.195328 4:0.017219 5:0.232175 6:-0.029715 7:-0.104044 8:0.017332 9:-0.312016 10:0.127338 11:-0.001326 12:0.159079 13:-0.045986 14:0.104154 15:0.166313 16:0.231436 17:0.194828 18:0.304180 19:-0.087722 20:0.138308 21:-0.358080 22:-0.105012 23:0.008591 24:0.046278 25:-0.200209 26:0.179766 27:0.162786 28:0.078199 29:-0.161956 30:0.391826 31:-0.104659 32:-0.213730 33:-0.023006 34:-0.114815 35:0.005920
1 1:-0.035957 2:0.222550 3:0.233480 4:-0.283391 5:0.085063 6:0.319847 7:0.223477 8:-0.071739 9:-0.198303 10:0.042591 11:-0.061139 12:0.097345 13:0.172243 14:0.003499 15:0.092788 16:0.004720 17:-0.245961 18:-0.209530 19:-0.307108 20:0.245164 21:-0.208983 22:0.205713 23:-0.109958 24:0.000943 25:-0.043279 26:0.039118 27:0.074465 28:0.285180 29:-0.121725 30:-0.177588 31:0.201060 32:-0.134501 33:-0.070790 34:-0.001474 35:-0.001302
1 1:-0.017022 2:-0.020063 3:0.084998 4:0.004748 5:-0.008366 6:-0.056380 7:-0.167503 8:-0.064939 9:0.408302 10:0.276685 11:0.214175 12:0.321551 13:0.288686 14:0.227052 15:0.052824 16:0.117989 17:0.055316 18:0.266163 19:0.204376 20:0.129848 21:0.092564 22:-0.035066 23:-0.081372 24:0.019373 25:-0.179219 26:-0.026097 27:-0.227235 28:0.256374 29:-0.214965 30:0.034202 31:-0.080254 32:0.066993 33:-0.148195 34:0.053263 35:0.172639
1 1:-0.261035 2:-0.015312 3:-0.046602 4:0.035393 5:0.114293 6:0.304653 7:-0.018784 8:-0.000642 9:0.079810 10:-0.037024 11:0.174454 12:0.071351 13:-0.076030 14:0.002679 15:-0.244708 16:-0.085014 17:0.189285 18:0.025766 19:-0.393898 20:-0.106981 21:0.063954 22:0.356665 23:-0.314917 24:0.088390 25:-0.200972 26:-0.045962 27:0.076751 28:0.021614 29:0.001684 30:0.018066 31:0.006180 32:0.156064 33:0.169348 34:0.314201 35:0.251885
1 1:-0.062183 2:-0.026619 3:0.316148 4:0.058044 5:0.181196 6:0.174706 7:-0.203056 8:-0.036369 9:0.046737 10:0.085146 11:0.211675 12:-0.288045 13:-0.024489 14:-0.073974 15:0.056766 16:-0.309700 17:0.023356 18:-0.039402 19:-0.048228 20:-0.346941 21:-0.201747 22:-0.046537 23:-0.042075 24:-0.231244 25:-0.103729 26:0.028641 27:0.150755 28:-0.244716 29:0.007653 30:-0.181600 31:-0.298267 32:0.034165 33:0.270728 34:0.170265 35:-0.035075
1 1:-0.132052 2:0.092381 3:0.145812 4:0.414358 5:0.178417 6:-0.130600 7:-0.117957 8:-0.034357 9:0.034134 10:-0.160250 11:-0.316218 12:-0.138279 13:0.179252 14:-0.020986 15:0.000075 16:-0.049436 17:-0.016193 18:-0.037157 19:0.022456 20:0.105123 21:0.102671 22:0.230042 23:-0.032212 24:-0.093322 25:-0.143651 26:0.001137 27:-0.199485 28:-0.281206 29:0.047059 30:-0.173182 31:-0.240993 32:-0.182257 33:0.041471 34:0.425307 35:-0.063996
1 1:-0.046181 2:-0.161814 3:0.088021 4:-0.146236 5:0.270444 6:0.155835 7:0.130152 8:-0.005110 9:0.104423 10:0.357977 11:-0.251783 12:-0.299415 13:-0.011087 14:0.128800 15:-0.109903 16:-0.208364 17:0.064356 18:-0.102625 19:-0.084775 20:-0.278025 21:0.232659 22:0.108072 23:-0.060085 24:-0.026482 25:0.228044 26:0.034475 27:-0.254390 28:0.242450 29:0.122026 30:0.088119 31:0.049942 32:-0.185281 33:0.010864 34:0.093912 35:0.222425
1 1:-0.071691 2:-0.211984 3:0.070022 4:-0.122944 5:-0.323444 6:0.103622 7:0.042028 8:-0.049009 9:0.049590 10:-0.313302 11:0.020828 12:-0.044319 13:-0.281572 14:-0.167802 15:-0.320923 16:0.077585 17:0.064856 18:-0.069926 19:0.095563 20:-0.059217 21:-0.175639 22:0.284460 23:-0.301345 24:0.331008 25:-0.023683 26:0.062461 27:-0.113109 28:0.218817 29:0.164109 30:0.184135 31:0.077711 32:-0.145718 33:0.038162 34:0.006310 35:-0.047919
1 1:0.092558 2:-0.157980 3:-0.147216 4:0.245252 5:0.184491 6:-0.104804 7:0.190860 8:0.006481 9:0.090978 10:0.268180 11:-0.175866 12:-0.087352 13:-0.193010 14:0.051062 15:0.374012 16:0.124657 17:-0.103333 18:0.015012 19:-0.230010 20:-0.155396 21:0.057766 22:-0.182594 23:0.153778 24:0.144931 25:-0.116089 26:0.237766 27:0.057953 28:0.001317 29:-0.063983 30:0.264954 31:-0.138285 32:-0.289321 33:0.021110 34:0.011607 35:0.262228
1 1:0.257906 2:0.040511 3:0.205565 4:-0.300113 5:-0.145052 6:-0.054580 7:0.229820 8:0.205787 9:-0.011863 10:0.293182 11:0.070838 12:-0.323226 13:0.134888 14:0.011583 15:-0.084215 16:0.252396 17:-0.218843 18:-0.077388 19:-0.149056 20:-0.223055 21:0.318323 22:-0.132937 23:0.041886 24:-0.074905 25:0.017036 26:-0.003287 27:0.136060 28:0.027444 29:0.104122 30:-0.060922 31:-0.205299 32:0.108705 33:-0.089342 34:0.202735 35:-0.078942
1 1:-0.074086 2:0.199645 3:-0.018388 4:-0.019491 5:-0.090768 6:-0.116857 7:0.295301 8:-0.261815 9:0.088979 10:0.011965 11:0.048624 12:0.092220 13:-0.091734 14:0.105075 15:0.178683 16:-0.056219 17:-0.313933 18:-0.296353 19:-0.288264 20:-0.327330 21:0.080892 22:0.078169 23:0.139575 24:-0.177486 25:0.102517 26:-0.195842 27:-0.084756 28:-0.114856 29:0.067236 30:0.149603 31:0.228537 32:-0.099284 33:-0.285693 34:0.069284 35:-0.133839
1 1:-0.129238 2:-0.023808 3:-0.077444 4:-0.146679 5:0.035631 6:-0.193043 7:-0.009695 8:0.264634 9:-0.308403 10:0.176297 11:-0.100951 12:0.018180 13:-0.043879 14:0.137240 15:-0.143100 16:0.000109 17:-0.369895 18:-0.147991 19:-0.032255 20:0.136123 21:0.190250 22:0.201616 23:0.021231 24:-0.198743 25:0.348179 26:-0.222197 27:0.308787 28:-0.063184 29:0.021340 30:0.063405 31:-0.066830 32:-0.227880 33:-0.111650 34:0.152863 35:-0.082907
1 1:0.141871 2:0.266892 3:-0.181777 4:0.326237 5:0.252021 6:-0.102506 7:0.295052 8:0.051546 9:0.101570 10:0.098634 11:-0.226747 12:-0.095612 13:-0.042507 14:0.278545 15:0.042242 16:0.097307 17:0.147266 18:-0.015406 19:-0.257649 20:-0.023075 21:-0.069159 22:-0.035098 23:0.153387 24:0.230591 25:0.114226 26:-0.101136 27:-0.036400 28:0.032394 29:-0.085264 30:0.036465 31:-0.290353 32:-0.332713 33:0.034886 34:0.176460 35:0.031986
1 1:-0.188421 2:-0.015788 3:-0.414590 4:-0.148029 5:0.096724 6:-0.256925 7:0.035392 8:-0.090091 9:-0.155778 10:0.199535 11:-0.177151 12:0.292612 13:-0.149555 14:0.295678 15:0.152928 16:0.163084 17:0.271180 18:0.001774 19:-0.147179 20:-0.017687 21:-0.015956 22:0.068420 23:-0.003915 24:-0.087051 25:0.198923 26:0.031592 27:-0.079567 28:0.051175 29:-0.152211 30:0.022542 31:-0.198177 32:0.186297 33:0.083281 34:-0.067323 35:0.279582
1 1:-0.238440 2:0.184023 3:0.186791 4:-0.230683 5:0.116230 6:-0.004155 7:-0.101295 8:-0.081151 9:-0.163181 10:0.034023 11:0.005250 12:0.165367 13:-0.184520 14:-0.052574 15:-0.317678 16:0.180247 17:0.176914 18:-0.048027 19:0.377343 20:-0.135948 21:-0.078629 22:0.073995 23:0.244308 24:0.310873 25:-0.278362 26:-0.238218 27:-0.013689 28:-0.115232 29:0.023783 30:-0.068318 31:-0.042161 32:-0.007107 33:-0.129836 34:0.070814 35:-0.162271
1 1:0.156070 2:-0.176705 3:0.124048 4:0.286194 5:0.006719 6:0.136485 7:0.054655 8:0.085960 9:0.082092 10:0.267365 11:-0.232601 12:-0.054907 13:-0.400441 14:0.107310 15:0.043102 16:0.101596 17:0.305922 18:0.266674 19:0.040826 20:0.168633 21:0.234998 22:0.022103 23:-0.189014 24:0.067267 25:-0.179562 26:-0.078942 27:-0.192940 28:-0.148663 29:-0.012450 30:-0.115348 31:0.053029 32:0.206172 33:-0.139430 34:0.161101 35:-0.077061
1 1:0.055391 2:0.211659 3:0.018040 4:0.214466 5:0.304604 6:-0.226790 7:-0.131216 8:0.115673 9:0.043551 10:0.119624 11:0.119409 12:-0.130058 13:0.190395 14:-0.207508 15:0.017483 16:0.178428 17:0.029246 18:0.144214 19:0.071083 20:-0.183453 21:0.013776 22:-0.092231 23:-0.167846 24:0.222035 25:-0.002871 26:0.158391 27:-0.386182 28:-0.180553 29:-0.372710 30:-0.096731 31:-0.252627 32:-0.048890 33:0.024942 34:0.019267 35:0.057702
1 1:-0.020735 2:0.103818 3:0.211802 4:-0.368072 5:0.112228 6:-0.076056 7:0.113503 8:-0.111001 9:0.282360 10:0.122879 11:0.276422 12:0.002452 13:0.055962 14:0.001698 15:0.024840 16:0.130088 17:-0.268388 18:-0.059271 19:0.086766 20:0.008233 21:0.152227 22:-0.150796 23:0.199036 24:-0.007360 25:-0.110246 26:-0.094528 27:-0.323551 28:-0.075144 29:-0.171980 30:-0.070347 31:0.470889 32:-0.023855 33:0.033952 34:0.067372 35:0.101427
1 1:-0.133890 2:0.027977 3:-0.026463 4:-0.065998 5:-0.261909 6:0.086976 7:0.221704 8:0.307012 9:-0.051399 10:-0.091891 11:-0.046605 12:0.181467 13:-0.065258 14:-0.023172 15:-0.112142 16:-0.175643 17:-0.185977 18:0.085442 19:0.153637 20:0.122879 21:-0.208990 22:0.137897 23:-0.038339 24:0.013368 25:0.469227 26:0.124671 27:-0.000913 28:-0.042646 29:0.336125 30:0.090587 31:0.098892 32:-0.344373 33:-0.090149 34:-0.146360 35:0.026053
1 1:0.124027 2:0.150475 3:0.056554 4:0.170703 5:-0.144175 6:-0.040900 7:0.140484 8:0.057378 9:0.086587 10:0.106861 11:0.080898 12:-0.434633 13:0.077644 14:0.055617 15:-0.230475 16:0.204796 17:-0.012003 18:0.074948 19:0.099218 20:-0.256639 21:0.070040 22:0.375658 23:-0.016697 24:0.028357 25:-0.067040 26:0.163717 27:-0.003787 28:0.253965 29:0.009692 30:0.178283 31:-0.101123 32:-0.305441 33:-0.107239 34:0.064601 35:-0.300235
1 1:-0.008573 2:-0.122490 3:0.171119 4:-0.149773 5:-0.072424 6:-0.073661 7:0.271183 8:-0.203670 9:0.153592 10:0.037454 11:0.343795 12:-0.191605 13:0.211577 14:-0.179414 15:-0.112343 16:0.168203 17:-0.105782 18:-0.257842 19:0.118828 20:0.072345 21:0.178269 22:-0.031918 23:-0.187314 24:-0.074395 25:-0.197765 26:0.095003 27:0.114653 28:-0.011194 29:-0.112250 30:-0.217630 31:0.352879 32:-0.048854 33:0.017933 34:0.131648 35:0.270867
1 1:-0.071592 2:-0.074870 3:0.203347 4:0.253173 5:-0.132170 6:0.054666 7:-0.174142 8:0.160129 9:0.199672 10:0.461198 11:0.216358 12:-0.136312 13:-0.090487 14:-0.000379 15:-0.147919 16:0.268703 17:0.088745 18:0.210860 19:0.240563 20:0.103710 21:-0.151836 22:0.117413 23:0.027778 24:-0.128026 25:-0.089322 26:0.037586 27:-0.053628 28:0.116197 29:-0.097981 30:0.124134 31:-0.254389 32:0.001897 33:0.036271 34:-0.126373 35:0.281812
1 1:0.047631 2:-0.030145 3:-0.046315 4:0.032304 5:-0.030881 6:0.199959 7:0.164996 8:-0.154719 9:0.041484 10:-0.073922 11:-0.256388 12:0.064074 13:-0.390811 14:0.243037 15:-0.145728 16:0.034247 17:-0.189604 18:0.083333 19:0.067142 20:0.098520 21:0.057571 22:-0.243392 23:0.252016 24:-0.071655 25:0.088921 26:0.034865 27:0.029243 28:0.316708 29:-0.232300 30:-0.069685 31:-0.040836 32:-0.276736 33:0.367867 34:0.100903 35:0.095562
1 1:0.033443 2:0.371193 3:-0.129620 4:0.212708 5:-0.236403 6:0.175145 7:-0.106223 8:0.042915 9:0.114799 10:-0.196615 11:0.043365 12:-0.183212 13:-0.017975 14:-0.037697 15:0.040868 16:0.035571 17:0.119746 18:-0.125348 19:0.255433 20:0.073885 21:-0.026018 22:-0.087105 23:-0.251224 24:0.113334 25:-0.197958 26:0.070292 27:0.237597 28:-0.281884 29:-0.005111 30:0.297427 31:0.067385 32:-0.311388 33:-0.119355 34:0.039689 35:0.191233
1 1:-0.132827 2:-0.076341 3:-0.315841 4:-0.099450 5:0.090514 6:0.035072 7:-0.093137 8:-0.419429 9:0.074040 10:-0.200235 11:-0.060822 12:0.064643 13:0.147086 14:0.074403 15:-0.030052 16:-0.041076 17:0.352016 18:-0.238217 19:-0.282610 20:-0.109912 21:0.294024 22:-0.107914 23:0.062008 24:0.077058 25:0.016757 26:0.059903 27:0.227435 28:0.099530 29:0.057724 30:-0.155389 31:-0.087027 32:0.319801 33:-0.013272 34:0.029538 35:-0.072706
1 1:-0.152531 2:-0.141170 3:0.089297 4:0.140343 5:0.283805 6:-0.013660 7:-0.403768 8:-0.197076 9:0.010323 10:-0.351793 11:-0.159916 12:0.087578 13:-0.012626 14:-0.150328 15:0.120040 16:0.217998 17:0.032704 18:-0.045909 19:-0.049422 20:0.170541 21:-0.103139 22:-0.151006 23:0.127681 24:-0.375273 25:-0.081708 26:0.079945 27:0.256838 28:0.029556 29:-0.083340 30:-0.130305 31:-0.146208 32:-0.007523 33:-0.104162 34:0.165605 35:-0.126178
1 1:-0.099000 2:-0.013310 3:0.160137 4:-0.091908 5:0.007336 6:-0.284420 7:0.131600 8:-0.026934 9:-0.035866 10:-0.067239 11:-0.184846 12:0.094160 13:0.053138 14:0.196805 15:-0.007542 16:-0.111243 17:0.214994 18:0.071354 19:0.069421 20:0.075647 21:0.409074 22:-0.011885 23:-0.111902 24:0.065453 25:0.062243 26:0.145224 27:0.056752 28:0.388212 29:0.093853 30:0.054360 31:0.045267 32:-0.071050 33:-0.339855 34:0.440975 35:-0.015820
1 1:-0.173782 2:-0.272169 3:0.123495 4:-0.163289 5:-0.159504 6:0.109662 7:-0.147798 8:0.378674 9:0.173981 10:0.029504 11:-0.096201 12:0.098276 13:-0.322180 14:-0.048526 15:-0.054658 16:0.014923 17:0.200210 18:0.115252 19:-0.094605 20:0.185083 21:-0.056375 22:0.143641 23:-0.307809 24:-0.025654 25:0.261096 26:-0.059403 27:-0.159894 28:-0.017675 29:-0.082930 30:-0.123628 31:-0.143781 32:-0.172686 33:-0.073959 34:-0.313451 35:-0.044075
1 1:0.138309 2:-0.056606 3:-0.408405 4:-0.251690 5:-0.137578 6:0.106452 7:0.020401 8:-0.044443 9:0.204615 10:0.047033 11:0.212666 12:-0.161839 13:0.070530 14:-0.103886 15:0.466910 16:0.207123 17:0.288360 18:0.163021 19:-0.104283 20:-0.023999 21:0.052466 22:-0.083365 23:0.059841 24:0.028766 25:0.161227 26:0.016174 27:0.230986 28:0.027343 29:-0.117446 30:0.081103 31:0.131852 32:0.127775 33:0.219892 34:-0.057808 35:0.035779
1 1:-0.251257 2:0.022355 3:-0.276165 4:-0.132612 5:-0.168223 6:0.068936 7:0.118886 8:0.279798 9:-0.184320 10:-0.278678 11:0.182289 12:0.062364 13:0.181098 14:0.240944 15:0.058103 16:0.166363 17:0.070933 18:-0.209670 19:0.136972 20:-0.091367 21:0.088920 22:0.194751 23:0.073813 24:-0.086499 25:0.080504 26:0.053746 27:0.278011 28:0.085656 29:-0.083305 30:-0.226439 31:-0.114238 32:0.283627 33:-0.205584 34:0.128566 35:-0.083797
1 1:0.025702 2:0.209241 3:0.035534 4:0.062751 5:-0.288868 6:0.232726 7:-0.192559 8:0.164583 9:-0.331633 10:0.010059 11:-0.020672 12:0.186157 13:-0.309398 14:-0.101684 15:0.165883 16:-0.100640 17:0.009129 18:0.260576 19:-0.002971 20:-0.002634 21:0.070072 22:0.282529 23:-0.013780 24:-0.121938 25:-0.087116 26:0.156249 27:0.144538 28:-0.113608 29:0.203872 30:-0.251992 31:0.098513 32:-0.024572 33:0.225087 34:0.172099 35:0.174537
1 1:0.094552 2:-0.246256 3:-0.121051 4:-0.048753 5:0.163667 6:-0.197400 7:-0.158990 8:-0.123291 9:0.069484 10:0.017950 11:0.037202 12:-0.113082 13:-0.003200 14:-0.485288 15:0.101071 16:0.241944 17:0.025540 18:0.077349 19:-0.246737 20:0.207332 21:-0.107608 22:-0.139851 23:0.027260 24:-0.033465 25:-0.155108 26:-0.096830 27:0.009262 28:-0.270813 29:0.273356 30:-0.003615 31:-0.368084 32:-0.025793 33:-0.109655 34:0.060686 35:0.081302
1 1:-0.036752 2:0.303647 3:-0.096981 4:-0.185804 5:0.078743 6:0.001945 7:0.160327 8:0.101327 9:0.140004 10:-0.095944 11:-0.154841 12:0.059670 13:-0.097419 14:0.166464 15:-0.185015 16:-0.026308 17:0.145241 18:-0.099818 19:-0.205277 20:0.297529 21:0.285521 22:0.014449 23:-0.272478 24:0.093792 25:-0.191668 26:0.162462 27:-0.028176 28:0.278971 29:0.090801 30:0.005933 31:-0.038602 32:-0.007960 33:-0.281085 34:0.366953 35:0.011740
1 1:-0.157803 2:-0.127260 3:0.242953 4:-0.172419 5:0.137677 6:0.213013 7:-0.146918 8:0.114163 9:0.009809 10:0.185259 11:0.133223 12:0.359429 13:0.282174 14:0.180320 15:0.058741 16:-0.015580 17:0.133307 18:-0.026056 19:0.102847 20:0.092196 21:0.298128 22:-0.233679 23:-0.052900 24:-0.083189 25:0.030263 26:-0.159061 27:0.025875 28:-0.087459 29:0.135082 30:0.089164 31:0.197817 32:0.196837 33:-0.000671 34:-0.368543 35:0.094079
1 1:-0.104965 2:0.273708 3:0.102210 4:-0.198178 5:-0.121074 6:0.036154 7:0.068913 8:-0.164185 9:-0.222809 10:-0.094720 11:0.043475 12:0.064943 13:0.177875 14:0.176174 15:0.351627 16:-0.110195 17:-0.239225 18:0.059556 19:0.135178 20:0.329954 21:-0.027438 22:-0.210063 23:-0.223291 24:-0.164318 25:-0.320777 26:-0.126812 27:-0.033657 28:0.043323 29:0.142009 30:-0.121705 31:-0.188470 32:-0.158491 33:-0.148023 34:0.052234 35:-0.039799
1 1:0.222353 2:-0.129895 3:-0.159532 4:0.436020 5:-0.101349 6:0.217072 7:-0.063738 8:-0.135985 9:0.041143 10:-0.295531 11:-0.054627 12:-0.080804 13:0.065345 14:-0.060734 15:0.188801 16:-0.009231 17:-0.292630 18:0.113270 19:-0.041117 20:-0.299905 21:0.165208 22:0.209000 23:0.075092 24:0.389992 25:0.005881 26:-0.198447 27:-0.040822 28:0.006710 29:-0.146694 30:-0.014368 31:-0.060801 32:-0.021563 33:-0.030561 34:-0.095846 35:-0.001763
1 1:-0.016620 2:-0.226053 3:0.185265 4:0.026448 5:-0.074288 6:0.095362 7:0.093485 8:0.178251 9:-0.089041 10:-0.033351 11:-0.127404 12:0.027064 13:0.102066 14:-0.031093 15:0.335184 16:0.319078 17:0.142059 18:-0.003035 19:0.169490 20:0.004484 21:0.036702 22:0.048439 23:-0.314738 24:0.114578 25:0.198781 26:0.085706 27:0.029317 28:-0.153097 29:0.221606 30:0.262267 31:-0.242080 32:-0.048053 33:0.343216 34:-0.270616 35:-0.033411
1 1:0.108792 2:0.015494 3:0.368345 4:0.119657 5:-0.045927 6:-0.357520 7:0.199233 8:-0.240719 9:0.060038 10:0.091059 11:0.088304 12:0.009146 13:0.093976 14:0.037237 15:0.131616 16:0.071011 17:0.079117 18:0.108791 19:-0.256690 20:-0.028512 21:-0.315596 22:-0.114492 23:-0.121748 24:0.167680 25:-0.137530 26:-0.076945 27:-0.027488 28:0.089387 29:0.243036 30:0.303329 31:0.015236 32:-0.113994 33:-0.115790 34:-0.287462 35:0.153711
1 1:0.077052 2:-0.300324 3:-0.088893 4:-0.103111 5:0.069308 6:0.104607 7:0.128253 8:-0.058684 9:0.342787 10:-0.050129 11:-0.235247 12:0.290848 13:0.213023 14:-0.138259 15:0.038701 16:-0.119535 17:-0.057189 18:-0.325131 19:-0.194154 20:0.062775 21:-0.067042 22:-0.099600 23:-0.006214 24:0.121299 25:0.199374 26:-0.248126 27:-0.068485 28:-0.088034 29:-0.085433 30:-0.165579 31:-0.159374 32:-0.028390 33:0.235847 34:-0.306829 35:-0.072356
1 1:0.188874 2:-0.018848 3:-0.250330 4:-0.209463 5:-0.060567 6:-0.132118 7:0.018531 8:-0.173760 9:0.131080 10:-0.061712 11:-0.076209 12:0.002417 13:-0.175385 14:0.242547 15:-0.325658 16:0.265640 17:-0.058196 18:0.049130 19:0.237431 20:-0.105422 21:-0.246745 22:-0.145989 23:0.202555 24:-0.061846 25:-0.035336 26:-0.176415 27:0.119833 28:-0.214194 29:0.087793 30:-0.352743 31:-0.180948 32:0.165890 33:0.035122 34:0.022382 35:0.160259
1 1:-0.041818 2:-0.168586 3:0.010554 4:-0.042626 5:-0.498341 6:0.194486 7:0.085578 8:0.198904 9:-0.275965 10:-0.021284 11:-0.124452 12:0.063495 13:0.044666 14:0.218924 15:-0.158985 16:-0.061927 17:0.011362 18:0.014727 19:-0.333571 20:0.125793 21:0.039362 22:-0.111693 23:0.069533 24:-0.102801 25:-0.005717 26:0.262162 27:0.174706 28:-0.100994 29:-0.329172 30:-0.009013 31:-0.161592 32:0.112936 33:0.190655 34:-0.081711 35:0.054809
1 1:-0.120397 2:0.039237 3:-0.172175 4:0.016214 5:-0.041173 6:-0.032891 7:0.270300 8:0.280873 9:-0.334450 10:-0.013405 11:0.105570 12:-0.290507 13:-0.272362 14:0.411842 15:0.194723 16:-0.232402 17:-0.274228 18:0.006440 19:-0.139362 20:0.040944 21:0.029922 22:-0.014915 23:0.085392 24:-0.051437 25:-0.139613 26:-0.079202 27:0.110937 28:0.097675 29:-0.084128 30:0.112997 31:-0.097876 32:-0.158520 33:0.084520 34:-0.194191 35:0.040183
1 1:0.099682 2:-0.024338 3:0.148755 4:-0.016800 5:-0.086796 6:0.043263 7:0.134094 8:-0.248713 9:0.288812 10:-0.137548 11:-0.151495 12:0.070091 13:0.088591 14:-0.114738 15:0.135930 16:0.021884 17:0.187465 18:-0.046952 19:0.011515 20:0.147353 21:-0.146094 22:-0.022941 23:-0.161992 24:0.250668 25:0.018932 26:-0.080613 27:0.460596 28:0.360559 29:-0.166248 30:0.124413 31:-0.345945 32:0.119391 33:-0.054842 34:-0.078221 35:-0.048261
1 1:-0.069040 2:-0.033382 3:0.170919 4:0.380619 5:-0.270662 6:-0.239842 7:0.018075 8:-0.037706 9:0.058639 10:0.223369 11:0.145392 12:-0.220109 13:0.176041 14:0.086352 15:0.123118 16:0.038536 17:0.290531 18:-0.041825 19:0.059208 20:0.137774 21:0.129652 22:-0.030126 23:-0.222027 24:-0.223734 25:-0.086282 26:0.153181 27:-0.000398 28:-0.037278 29:-0.077511 30:0.042578 31:0.215248 32:-0.111526 33:-0.143409 34:-0.021581 35:-0.404796
1 1:0.365927 2:-0.053695 3:0.024189 4:-0.227068 5:0.329879 6:0.046350 7:0.123028 8:-0.113813 9:-0.186067 10:0.196143 11:-0.186457 12:0.076290 13:0.128756 14:0.203734 15:0.042040 16:-0.018105 17:-0.105286 18:0.156266 19:-0.260085 20:0.030405 21:0.143084 22:-0.124368 23:0.073503 24:-0.030184 25:-0.174477 26:-0.048659 27:0.005482 28:-0.015724 29:-0.427626 30:-0.259700 31:0.089545 32:-0.005580 33:-0.115257 34:0.102966 35:-0.191034
1 1:0.208495 2:0.241892 3:-0.089166 4:0.081971 5:0.291879 6:0.130869 7:0.009685 8:-0.196018 9:0.042522 10:-0.013965 11:0.152094 12:0.206322 13:-0.016366 14:-0.040606 15:0.053950 16:-0.068264 17:0.069762 18:-0.316273 19:-0.140788 20:-0.041001 21:-0.002718 22:0.043626 23:0.034114 24:0.043601 25:0.009096 26:0.143850 27:0.097946 28:0.430121 29:-0.188693 30:-0.145594 31:0.121726 32:0.139646 33:-0.373567 34:0.289238 35:-0.065131
1 1:-0.255600 2:-0.278515 3:0.085571 4:0.080776 5:0.163278 6:-0.126665 7:-0.056482 8:-0.247534 9:-0.027064 10:0.145436 11:0.083659 12:-0.164923 13:-0.123596 14:0.307096 15:-0.057288 16:0.235706 17:-0.398575 18:0.118796 19:0.078542 20:-0.004992 21:0.096563 22:0.080043 23:-0.083807 24:-0.121093 25:-0.032058 26:0.171991 27:-0.151814 28:0.169904 29:-0.059406 30:-0.264758 31:0.071191 32:0.014084 33:0.298780 34:-0.100525 35:0.184932
1 1:0.047307 2:-0.129470 3:-0.131354 4:-0.103764 5:-0.021762 6:0.207474 7:0.076449 8:0.084341 9:0.020300 10:0.007498 11:-0.228214 12:0.060979 13:0.120868 14:0.185785 15:-0.401373 16:-0.004177 17:-0.251531 18:-0.417890 19:0.053264 20:-0.031807 21:0.032038 22:-0.113253 23:0.168499 24:-0.022056 25:0.309150 26:0.324814 27:-0.043381 28:-0.048736 29:-0.076762 30:-0.337390 31:-0.009794 32:-0.006301 33:-0.004448 34:0.068829 35:-0.124735
1 1:-0.009784 2:0.019057 3:-0.241115 4:-0.097956 5:-0.042508 6:-0.213405 7:-0.073553 8:-0.030231 9:0.166324 10:-0.154348 11:0.219503 12:-0.101848 13:-0.373224 14:-0.072562 15:-0.158292 16:-0.113690 17:0.041015 18:0.195444 19:0.014213 20:-0.049838 21:0.108026 22:-0.070005 23:-0.062348 24:-0.019553 25:-0.253409 26:0.268890 27:0.353424 28:0.199692 29:-0.319030 30:0.182625 31:-0.051081 32:-0.135506 33:0.177701 34:0.059035 35:-0.172269
1 1:0.046968 2:-0.225058 3:0.250463 4:-0.071785 5:0.023582 6:-0.062859 7:-0.118149 8:0.184373 9:-0.005981 10:0.149719 11:-0.140678 12:-0.188395 13:0.285843 14:0.050033 15:0.042886 16:0.283176 17:0.063611 18:0.134754 19:-0.365345 20:-0.006299 21:0.036049 22:0.125718 23:0.326295 24:-0.012293 25:-0.117458 26:0.105787 27:-0.033846 28:-0.120531 29:-0.180583 30:-0.030613 31:0.140400 32:-0.146694 33:-0.401625 34:0.066294 35:0.149145
1 1:-0.065372 2:0.059774 3:-0.156815 4:-0.047442 5:0.233288 6:0.210267 7:-0.170421 8:-0.136843 9:0.124148 10:0.084642 11:-0.104683 12:-0.003251 13:-0.188402 14:-0.164008 15:-0.252572 16:0.424534 17:0.081292 18:0.170276 19:0.070882 20:0.087569 21:0.204147 22:-0.087599 23:-0.113061 24:-0.073986 25:0.213776 26:0.267976 27:0.246572 28:-0.117467 29:-0.065683 30:-0.022855 31:0.366518 32:0.033188 33:0.048377 34:0.064217 35:0.155558
1 1:0.230107 2:0.203545 3:-0.090661 4:-0.131670 5:0.214849 6:-0.042203 7:-0.129649 8:-0.085935 9:0.002469 10:0.375810 11:0.113008 12:0.021214 13:-0.206892 14:-0.012636 15:-0.158542 16:-0.076628 17:0.221196 18:-0.174747 19:-0.007048 20:-0.004378 21:0.146444 22:0.236456 23:0.040359 24:-0.033086 25:-0.048548 26:-0.263172 27:-0.001420 28:-0.131411 29:-0.030726 30:-0.421790 31:-0.063893 32:-0.113507 33:0.112307 34:-0.242401 35:0.252604
1 1:-0.105517 2:0.206687 3:-0.155100 4:-0.095392 5:0.211375 6:0.087853 7:0.191867 8:-0.104522 9:0.161462 10:0.153338 11:-0.088099 12:0.340643 13:-0.038493 14:0.047039 15:-0.209733 16:0.025002 17:0.155799 18:-0.047065 19:0.038078 20:-0.197896 21:-0.068974 22:-0.084187 23:-0.151631 24:0.209804 25:0.123933 26:0.247821 27:0.211365 28:0.022048 29:0.317125 30:0.179569 31:-0.003921 32:0.231841 33:0.235103 34:0.024206 35:-0.284319
1 1:0.040208 2:0.156784 3:-0.026969 4:-0.070661 5:-0.101157 6:0.192867 7:0.066293 8:0.155733 9:-0.193407 10:0.120006 11:-0.025117 12:0.155692 13:-0.284427 14:-0.379447 15:0.090163 16:-0.194290 17:0.122749 18:0.204584 19:0.015279 20:0.052065 21:0.323323 22:0.058476 23:-0.093073 24:0.063248 25:0.160218 26:0.041951 27:-0.090162 28:0.178556 29:0.438091 30:0.205854 31:0.005849 32:0.162612 33:-0.053032 34:-0.092357 35:-0.156594
1 1:-0.162755 2:0.050322 3:0.159361 4:-0.230257 5:0.138460 6:0.014119 7:-0.006435 8:-0.031067 9:-0.149876 10:0.044011 11:-0.156553 12:0.302978 13:0.188752 14:0.291101 15:-0.116961 16:-0.358069 17:0.083430 18:0.123305 19:0.250813 20:-0.083645 21:-0.094172 22:0.013470 23:-0.044184 24:0.094299 25:0.106458 26:0.072108 27:-0.071053 28:0.411751 29:-0.013737 30:-0.030009 31:0.203632 32:-0.178700 33:0.174588 34:0.233461 35:-0.081646
1 1:0.111405 2:-0.127910 3:-0.223928 4:-0.141836 5:0.062094 6:0.086461 7:0.042753 8:-0.113401 9:0.122896 10:0.045159 11:0.246971 12:0.032056 13:-0.418987 14:0.115790 15:0.062094 16:-0.123082 17:0.233500 18:-0.067734 19:0.344258 20:-0.040882 21:0.031388 22:0.180864 23:0.055387 24:-0.219371 25:0.264323 26:0.030685 27:-0.058351 28:-0.160673 29:0.139183 30:0.194910 31:-0.310563 32:0.012291 33:0.082544 34:-0.207371 35:-0.140817
1 1:0.038145 2:-0.287923 3:0.072922 4:0.100275 5:0.045896 6:-0.197584 7:0.116341 8:0.128551 9:-0.287801 10:0.169858 11:-0.047745 12:0.098484 13:-0.014993 14:-0.344120 15:-0.068166 16:-0.162610 17:0.121901 18:0.275279 19:0.300571 20:0.172967 21:0.017360 22:0.266227 23:-0.063973 24:-0.109100 25:-0.123290 26:0.153425 27:-0.253432 28:-0.144691 29:0.058780 30:-0.309136 31:0.060805 32:-0.072895 33:0.074193 34:0.079657 35:-0.117548
1 1:0.289012 2:0.124590 3:0.081198 4:0.004261 5:0.001370 6:-0.031630 7:-0.125356 8:0.047220 9:0.238425 10:-0.415180 11:-0.002240 12:0.285163 13:-0.052385 14:0.452434 15:0.030032 16:-0.091003 17:0.010999 18:-0.179318 19:-0.085981 20:-0.032601 21:-0.076328 22:-0.072658 23:-0.316533 24:-0.174101 25:0.114170 26:-0.042190 27:-0.074604 28:0.108002 29:-0.210942 30:-0.126086 31:-0.115411 32:0.045846 33:-0.179439 34:-0.038622 35:0.155989
1 1:0.261093 2:-0.146686 3:-0.056352 4:0.043624 5:-0.146835 6:0.231701 7:0.152346 8:-0.135880 9:0.346246 10:-0.116737 11:0.313177 12:-0.017181 13:0.072742 14:-0.026100 15:-0.009839 16:0.145603 17:-0.083069 18:-0.105480 19:-0.139635 20:-0.044010 21:-0.177886 22:0.077777 23:-0.041022 24:-0.045718 25:0.201230 26:0.190599 27:-0.025387 28:0.026175 29:-0.044678 30:0.453122 31:0.086068 32:-0.209373 33:-0.259383 34:-0.118854 35:0.173530
1 1:0.209395 2:-0.140508 3:0.181186 4:-0.018785 5:-0.055040 6:0.186624 7:0.200952 8:0.149073 9:0.005609 10:0.211102 11:-0.217162 12:0.086799 13:0.100374 14:-0.179801 15:-0.182920 16:0.080334 17:-0.006493 18:-0.060688 19:0.101920 20:0.027288 21:0.351419 22:-0.185304 23:0.058609 24:-0.023084 25:-0.455239 26:-0.016709 27:0.039242 28:0.241106 29:0.108683 30:-0.003461 31:0.067504 32:-0.032185 33:0.025932 34:0.259627 35:-0.303011
1 1:0.108491 2:-0.075009 3:-0.182721 4:-0.189796 5:-0.013686 6:0.123216 7:-0.079242 8:-0.052196 9:-0.340422 10:-0.188474 11:-0.174863 12:0.034969 13:-0.019632 14:0.358340 15:0.173058 16:-0.200667 17:0.087791 18:-0.135424 19:-0.153693 20:0.117620 21:0.064994 22:-0.121188 23:0.004380 24:0.483298 25:-0.016552 26:-0.034520 27:-0.185694 28:-0.044129 29:0.120824 30:-0.149980 31:-0.035847 32:0.018138 33:-0.270633 34:-0.116596 35:0.164784
1 1:-0.258949 2:0.202176 3:0.030333 4:-0.169800 5:-0.014247 6:-0.137063 7:0.034187 8:-0.109691 9:0.048574 10:0.191280 11:0.082126 12:0.148181 13:-0.077972 14:0.273616 15:0.046951 16:0.345637 17:0.317998 18:0.088986 19:-0.105013 20:-0.091214 21:0.205238 22:0.117598 23:0.115971 24:0.118840 25:0.267443 26:0.146634 27:0.171624 28:0.196612 29:-0.218819 30:0.315392 31:-0.087287 32:-0.003513 33:0.046529 34:-0.171773 35:-0.012508
1 1:-0.161972 2:-0.168222 3:0.370361 4:-0.152773 5:0.155428 6:0.040279 7:0.403335 8:-0.071512 9:-0.089339 10:-0.100195 11:0.050361 12:-0.307559 13:-0.219183 14:0.006086 15:0.093209 16:-0.068429 17:0.305054 18:-0.025973 19:-0.265826 20:-0.198565 21:0.066117 22:0.056913 23:-0.034876 24:0.236172 25:-0.028022 26:0.000904 27:0.209132 28:-0.010893 29:-0.030124 30:-0.136177 31:0.011990 32:-0.216583 33:-0.073860 34:-0.028993 35:-0.170061
