-1 1:0.766109 2:-0.243689 3:-0.474773 4:0.322357 5:0.552952 6:1.029224 7:0.006908 8:-1.064741 9:-1.087585 10:-0.354754 11:-0.820645 12:1.036016 13:0.121137 14:0.186135 15:0.426786 16:-1.725414 17:-0.774790 18:0.081305 19:0.014147 20:0.839400 21:0.570615 22:-0.071465 23:1.540894 24:0.768665 25:-2.252122 26:-0.097182 27:-0.164290 28:1.737360 29:-0.368806 30:-1.004270 31:1.723515 32:-0.175004 33:0.425986 34:0.378451 35:0.562678 36:0.283431 37:-0.178975 38:0.180202 39:-0.644420 40:0.434742 41:1.188836 42:0.979787 43:1.273621 44:0.514704 45:-1.751528 46:-1.123448 47:0.356135 48:0.582239 49:-0.112332 50:0.651673 51:0.357345 52:-1.295209 53:0.520418 54:0.623558 55:-1.665230 56:-1.276724 57:0.516802 58:0.786119 59:0.918162 60:0.831776 61:-1.986319 62:-1.282747 63:-0.031612 64:0.139857 65:-0.661141
-1 1:-0.693321 2:-0.800362 3:0.951918 4:1.709975 5:-0.449517 6:-0.758136 7:-0.195094 8:-1.341573 9:0.390189 10:0.370438 11:-2.786140 12:0.089247 13:0.048890 14:-2.371357 15:-1.631803 16:1.844314 17:0.091659 18:-0.265743 19:0.636206 20:-1.855285 21:0.932555 22:0.095309 23:0.625767 24:0.502830 25:-0.148929 26:-1.603928 27:-0.787531 28:1.596171 29:0.274869 30:-2.950237 31:0.240307 32:0.238805 33:-1.744720 34:0.809296 35:-0.595446 36:-0.589817 37:1.865703 38:-2.584856 39:-0.078826 40:1.722819 41:-0.582361 42:-1.481456 43:-0.702737 44:-2.196611 45:0.655021 46:0.130088 47:1.166711 48:-1.339131 49:0.941841 50:2.157425 51:1.385330 52:0.986546 53:1.181160 54:0.952438 55:-0.350034 56:-0.697033 57:0.453392 58:1.234431 59:-0.407021 60:0.299295 61:1.276602 62:-0.506857 63:0.311827 64:-1.101786 65:1.193056
-1 1:-0.565401 2:-0.428842 3:-0.037636 4:-0.095576 5:0.506967 6:-0.815185 7:0.254274 8:-0.556917 9:1.076950 10:0.146592 11:0.716575 12:-0.363921 13:-1.857463 14:0.941255 15:1.547888 16:1.158074 17:-0.660124 18:-0.223896 19:0.120813 20:0.975388 21:0.600888 22:-1.166556 23:0.783119 24:1.116668 25:1.152634 26:-0.217508 27:1.475354 28:-1.560404 29:0.300995 30:-0.641004 31:-0.872444 32:-0.630626 33:0.531144 34:-0.303995 35:-0.532658 36:1.706768 37:-0.006889 38:1.139123 39:1.140257 40:0.734816 41:-0.521322 42:1.483571 43:1.111154 44:1.325539 45:0.139398 46:-1.365130 47:-1.275207 48:-1.353016 49:-2.382852 50:0.263449 51:1.648620 52:0.075600 53:-0.336915 54:0.580547 55:-0.558445 56:0.438755 57:0.571644 58:-0.433888 59:1.249564 60:-0.652153 61:1.506650 62:0.790509 63:-0.625432 64:-0.149455 65:2.048098
-1 1:-0.190430 2:-2.313456 3:0.390653 4:0.231491 5:-1.785834 6:-0.268307 7:0.707806 8:-1.061025 9:-1.825394 10:0.166654 11:1.140991 12:0.125637 13:1.303376 14:0.012958 15:0.200726 16:-0.054744 17:-0.205524 18:0.509714 19:0.123038 20:-0.725420 21:0.025745 22:1.351350 23:0.435990 24:-0.947451 25:-0.681210 26:1.171943 27:-1.967032 28:1.130983 29:1.405638 30:1.029973 31:-0.883680 32:0.634244 33:-1.425641 34:0.843573 35:-0.236285 36:1.705313 37:1.714458 38:-0.829364 39:-0.780849 40:-0.131575 41:0.539272 42:-0.632754 43:0.870388 44:1.941284 45:0.500769 46:-0.840922 47:-1.395915 48:-0.213730 49:1.012697 50:-0.945217 51:-1.931801 52:-0.241324 53:0.010708 54:-1.331008 55:0.970433 56:0.351408 57:1.223801 58:-1.407783 59:-0.011230 60:-2.759781 61:1.529586 62:1.018045 63:1.639139 64:-0.307163 65:1.128706
-1 1:-0.512986 2:0.286064 3:-0.281591 4:-0.520598 5:0.494128 6:-0.721921 7:0.694748 8:0.058651 9:0.109997 10:-0.440331 11:1.746643 12:-0.859070 13:0.369397 14:-0.669192 15:1.193315 16:0.709192 17:-0.039209 18:1.304029 19:0.680678 20:0.927926 21:-0.684743 22:-0.387379 23:-0.606653 24:0.814306 25:0.611480 26:0.463870 27:1.091717 28:-0.477669 29:-1.111606 30:-1.244152 31:-0.029431 32:0.818035 33:-0.240603 34:1.735982 35:-0.286134 36:0.348693 37:1.569835 38:-0.153859 39:-0.990511 40:-1.604132 41:-0.369857 42:0.287299 43:-0.926782 44:0.976977 45:0.609619 46:0.093538 47:-0.150656 48:0.140434 49:1.215107 50:-2.635502 51:-0.220784 52:-2.115320 53:-1.416347 54:-0.835358 55:-0.019711 56:-0.364106 57:-0.042362 58:0.591210 59:0.412302 60:-0.272151 61:-0.727128 62:-2.140571 63:-0.076340 64:0.734541 65:0.513826
-1 1:1.158227 2:-0.636554 3:0.121110 4:-1.074103 5:0.199397 6:-0.243315 7:-0.229717 8:1.838520 9:1.250319 10:0.025675 11:-0.952602 12:-1.665344 13:-1.373755 14:1.257828 15:-1.826755 16:-1.011258 17:-0.396919 18:-0.897575 19:0.510875 20:-1.294048 21:-0.876079 22:0.647978 23:-1.986076 24:-0.275276 25:0.314595 26:-1.463367 27:0.845580 28:1.323273 29:-0.136479 30:-0.703048 31:-0.357380 32:0.137964 33:-0.417443 34:-1.007939 35:0.757525 36:0.737274 37:-0.252416 38:0.941854 39:0.628264 40:0.470727 41:0.441910 42:0.419554 43:-0.513123 44:-1.758551 45:0.511711 46:0.396759 47:2.733693 48:0.279164 49:0.746723 50:0.023090 51:0.653979 52:-0.195992 53:-0.112004 54:0.508050 55:-1.032981 56:-0.789783 57:-0.734703 58:0.084870 59:0.694622 60:0.471854 61:-0.605179 62:-1.603081 63:1.231186 64:-1.490326 65:1.428176
-1 1:0.623155 2:-1.598448 3:-0.334103 4:0.275037 5:1.646995 6:1.159436 7:-0.905300 8:0.515963 9:-0.323121 10:0.843141 11:0.106733 12:-0.181889 13:0.542722 14:2.769186 15:-1.116876 16:2.387689 17:-0.499502 18:-0.616933 19:-0.736067 20:-0.454939 21:0.699869 22:0.631125 23:-0.751140 24:-0.776236 25:-0.609215 26:1.539761 27:-0.268153 28:-0.766171 29:-1.197974 30:-0.431042 31:1.580693 32:-1.149878 33:-0.124481 34:-2.013857 35:0.681321 36:-0.650728 37:-0.116988 38:0.403587 39:-0.421918 40:-0.198263 41:0.206302 42:1.576512 43:-0.190650 44:-0.102313 45:1.427479 46:0.277754 47:0.878403 48:1.196682 49:-0.624485 50:0.859518 51:-0.869068 52:1.516554 53:-0.489828 54:1.040201 55:0.215481 56:-0.020002 57:0.837364 58:0.188596 59:0.882288 60:1.768383 61:-2.089044 62:-0.749368 63:1.252158 64:-1.078763 65:0.576253
-1 1:-0.168062 2:-1.691528 3:0.289417 4:1.087085 5:-0.484132 6:-1.689796 7:0.057730 8:-0.141910 9:-0.923048 10:-1.179081 11:0.261395 12:0.108266 13:-0.172625 14:-0.082782 15:0.323767 16:-1.933863 17:1.305329 18:-0.232987 19:1.174673 20:0.059796 21:-1.416257 22:-0.773498 23:1.175726 24:0.375288 25:1.010833 26:0.265885 27:1.338743 28:0.657246 29:1.005656 30:-1.663061 31:-0.445061 32:0.057507 33:-0.142778 34:0.881006 35:1.373255 36:-0.808881 37:0.954104 38:-0.085797 39:-1.316030 40:-0.386044 41:-0.803124 42:-0.272192 43:0.745464 44:-0.469330 45:2.477746 46:1.340166 47:-0.537413 48:-0.791137 49:0.083658 50:-0.359301 51:1.679191 52:-1.814455 53:-1.403957 54:1.099389 55:0.526791 56:-0.253888 57:0.508253 58:0.101953 59:0.183836 60:-1.968653 61:0.491920 62:-1.457809 63:2.080821 64:0.780243 65:-0.057365
-1 1:0.763902 2:-0.634011 3:1.174563 4:0.062411 5:0.571369 6:1.700884 7:-0.085788 8:-1.016719 9:-0.583518 10:1.230798 11:1.527891 12:0.056685 13:0.374853 14:-0.790329 15:-1.469204 16:0.693941 17:-1.198894 18:1.853161 19:-0.199050 20:0.518632 21:0.019661 22:-0.535814 23:-1.309119 24:0.217381 25:-1.092401 26:1.067782 27:1.105677 28:0.538197 29:-1.543786 30:-0.388461 31:-0.718361 32:-0.846071 33:0.983337 34:-0.787424 35:1.391149 36:-2.557212 37:1.233964 38:0.766226 39:-0.937569 40:0.822580 41:-2.173230 42:-0.419392 43:1.890801 44:-2.089991 45:0.583197 46:0.445556 47:-0.342048 48:0.823091 49:-0.546000 50:0.318816 51:-0.083536 52:-1.351853 53:-1.071262 54:-0.014629 55:-0.120214 56:-0.301980 57:-1.039791 58:-1.956953 59:0.156600 60:0.003666 61:-0.534183 62:1.476422 63:0.039166 64:-2.315697 65:0.841648
-1 1:0.304487 2:0.872757 3:-0.394130 4:-0.984318 5:1.075960 6:0.661292 7:2.438291 8:-0.580227 9:-0.548067 10:0.350299 11:1.326579 12:-1.364666 13:0.386185 14:-1.285735 15:0.032303 16:0.435704 17:-0.189597 18:0.240359 19:0.059419 20:-0.324404 21:0.219473 22:-0.151187 23:1.419485 24:1.052189 25:-1.243276 26:0.605031 27:-0.697032 28:-1.007561 29:0.748102 30:-0.122101 31:-0.584339 32:0.257461 33:-0.268818 34:0.561921 35:1.821676 36:0.331610 37:-1.323876 38:1.305267 39:0.300315 40:0.511359 41:0.814211 42:0.389038 43:0.289491 44:-0.676595 45:-0.575830 46:0.141652 47:-0.865396 48:-1.132635 49:0.850806 50:0.633666 51:-1.187851 52:1.045203 53:-2.308440 54:-0.071681 55:-0.582246 56:0.296237 57:-1.381011 58:-2.015384 59:-1.284712 60:1.284174 61:-1.001147 62:0.018593 63:1.529472 64:0.053734 65:-0.529974
-1 1:0.404858 2:0.720555 3:1.469447 4:0.172602 5:0.340248 6:-1.794888 7:2.359504 8:0.254271 9:-1.904851 10:1.777319 11:1.537842 12:-1.469990 13:-2.276502 14:1.408996 15:-0.236920 16:-0.577407 17:-0.849470 18:0.243820 19:-0.668527 20:-2.070906 21:-0.031643 22:1.111419 23:0.702472 24:-0.255122 25:-0.994573 26:0.836189 27:1.530505 28:0.408767 29:0.835910 30:0.200061 31:-1.537591 32:-0.968261 33:-0.667669 34:-1.705250 35:1.167227 36:-0.050875 37:0.423209 38:-1.184219 39:-0.293417 40:1.779877 41:-0.366512 42:-0.001305 43:-0.856821 44:-1.706179 45:0.354782 46:0.017902 47:-0.294065 48:-0.758180 49:0.388969 50:-0.179325 51:0.864958 52:-0.527340 53:-0.396993 54:1.703304 55:0.395216 56:0.538409 57:-1.321677 58:0.651413 59:0.060903 60:1.321949 61:-0.242051 62:1.453702 63:-0.264803 64:0.048735 65:1.898313
-1 1:-0.181356 2:-1.314139 3:-0.184688 4:-1.094559 5:1.791447 6:1.737548 7:0.152150 8:0.091169 9:1.201329 10:-1.166131 11:1.204928 12:1.200284 13:1.011194 14:-1.026013 15:-0.824934 16:0.250949 17:-0.134767 18:-0.561629 19:-0.202977 20:0.377931 21:-0.425612 22:-0.970867 23:0.142709 24:1.975117 25:-0.404912 26:1.816123 27:-0.528409 28:-1.818896 29:-1.793957 30:0.302088 31:1.257542 32:0.183565 33:0.119770 34:-0.099605 35:-1.309838 36:0.097018 37:-0.057789 38:0.120466 39:0.123272 40:-1.571808 41:-0.840649 42:-0.597769 43:-3.521422 44:0.881701 45:2.077241 46:-0.279788 47:2.246352 48:2.539875 49:0.809553 50:0.494467 51:-0.496321 52:0.827839 53:-1.377519 54:-1.066129 55:0.953829 56:1.482051 57:1.121763 58:0.447415 59:1.292081 60:0.340347 61:-2.547429 62:-1.661339 63:0.205082 64:1.739700 65:-0.882269
-1 1:-1.518450 2:0.951588 3:0.998971 4:-0.138229 5:-0.141811 6:-1.387075 7:-0.215038 8:-1.273583 9:1.259856 10:0.640010 11:0.069421 12:-0.160765 13:0.609277 14:0.693929 15:0.440695 16:-0.939126 17:0.474577 18:2.882929 19:-0.967750 20:0.574844 21:-1.543323 22:-0.525373 23:-1.028825 24:-1.687440 25:0.152296 26:0.386465 27:0.456432 28:1.462230 29:-0.196084 30:1.183701 31:3.103238 32:1.124447 33:-0.378136 34:-1.464685 35:-0.478854 36:-0.518969 37:0.214865 38:-1.311289 39:-2.022456 40:-0.038524 41:0.083436 42:0.040964 43:-0.918916 44:1.156364 45:-0.561630 46:-0.539064 47:0.678393 48:1.686613 49:1.469321 50:1.449043 51:1.090977 52:-0.189144 53:-1.589418 54:1.459084 55:0.000777 56:0.634732 57:1.929404 58:2.309305 59:-0.756894 60:0.922184 61:-0.070801 62:-0.033376 63:0.114628 64:-0.354264 65:-1.249303
-1 1:0.155672 2:-0.572078 3:0.860362 4:-2.022003 5:0.546505 6:-0.126207 7:0.706895 8:0.858139 9:-0.348065 10:-0.005926 11:-0.217137 12:0.178245 13:-0.408128 14:-0.641979 15:0.154000 16:-1.711474 17:0.189576 18:0.144849 19:-0.288970 20:-0.122855 21:-0.361904 22:-0.362583 23:-0.335803 24:-0.189567 25:0.037982 26:-0.155380 27:-0.454778 28:0.369248 29:-0.433645 30:0.329404 31:0.420079 32:0.544560 33:1.143659 34:-2.269275 35:1.388276 36:1.390708 37:0.324652 38:-0.730699 39:-0.593199 40:0.280616 41:0.393774 42:0.030019 43:0.759236 44:0.386262 45:-0.088716 46:0.635328 47:0.656307 48:0.554222 49:1.076372 50:-0.515271 51:0.050478 52:0.641803 53:-0.814946 54:-0.032603 55:0.088681 56:-0.848064 57:-0.814444 58:1.170556 59:0.044027 60:0.127076 61:-1.531054 62:-0.345742 63:0.277896 64:3.323095 65:0.766438
-1 1:1.287663 2:1.217294 3:-0.857115 4:2.810525 5:0.056471 6:0.234808 7:0.193460 8:1.252726 9:-0.908130 10:1.342407 11:0.594809 12:0.781838 13:-0.203155 14:0.050619 15:1.511430 16:-0.633621 17:0.031917 18:2.824483 19:-0.064218 20:0.289747 21:-0.983198 22:-0.563176 23:-0.801436 24:1.400481 25:0.035334 26:1.208514 27:0.432046 28:0.891431 29:0.118751 30:0.659623 31:-0.083686 32:-0.116121 33:-0.620126 34:-1.143201 35:-1.712619 36:0.559210 37:0.150635 38:-0.261703 39:-0.148000 40:1.183965 41:1.202485 42:-1.581015 43:0.110767 44:-1.309370 45:-1.286528 46:0.953703 47:-1.038691 48:0.815398 49:0.040846 50:-1.105741 51:-0.150426 52:-0.671650 53:-0.193162 54:0.869704 55:0.200420 56:0.104661 57:-1.731417 58:1.769047 59:1.490510 60:-0.441544 61:-0.221511 62:1.073315 63:0.327716 64:-1.107951 65:1.076587
-1 1:0.036201 2:1.261359 3:-0.562685 4:-1.341303 5:1.800316 6:-0.368546 7:0.454642 8:0.219444 9:-0.929771 10:-0.444368 11:-0.503299 12:-1.009214 13:0.355076 14:-1.192957 15:-0.289137 16:0.771861 17:-0.577046 18:-0.513115 19:-0.252636 20:-0.222985 21:-1.033502 22:0.001283 23:0.695177 24:1.044771 25:-0.690522 26:-0.477099 27:-1.376417 28:-1.054880 29:-1.274000 30:-0.723111 31:-0.841914 32:-0.122155 33:1.113813 34:-0.696994 35:0.712365 36:0.999784 37:0.177417 38:0.427517 39:0.520985 40:-1.169159 41:-0.360793 42:0.833507 43:0.714793 44:1.572630 45:-1.493418 46:-1.249142 47:2.244692 48:-0.664961 49:-1.782647 50:1.148704 51:-0.635736 52:0.165604 53:-1.481760 54:-0.841849 55:-0.130542 56:0.681193 57:-0.028495 58:0.442643 59:1.019956 60:0.735703 61:-0.113621 62:-0.572771 63:0.028270 64:-0.103114 65:-0.453832
-1 1:-1.953558 2:0.267908 3:-0.676316 4:-1.523879 5:1.059554 6:0.173555 7:0.327962 8:0.158973 9:-0.075938 10:0.274628 11:-0.577580 12:-0.602449 13:-0.725659 14:-0.189762 15:1.451552 16:0.914315 17:0.445267 18:1.110411 19:1.320611 20:-0.322667 21:-0.435525 22:-0.004566 23:-0.900423 24:-0.048239 25:-1.113807 26:-0.064938 27:-0.203089 28:-1.234188 29:-0.357662 30:0.164068 31:1.623353 32:-2.241586 33:0.821397 34:-1.313184 35:2.457020 36:-0.056608 37:-0.872619 38:-0.254652 39:-0.787084 40:1.882247 41:0.453094 42:0.024919 43:-1.032601 44:0.421237 45:0.255760 46:-0.907835 47:1.505690 48:0.122556 49:1.550284 50:0.062206 51:-0.361045 52:0.886620 53:0.247937 54:0.522142 55:-0.261024 56:0.511950 57:1.034737 58:-1.061364 59:-0.292619 60:0.671268 61:-0.101318 62:0.220741 63:-0.324528 64:-0.200693 65:-0.343244
-1 1:-0.069982 2:0.176895 3:0.539261 4:-0.455886 5:-0.911025 6:0.545864 7:-0.608292 8:0.349093 9:0.891153 10:0.910964 11:1.079222 12:-0.644975 13:-0.367397 14:0.148503 15:0.136504 16:-0.569808 17:0.043619 18:0.606852 19:1.073317 20:-0.266527 21:-0.669993 22:1.081744 23:0.700471 24:-0.674545 25:0.091637 26:1.332184 27:-1.913914 28:0.012784 29:-0.862509 30:0.220053 31:-2.285058 32:-1.394542 33:0.208846 34:-0.875927 35:-1.261034 36:0.317273 37:-0.712116 38:-1.326936 39:1.584811 40:1.305766 41:0.610100 42:-1.297880 43:-1.247380 44:-0.615756 45:1.335631 46:0.338065 47:-1.533396 48:-1.100250 49:0.271592 50:1.281277 51:0.517788 52:-0.146393 53:0.922498 54:0.160600 55:-0.449528 56:-0.768813 57:0.100452 58:-1.343564 59:-0.955847 60:-0.658401 61:0.882406 62:0.243894 63:-0.046699 64:-0.505781 65:-0.165547
-1 1:-0.175308 2:0.603966 3:-0.129351 4:-1.387538 5:0.764580 6:0.684934 7:-0.762157 8:0.935963 9:-0.296103 10:0.262078 11:0.113509 12:-0.669370 13:-0.401696 14:1.403494 15:0.464202 16:-1.544595 17:-0.099681 18:-0.366905 19:-0.428781 20:0.746433 21:-0.291756 22:0.502140 23:-0.580526 24:0.972166 25:-0.750405 26:0.280618 27:-0.064143 28:1.707714 29:1.047500 30:-1.088857 31:-0.803009 32:-0.215993 33:-1.105408 34:-1.740763 35:-1.886066 36:0.580574 37:-0.329153 38:0.421772 39:0.256749 40:1.268761 41:1.115238 42:-1.151021 43:-0.534560 44:-2.697737 45:0.288786 46:-0.661293 47:1.156900 48:-0.631215 49:2.319750 50:0.381038 51:0.776437 52:-0.554875 53:-0.880922 54:-0.572469 55:-0.322058 56:-0.870322 57:0.354675 58:-0.111877 59:-1.652171 60:1.400684 61:-0.051602 62:0.501918 63:-0.393398 64:-0.212667 65:0.243105
-1 1:1.761706 2:0.115743 3:0.446421 4:-0.419598 5:0.796310 6:0.476151 7:0.444979 8:0.280109 9:-0.946125 10:0.364498 11:-1.334020 12:-0.649636 13:1.106216 14:-0.306658 15:0.238796 16:-0.974108 17:0.144897 18:-0.209198 19:0.592576 20:0.691038 21:1.150703 22:-0.361506 23:0.632629 24:0.828155 25:1.888169 26:0.372568 27:-0.902040 28:-1.193597 29:0.682898 30:1.459900 31:0.260492 32:1.158161 33:-1.241545 34:1.179513 35:0.465073 36:0.509015 37:0.292736 38:-1.219919 39:2.998532 40:-0.844594 41:-0.529924 42:0.494116 43:0.713877 44:-0.759426 45:-0.273155 46:-0.867172 47:1.754687 48:1.407616 49:-0.282030 50:0.608018 51:1.640508 52:0.272417 53:0.585558 54:-1.011452 55:-0.292123 56:2.141608 57:-0.438622 58:-0.988564 59:0.856013 60:-1.163345 61:0.040253 62:1.258542 63:0.608147 64:-1.156069 65:1.099276
-1 1:0.386497 2:-0.698240 3:1.084008 4:-0.438741 5:-0.466874 6:-1.082634 7:0.469057 8:0.164880 9:0.373799 10:1.601560 11:0.246790 12:0.896701 13:0.884419 14:-0.834354 15:1.347861 16:-0.434633 17:-1.569319 18:-0.607943 19:-1.253528 20:0.097833 21:-0.433790 22:0.746673 23:0.667931 24:-0.586580 25:0.466079 26:0.243599 27:-0.462136 28:-1.507689 29:-0.351670 30:-1.427355 31:0.921312 32:-0.096138 33:-1.545183 34:-1.366231 35:0.040958 36:-1.719353 37:-1.538865 38:0.504501 39:0.219171 40:-0.602174 41:0.587511 42:0.971214 43:0.457804 44:-0.632174 45:-0.360688 46:0.230795 47:-0.908308 48:0.115192 49:-1.001339 50:0.529732 51:-0.327181 52:1.105234 53:0.531695 54:-1.028110 55:-0.383186 56:0.714948 57:-0.438164 58:1.787983 59:0.443206 60:0.850106 61:0.123412 62:1.192843 63:-0.228288 64:-0.995714 65:-1.376370
-1 1:-0.961005 2:0.108466 3:0.626190 4:1.605030 5:-0.850165 6:-1.981584 7:-0.572014 8:0.131518 9:1.471111 10:-0.810809 11:-0.142975 12:-0.274235 13:0.866646 14:-2.841700 15:0.521040 16:-1.110934 17:0.330072 18:0.179789 19:-1.251469 20:-0.520975 21:0.831513 22:-1.203400 23:0.172083 24:0.227997 25:-1.015674 26:-0.546107 27:-0.578377 28:-0.113884 29:-0.151860 30:0.345676 31:-2.020985 32:-0.992442 33:-0.639011 34:-0.909551 35:0.020675 36:-0.136109 37:1.391180 38:0.382719 39:1.149766 40:-0.554230 41:0.013673 42:2.087691 43:0.670309 44:-1.778052 45:0.822411 46:-1.766753 47:0.278168 48:0.068525 49:-0.151192 50:2.530077 51:0.726598 52:-1.200881 53:-0.170858 54:0.259683 55:0.233606 56:-0.114851 57:-1.312537 58:-1.449844 59:0.798949 60:0.390731 61:-1.572013 62:1.144492 63:-0.904999 64:1.040649 65:-1.319345
-1 1:-0.746569 2:-0.288761 3:-0.857375 4:0.297120 5:0.695650 6:0.912639 7:1.244851 8:1.085456 9:-0.937502 10:-0.214420 11:0.371413 12:-0.629464 13:-1.294097 14:0.911563 15:-0.524146 16:-0.517501 17:1.133267 18:-0.064586 19:1.738307 20:-1.094449 21:1.282708 22:0.035250 23:0.026451 24:-1.123444 25:-0.574120 26:1.055443 27:0.522772 28:2.398415 29:-1.292542 30:-0.816579 31:0.468523 32:0.443110 33:1.030397 34:0.186230 35:1.070331 36:1.060796 37:1.453297 38:1.146019 39:0.543870 40:0.386242 41:1.704399 42:0.452946 43:0.997406 44:-1.613374 45:-0.922810 46:-0.937367 47:1.884353 48:-2.064337 49:-0.567711 50:1.270176 51:0.807713 52:-1.614541 53:-1.758498 54:1.198358 55:-1.454888 56:-1.414589 57:-1.815583 58:-0.776781 59:0.606000 60:-0.730254 61:-0.418934 62:1.075561 63:-0.413852 64:-0.249470 65:0.090951
-1 1:0.445167 2:-0.668886 3:0.311817 4:0.159950 5:-0.286778 6:1.140940 7:0.166773 8:-0.585571 9:1.008008 10:0.303171 11:-1.414580 12:0.065680 13:1.195210 14:-0.315996 15:-0.111637 16:-1.030052 17:1.229265 18:-2.417945 19:-0.004836 20:0.258670 21:-1.139771 22:-0.540429 23:-0.882999 24:-1.750808 25:0.201868 26:-1.373017 27:-0.336878 28:0.172701 29:-0.858930 30:0.444851 31:0.254764 32:-0.178592 33:1.378109 34:0.974640 35:1.791359 36:0.762114 37:-0.180565 38:-0.235040 39:0.911674 40:1.726890 41:-1.057186 42:-0.756565 43:-0.102536 44:0.521059 45:0.577416 46:1.037451 47:1.161636 48:-0.528906 49:-0.856216 50:-0.823417 51:-0.679863 52:0.814319 53:0.332926 54:-0.135434 55:0.544871 56:-1.398125 57:-1.138841 58:1.500648 59:0.552340 60:0.227613 61:0.665290 62:0.851608 63:-1.024801 64:-0.108057 65:0.423842
-1 1:0.714073 2:0.531213 3:0.423783 4:-0.200060 5:-0.521619 6:-0.564514 7:0.809034 8:0.336873 9:0.890677 10:2.221708 11:-1.507260 12:-0.194551 13:-0.711639 14:0.245080 15:0.254780 16:-1.228100 17:0.125104 18:-1.841357 19:-0.733041 20:-0.088055 21:1.752944 22:-0.195873 23:3.106821 24:1.086824 25:0.890964 26:0.447375 27:1.226911 28:-1.339462 29:-0.878043 30:0.691581 31:0.906776 32:-0.434632 33:-0.316565 34:0.013302 35:-0.848711 36:-0.490624 37:0.176945 38:-1.938999 39:-0.115903 40:0.993009 41:-0.677500 42:-0.422705 43:1.296803 44:-0.564771 45:1.562229 46:0.958420 47:-0.768645 48:1.339902 49:-2.211892 50:0.208337 51:2.193889 52:0.362690 53:-1.680522 54:-1.014047 55:1.728228 56:0.666069 57:-0.718792 58:-1.464065 59:-0.823188 60:-1.377601 61:-1.289163 62:0.421702 63:-2.390293 64:-0.606749 65:-1.358979
-1 1:0.232480 2:0.077663 3:0.420952 4:-0.260834 5:-3.281908 6:-1.514160 7:-1.380140 8:-0.161416 9:0.682824 10:-0.551878 11:-0.303180 12:-0.841250 13:-0.709073 14:0.552129 15:0.074783 16:-0.048728 17:-0.763694 18:0.480677 19:1.133747 20:1.692344 21:-1.395575 22:1.884956 23:0.047507 24:-0.576352 25:-0.349646 26:-0.653994 27:-0.880184 28:-0.874481 29:-0.513713 30:0.157094 31:-0.920964 32:-1.512351 33:0.924990 34:0.321580 35:1.333398 36:0.864788 37:0.853078 38:-0.559047 39:0.649269 40:1.815927 41:1.083051 42:-1.602196 43:0.207689 44:-1.106758 45:-0.185189 46:-0.160608 47:1.358118 48:-0.339613 49:-0.134743 50:0.115057 51:-0.046012 52:0.459810 53:-0.235919 54:0.040333 55:-1.747332 56:1.063940 57:-0.432136 58:1.596902 59:-0.676189 60:0.299926 61:0.361924 62:1.502080 63:1.300896 64:0.658402 65:0.595693
-1 1:-1.020978 2:2.037128 3:1.566567 4:1.343817 5:0.211136 6:0.959752 7:0.288823 8:-0.907949 9:0.125501 10:-1.374404 11:-0.798308 12:-0.541449 13:-0.011061 14:-0.387579 15:-0.099118 16:1.181195 17:0.856289 18:-1.043868 19:-0.725998 20:2.489182 21:0.971805 22:-1.033929 23:-0.846162 24:-0.084731 25:-1.249925 26:-0.963480 27:0.642472 28:0.677143 29:0.586311 30:0.515469 31:0.055430 32:-1.337640 33:-0.124452 34:0.167613 35:0.989864 36:0.243400 37:2.615800 38:1.436813 39:1.587928 40:-0.781933 41:0.304462 42:-0.567962 43:0.353892 44:0.192520 45:0.502414 46:0.988055 47:-1.969941 48:0.520204 49:1.160444 50:2.068508 51:0.327266 52:0.938298 53:0.372651 54:-0.734625 55:-0.059168 56:0.152347 57:0.081586 58:-0.166063 59:0.180647 60:-2.411544 61:-0.017317 62:-2.758473 63:-1.512510 64:0.963512 65:-0.110546
-1 1:0.264879 2:-0.596344 3:-0.097010 4:-1.764574 5:0.552316 6:-1.633129 7:-1.971058 8:0.098216 9:0.544576 10:0.341174 11:0.918840 12:-1.429634 13:-0.024975 14:-0.673913 15:-1.325420 16:-0.555766 17:-0.887450 18:0.508495 19:0.912686 20:0.681332 21:-0.336632 22:1.135892 23:-1.263956 24:-1.680323 25:0.774433 26:-0.825193 27:-0.250156 28:-0.152628 29:0.852561 30:0.082016 31:-2.031981 32:-1.286205 33:-0.163536 34:-0.876198 35:-0.156291 36:0.493788 37:-0.239951 38:-0.719566 39:-0.571572 40:0.389964 41:-0.699880 42:-1.238973 43:-0.581440 44:-1.429667 45:-0.292083 46:-0.327785 47:-0.973008 48:0.278525 49:-0.059112 50:-0.339552 51:0.052557 52:-0.311586 53:-0.711581 54:0.438624 55:-0.164210 56:0.341238 57:1.573400 58:-0.344460 59:0.342717 60:0.426121 61:0.644172 62:0.222141 63:-0.325545 64:0.493090 65:-0.926571
-1 1:0.311218 2:0.261146 3:-0.788255 4:-0.283701 5:0.273990 6:1.258862 7:-0.268233 8:0.023918 9:-1.054648 10:1.169366 11:0.460504 12:-1.221156 13:-1.015745 14:-0.719020 15:-1.835637 16:0.074440 17:1.814565 18:-0.502188 19:-0.012267 20:2.114964 21:0.677215 22:0.249757 23:-0.020498 24:-0.808397 25:0.012809 26:-1.657260 27:-1.082299 28:0.587618 29:0.449587 30:-0.884576 31:0.460982 32:-0.227618 33:0.418827 34:0.187309 35:0.227283 36:1.294520 37:1.208172 38:-0.787789 39:0.845699 40:-0.907707 41:-0.151697 42:-1.216679 43:-1.765373 44:0.199326 45:1.752406 46:-0.311882 47:0.633970 48:0.600940 49:-0.713230 50:-1.863914 51:1.028038 52:-1.232281 53:0.830921 54:-0.180615 55:-0.883807 56:-0.045272 57:-0.458846 58:0.821849 59:0.729378 60:-0.951794 61:0.149851 62:-2.236822 63:0.515164 64:-0.845516 65:-0.331320
-1 1:-0.174927 2:1.913839 3:-0.507662 4:-1.884327 5:-1.313133 6:0.210281 7:-0.277734 8:-1.345833 9:-0.573464 10:-0.206217 11:-0.149796 12:0.260159 13:0.955749 14:0.388976 15:1.415371 16:1.723302 17:0.433534 18:0.803254 19:-2.137006 20:-2.866582 21:0.396498 22:-0.260625 23:-0.560656 24:-0.069014 25:-0.027496 26:-0.212805 27:-1.843834 28:-1.043439 29:0.196178 30:-1.133157 31:0.737930 32:-0.784792 33:0.373609 34:-0.210230 35:0.288698 36:-0.050418 37:1.316585 38:0.297894 39:-0.043834 40:0.643200 41:0.469688 42:3.184835 43:-3.663126 44:0.112354 45:0.372277 46:-0.819831 47:-0.160581 48:0.463443 49:-0.171547 50:-0.246970 51:-0.227960 52:1.037860 53:1.439526 54:-0.341299 55:0.513712 56:-1.326558 57:0.377601 58:-1.224708 59:-1.422988 60:0.645964 61:0.129501 62:-1.246628 63:-0.464383 64:1.509834 65:0.649773
-1 1:0.324664 2:-0.009452 3:-1.928433 4:-0.064328 5:-1.567363 6:-1.931064 7:-0.293527 8:0.228883 9:0.195127 10:-0.087663 11:1.183588 12:-1.000912 13:-0.361994 14:0.727430 15:-0.510930 16:0.143219 17:0.413615 18:-0.923611 19:1.906364 20:0.304563 21:-0.262590 22:-0.489591 23:0.393417 24:-0.655194 25:-0.043676 26:0.236353 27:-1.032228 28:1.162426 29:-0.355069 30:-0.720381 31:0.273999 32:-2.351363 33:-0.606681 34:1.134712 35:0.111892 36:1.328837 37:0.857909 38:1.805530 39:0.662828 40:1.131638 41:0.524294 42:0.347273 43:-1.647646 44:0.485380 45:0.113806 46:-0.109211 47:-2.051555 48:-0.171491 49:0.808599 50:0.779332 51:0.690503 52:-0.512205 53:0.235644 54:-1.269866 55:-0.605004 56:0.014557 57:-1.309621 58:0.365490 59:-1.491301 60:1.142246 61:0.613860 62:-1.390129 63:-2.446622 64:-0.642368 65:-0.991234
-1 1:-1.039464 2:0.916705 3:-0.055484 4:0.466977 5:-0.018041 6:0.208790 7:-0.398428 8:-1.803035 9:-2.463159 10:-0.756348 11:2.583000 12:-0.469772 13:-0.230839 14:0.866068 15:-0.422425 16:1.955532 17:1.169313 18:-0.379937 19:0.404866 20:0.062233 21:1.987166 22:0.351778 23:0.606392 24:0.097462 25:0.499565 26:1.285099 27:0.441859 28:0.389831 29:0.706481 30:0.357821 31:0.339001 32:-1.642045 33:1.272813 34:0.337380 35:0.327076 36:-0.566072 37:0.398034 38:-0.797633 39:-0.111583 40:-0.733001 41:-0.736175 42:-1.367365 43:0.487332 44:0.455285 45:-0.411440 46:-0.278120 47:0.067684 48:0.810582 49:1.489462 50:-0.387998 51:0.779731 52:-0.097196 53:-0.619443 54:0.221990 55:-1.119765 56:-0.368079 57:-0.865629 58:0.986551 59:0.228677 60:-0.847576 61:-0.743882 62:1.820781 63:-0.869010 64:-1.172099 65:0.668297
-1 1:0.187002 2:-0.544063 3:0.167846 4:2.327161 5:0.393351 6:-0.129990 7:-0.944538 8:1.407832 9:0.189960 10:2.009719 11:-0.437036 12:0.873499 13:-0.299810 14:0.163129 15:0.914324 16:1.411413 17:0.873276 18:-1.107647 19:-0.611123 20:0.043901 21:-1.445947 22:-1.243965 23:-1.069594 24:1.831081 25:0.170728 26:0.688689 27:1.490864 28:-0.097375 29:0.319197 30:-0.370580 31:-1.002162 32:-2.336851 33:-0.198979 34:0.560240 35:-0.077451 36:0.242404 37:1.023906 38:-1.074076 39:-0.087731 40:1.621631 41:-0.382996 42:0.514738 43:1.351607 44:-0.827953 45:1.289583 46:0.545680 47:-1.428951 48:-0.083283 49:-0.429154 50:-0.180940 51:-0.598154 52:0.583486 53:-0.663647 54:0.084836 55:0.517370 56:1.988815 57:-0.141233 58:0.056893 59:-1.020860 60:0.009574 61:1.417931 62:-0.399388 63:-1.694602 64:0.862054 65:-0.899604
-1 1:1.039147 2:0.296623 3:-1.204508 4:-0.248046 5:-1.478287 6:-0.170344 7:2.777355 8:-0.102002 9:-0.940885 10:-0.220223 11:-0.309368 12:-0.854292 13:0.003286 14:0.248209 15:-0.940499 16:-0.372473 17:-0.333495 18:-0.488812 19:-1.266260 20:-0.620922 21:0.867532 22:-1.462998 23:-2.006698 24:-0.900334 25:-0.227701 26:-1.783464 27:-0.594134 28:-1.763565 29:-0.845898 30:-0.261680 31:-0.053802 32:0.201260 33:-1.048451 34:0.208398 35:0.240348 36:-0.017312 37:-1.033236 38:-1.210665 39:0.469739 40:1.003389 41:0.778950 42:0.590448 43:-1.338642 44:-0.657971 45:-0.576592 46:-0.750909 47:1.595036 48:0.109675 49:0.021160 50:0.862173 51:0.176403 52:0.496860 53:-1.531932 54:0.434519 55:0.285022 56:1.820778 57:1.710499 58:-0.956912 59:-0.685311 60:-0.026103 61:-1.629259 62:0.247412 63:0.761237 64:-0.373505 65:-0.240357
-1 1:-1.232923 2:0.601198 3:-1.353528 4:0.424989 5:1.470949 6:-1.943760 7:-0.369989 8:0.672728 9:0.801181 10:-0.294791 11:0.592551 12:0.744469 13:-0.980272 14:-0.714817 15:-0.621214 16:-0.538660 17:-0.563560 18:0.382871 19:-2.362776 20:-0.597338 21:0.219244 22:-0.682835 23:0.466970 24:-0.294679 25:0.038866 26:-1.252837 27:-0.456620 28:-0.127266 29:0.244726 30:-0.091886 31:-1.682499 32:-1.056635 33:1.022514 34:-0.665830 35:0.213813 36:-1.374540 37:-0.837343 38:-0.981908 39:0.437019 40:-1.310957 41:-1.198471 42:0.225847 43:-0.708824 44:1.991253 45:0.070073 46:1.534734 47:0.532093 48:-0.545409 49:-0.736589 50:0.619601 51:-0.679232 52:0.842657 53:0.365664 54:0.947129 55:0.643439 56:-1.535675 57:0.121910 58:0.649238 59:0.811372 60:-0.817932 61:-0.020361 62:-0.127664 63:-1.572249 64:0.726610 65:-0.940044
-1 1:-1.353283 2:-0.225420 3:2.438267 4:1.938460 5:-0.618965 6:1.449186 7:-0.799328 8:-0.018642 9:-1.715419 10:-0.416618 11:-0.459095 12:0.483431 13:-0.138078 14:-0.034366 15:-0.107504 16:1.039795 17:0.539220 18:-2.128809 19:1.507925 20:0.259559 21:1.058547 22:-0.982386 23:-0.252293 24:2.808640 25:-1.063807 26:0.618662 27:0.311455 28:0.192926 29:1.150001 30:0.652064 31:2.284994 32:-0.329648 33:-0.891430 34:1.488065 35:1.293375 36:-0.693198 37:0.829390 38:-0.401775 39:-0.524791 40:0.025100 41:-0.547241 42:-0.275948 43:-1.748467 44:1.920719 45:0.488851 46:-0.874719 47:-1.462120 48:1.232802 49:0.152193 50:-0.705712 51:1.230995 52:-0.001724 53:-0.769169 54:-2.612287 55:1.343842 56:-1.238262 57:-0.464441 58:-0.756120 59:1.157907 60:0.412175 61:0.600519 62:0.604597 63:-0.373077 64:-0.283190 65:0.647524
-1 1:-0.851456 2:0.184643 3:0.433721 4:-0.268676 5:0.573961 6:-1.264025 7:-0.974077 8:-0.835325 9:0.280327 10:0.122627 11:1.462638 12:-0.451919 13:-1.296457 14:-0.393677 15:-0.219698 16:-0.090135 17:0.898289 18:0.183992 19:-0.294839 20:-1.166833 21:0.126818 22:0.720711 23:2.076720 24:1.475116 25:0.090590 26:0.174585 27:0.494863 28:-1.534057 29:0.153963 30:0.571392 31:-1.182722 32:-1.069937 33:0.062052 34:-1.752354 35:-1.544113 36:-0.090013 37:0.716880 38:-1.555625 39:-0.860673 40:-0.823660 41:1.550046 42:1.445880 43:-0.491362 44:0.720624 45:0.287762 46:1.205219 47:0.727868 48:-1.250552 49:0.787045 50:-1.889252 51:-0.543170 52:-0.984278 53:-0.359384 54:0.746760 55:0.497554 56:0.831144 57:1.135365 58:-0.218717 59:0.010033 60:1.488047 61:1.105431 62:0.495033 63:1.015453 64:0.528838 65:0.814822
-1 1:0.065931 2:1.120583 3:-0.114604 4:0.071228 5:-0.063592 6:-0.675858 7:-1.549115 8:1.404467 9:-0.153272 10:1.315566 11:-0.023644 12:0.427928 13:0.093638 14:-0.332864 15:0.309539 16:-1.332721 17:0.004308 18:0.163217 19:0.223777 20:-1.163778 21:-1.801621 22:-0.357119 23:1.224713 24:-0.826640 25:0.951003 26:0.131405 27:-2.128841 28:0.032849 29:-0.673456 30:1.734057 31:0.950091 32:-0.646003 33:1.592652 34:0.076688 35:-0.139900 36:0.658504 37:-2.285668 38:-0.288422 39:-1.303106 40:-0.211357 41:-0.928039 42:-0.539147 43:-0.340614 44:-1.201254 45:0.506569 46:0.737731 47:-3.085063 48:-1.665771 49:0.993246 50:-0.325061 51:0.167818 52:-0.620180 53:0.616410 54:0.662441 55:1.171615 56:0.594209 57:-0.221903 58:-1.482628 59:-1.084613 60:-0.610544 61:-0.939755 62:0.634949 63:0.297108 64:0.984055 65:0.509115
-1 1:-0.578839 2:-1.176522 3:0.727444 4:0.321203 5:-1.112866 6:0.645922 7:-0.737553 8:-1.125261 9:0.657650 10:-0.739012 11:-1.328762 12:-1.283583 13:0.168093 14:-1.373365 15:-1.463567 16:0.244473 17:0.852289 18:-0.172571 19:-0.115453 20:-0.681738 21:0.261230 22:-0.832485 23:0.625315 24:2.016571 25:-1.628129 26:-0.787562 27:-2.040139 28:2.139229 29:-0.232912 30:0.767549 31:-0.421872 32:-1.063355 33:0.005295 34:-1.687577 35:0.988710 36:0.879213 37:0.709158 38:0.083148 39:0.827380 40:-0.708925 41:2.606909 42:0.866163 43:0.054224 44:-0.006426 45:0.615654 46:-1.059701 47:-1.351007 48:-1.177005 49:-0.012761 50:-2.123296 51:0.105316 52:-1.438056 53:0.598498 54:-0.071572 55:0.086510 56:-0.238759 57:-0.694066 58:-0.379823 59:0.870702 60:0.715589 61:-0.229016 62:1.242177 63:-0.993392 64:-1.414841 65:-1.306849
-1 1:0.629836 2:0.269912 3:0.070046 4:0.664369 5:-0.768301 6:0.943961 7:1.090534 8:0.349584 9:0.228455 10:1.346978 11:-0.212440 12:1.161984 13:-1.020772 14:-1.208341 15:-0.425629 16:-1.084191 17:0.771568 18:0.863671 19:1.271302 20:-0.391698 21:-0.015931 22:-0.514440 23:-0.563580 24:-1.620987 25:-0.592866 26:-0.208256 27:1.381492 28:0.422871 29:-0.353476 30:0.701945 31:0.604978 32:-1.655661 33:-0.743119 34:0.037933 35:0.210400 36:0.637194 37:0.035055 38:0.803566 39:1.116827 40:0.029078 41:-0.607954 42:-0.124693 43:0.138003 44:0.232549 45:0.960611 46:-0.229865 47:0.004833 48:0.818746 49:0.158381 50:-0.635664 51:-1.345263 52:0.799624 53:0.995921 54:0.302719 55:0.298399 56:-0.651971 57:0.401984 58:1.663100 59:-0.089548 60:-0.076371 61:0.507464 62:1.076511 63:0.586730 64:-0.955599 65:-0.419614
-1 1:-0.559423 2:1.662062 3:-1.032430 4:1.615308 5:0.153715 6:-1.017380 7:0.170299 8:0.409241 9:-0.907050 10:-0.994288 11:-0.170141 12:0.169210 13:0.294557 14:-0.939852 15:-1.497693 16:-2.082243 17:-0.637793 18:1.047002 19:0.205351 20:1.287416 21:1.694995 22:-1.373484 23:-0.279247 24:-0.285121 25:0.185809 26:0.892189 27:-1.092061 28:-0.549373 29:0.628427 30:0.170564 31:-0.273849 32:-0.251987 33:-0.243306 34:-0.711791 35:0.877004 36:-0.659854 37:0.856242 38:1.512909 39:-0.925102 40:-1.331017 41:-0.112394 42:0.542443 43:-0.039701 44:0.000012 45:-0.426821 46:0.862090 47:-0.913373 48:-0.064801 49:-1.235743 50:0.474018 51:0.119412 52:1.648718 53:-1.528247 54:-1.066798 55:-1.543495 56:-0.817269 57:-0.848332 58:0.018341 59:-0.587067 60:1.057787 61:-0.817200 62:1.742222 63:-0.668928 64:-0.631720 65:-0.712351
-1 1:0.124784 2:-0.734047 3:0.755991 4:0.784775 5:-0.234139 6:-0.560784 7:1.510184 8:0.164208 9:1.414141 10:0.636493 11:-0.157331 12:-1.527937 13:0.626318 14:2.301837 15:0.580442 16:-0.030957 17:0.643528 18:0.302361 19:-0.057885 20:0.962576 21:-0.872150 22:0.928710 23:0.648499 24:-1.501541 25:0.102487 26:0.692866 27:-0.728781 28:0.824638 29:1.250644 30:0.129821 31:-1.445399 32:0.179440 33:-0.580468 34:-0.026374 35:0.600522 36:0.699030 37:-0.578535 38:-0.159154 39:-0.433361 40:0.173300 41:1.304983 42:0.399142 43:-0.769850 44:0.800608 45:-0.167143 46:-0.222906 47:1.704044 48:-1.078338 49:-0.154304 50:0.628208 51:0.078638 52:-0.298643 53:0.191467 54:-0.138107 55:-0.865369 56:1.042132 57:1.117198 58:0.549925 59:-0.290262 60:0.966962 61:0.207348 62:2.010264 63:0.318317 64:-0.169046 65:-0.050409
-1 1:0.306181 2:-0.260740 3:-0.761754 4:-1.221345 5:-0.483750 6:0.255588 7:0.416187 8:0.092581 9:-0.841431 10:-1.904973 11:1.458684 12:-0.102069 13:1.140853 14:0.228265 15:-0.395768 16:0.989709 17:0.278241 18:0.295653 19:-1.442604 20:-0.456393 21:-0.141051 22:0.135550 23:0.299185 24:-1.170416 25:-1.681964 26:-1.872863 27:0.557227 28:0.188009 29:0.809003 30:0.509952 31:0.359041 32:0.996896 33:-1.927792 34:0.311056 35:-0.422423 36:-0.432583 37:-0.920880 38:0.875930 39:0.131891 40:0.571154 41:-0.212173 42:-0.198491 43:0.313038 44:-1.212571 45:-0.005669 46:1.528590 47:-1.406488 48:-0.579054 49:0.354477 50:1.479408 51:-0.870271 52:1.352828 53:-1.445386 54:-0.297695 55:1.620793 56:0.601562 57:-0.013679 58:1.566298 59:-0.072950 60:0.182707 61:-1.224932 62:1.003762 63:0.230152 64:-0.962860 65:-0.270637
-1 1:-0.797613 2:0.818274 3:-0.599499 4:-0.803798 5:0.205539 6:-0.328410 7:-0.258132 8:-0.555009 9:0.569985 10:0.410064 11:-0.756126 12:1.982468 13:1.215166 14:0.613413 15:0.935059 16:-0.678788 17:0.552325 18:0.287056 19:-0.756757 20:-3.232421 21:-0.124318 22:0.727330 23:0.895125 24:0.502155 25:-0.896790 26:1.071890 27:0.658195 28:-0.145897 29:-0.338908 30:1.337099 31:-0.640307 32:0.688306 33:-0.507653 34:1.118448 35:-0.702802 36:0.776976 37:2.853770 38:-0.173150 39:0.896833 40:1.070627 41:-0.904851 42:-0.155173 43:-0.512963 44:1.223488 45:0.707462 46:0.821614 47:-1.290329 48:1.787318 49:0.982510 50:-0.488993 51:0.819776 52:1.324129 53:1.090703 54:0.393722 55:-0.477008 56:-0.323837 57:-1.222535 58:0.423485 59:0.727694 60:0.284513 61:0.459338 62:-1.557977 63:1.661006 64:-0.601621 65:-1.048843
-1 1:-0.885156 2:1.017704 3:0.549408 4:-0.126510 5:-0.513549 6:0.217622 7:0.119196 8:-0.499536 9:-1.878561 10:0.528383 11:2.295097 12:1.055841 13:-0.582393 14:-2.260035 15:0.440482 16:0.187006 17:-1.422854 18:-0.807980 19:0.173483 20:-0.563151 21:-1.995870 22:-0.502879 23:0.714080 24:1.022268 25:-0.317636 26:3.236669 27:0.208713 28:0.915299 29:0.494330 30:-2.243830 31:1.089419 32:-0.067241 33:-1.211101 34:-0.974396 35:0.353179 36:-0.800279 37:1.178409 38:0.662940 39:-0.020116 40:1.015832 41:0.344136 42:0.179879 43:0.031466 44:0.400720 45:0.785330 46:0.632438 47:-0.149754 48:-0.304939 49:-0.097614 50:-0.832420 51:0.338397 52:1.554914 53:-0.773662 54:-0.673995 55:0.539548 56:-0.866583 57:0.269354 58:1.102421 59:-1.832576 60:0.356432 61:-0.721981 62:-1.224723 63:0.820047 64:-0.483889 65:0.447138
-1 1:0.518214 2:-1.542260 3:-1.459813 4:0.469724 5:-0.800120 6:-0.121141 7:-0.082413 8:0.512462 9:-0.470598 10:-0.807883 11:-0.013962 12:-0.782666 13:0.223542 14:-2.137853 15:0.148875 16:0.899884 17:0.023064 18:-0.094770 19:-0.395850 20:0.221322 21:-0.529442 22:-0.480780 23:-0.467722 24:-0.277923 25:-0.168079 26:-0.421170 27:-0.917116 28:-1.203556 29:0.227384 30:-1.021330 31:-0.063601 32:-1.165924 33:0.224299 34:-0.693512 35:0.378595 36:0.831179 37:0.363516 38:-0.483044 39:-1.018025 40:0.579883 41:0.923332 42:0.704936 43:-1.744453 44:-2.070458 45:1.086932 46:0.586726 47:-0.265452 48:1.002056 49:-0.699102 50:0.705352 51:0.801229 52:-1.200342 53:-1.194182 54:-0.627888 55:0.821693 56:1.524945 57:0.491642 58:-1.728551 59:-1.048707 60:-0.765683 61:-1.380008 62:0.567552 63:1.441748 64:0.058875 65:-1.163485
-1 1:-0.481173 2:1.170874 3:0.760588 4:0.968092 5:-0.182405 6:-0.845480 7:0.530665 8:1.404656 9:0.142204 10:1.937020 11:0.437818 12:1.643128 13:-0.026359 14:-0.008785 15:-0.392913 16:-1.374129 17:0.996170 18:0.803989 19:-1.382846 20:-0.552004 21:-0.723898 22:-1.992111 23:-1.586943 24:-0.780565 25:0.154910 26:0.954529 27:-0.893189 28:1.065798 29:-0.129804 30:0.567932 31:-1.866812 32:0.242666 33:-1.936071 34:1.486724 35:0.495200 36:0.545147 37:0.413652 38:0.981252 39:0.223501 40:1.363399 41:1.015816 42:0.023516 43:0.231826 44:0.352448 45:1.456975 46:-0.273419 47:0.275370 48:-1.533821 49:0.033739 50:1.805747 51:1.080059 52:-0.208526 53:3.093922 54:-1.394482 55:0.300912 56:0.052936 57:0.726817 58:-0.196645 59:-0.101060 60:-0.489002 61:1.447429 62:0.791347 63:1.155863 64:0.461798 65:0.486858
-1 1:-0.759139 2:-0.494310 3:-0.866008 4:0.888431 5:-2.666860 6:-0.712321 7:-1.309519 8:-0.797533 9:-0.167734 10:-1.462327 11:-0.265243 12:0.739902 13:0.435529 14:1.928228 15:2.323338 16:0.209446 17:0.338267 18:-2.018944 19:1.598465 20:-0.082704 21:-1.348954 22:-1.184849 23:1.248952 24:-1.235053 25:0.284469 26:-0.914120 27:0.395468 28:-0.796274 29:-0.401111 30:1.663294 31:0.005071 32:0.015305 33:-0.104842 34:-0.672071 35:-0.399257 36:-0.349245 37:0.169673 38:2.883673 39:1.646228 40:-0.262392 41:0.444089 42:-0.502720 43:-0.448225 44:-0.596298 45:0.490444 46:-0.699050 47:0.728567 48:-0.837856 49:0.031938 50:0.110647 51:0.647687 52:-0.780523 53:1.063822 54:-0.177744 55:0.565031 56:-0.018279 57:0.842063 58:-1.619226 59:0.479718 60:-0.517926 61:-1.764849 62:0.019635 63:-1.946251 64:1.381727 65:1.412290
-1 1:-0.636909 2:1.074092 3:-0.296024 4:0.301597 5:0.966347 6:0.597100 7:-1.995774 8:-0.656576 9:0.560467 10:0.610711 11:2.257282 12:0.813053 13:2.006580 14:-0.053793 15:2.056018 16:0.086114 17:0.560893 18:-0.034601 19:-0.598628 20:0.723487 21:-1.364899 22:-0.311199 23:0.493794 24:1.464328 25:-0.804490 26:-1.957854 27:0.640296 28:-1.049141 29:1.717614 30:-0.267269 31:-1.156850 32:0.181920 33:-1.692122 34:2.173840 35:1.149569 36:0.905476 37:-0.846351 38:1.656729 39:-0.389995 40:-0.687683 41:-1.336343 42:2.159378 43:-1.082860 44:1.875490 45:-1.402193 46:0.140880 47:0.248078 48:-0.165903 49:0.238866 50:0.709798 51:0.661057 52:-0.257722 53:0.880701 54:-1.009973 55:1.186414 56:-0.073019 57:0.048167 58:0.304590 59:-0.788858 60:1.226457 61:-0.253035 62:-0.576693 63:-0.345975 64:-0.169627 65:3.290365
-1 1:1.117053 2:-2.601053 3:0.246743 4:-0.203852 5:0.187584 6:-1.058972 7:0.047163 8:0.822857 9:0.299023 10:0.699462 11:-1.433664 12:1.034292 13:-0.422173 14:-0.515959 15:0.482297 16:-2.480692 17:-0.932510 18:-1.383560 19:-0.494127 20:0.334951 21:0.491658 22:-0.216526 23:0.392964 24:-0.983756 25:-0.520438 26:0.891228 27:1.783535 28:-1.240820 29:0.123201 30:0.942323 31:-0.065677 32:-2.594372 33:1.268716 34:-1.598574 35:-0.008897 36:-0.392305 37:0.132113 38:0.085757 39:0.219854 40:1.019714 41:-0.385371 42:-0.715031 43:-0.734264 44:0.130446 45:-0.405505 46:1.159878 47:0.364628 48:0.535232 49:0.921535 50:1.096432 51:0.409726 52:-0.319673 53:-0.420171 54:0.520776 55:0.621175 56:1.179474 57:0.146580 58:-0.736340 59:-0.381230 60:-0.859095 61:-2.264690 62:2.653119 63:1.474812 64:-2.002014 65:-0.321978
-1 1:0.351431 2:0.821109 3:0.558334 4:0.713613 5:0.555450 6:0.358836 7:1.824813 8:-1.135865 9:1.509810 10:-0.364550 11:-0.404807 12:0.441237 13:-0.216453 14:0.679414 15:-1.170951 16:-1.106086 17:0.950387 18:0.564419 19:-0.429256 20:1.313537 21:0.181778 22:-0.129789 23:0.901667 24:-1.216825 25:-0.998117 26:0.043442 27:-0.275658 28:0.019041 29:0.285012 30:-0.686889 31:0.060445 32:0.085329 33:-1.028244 34:-1.165268 35:0.308553 36:-2.730054 37:-0.886160 38:-0.600565 39:-2.221580 40:-0.562732 41:-2.426570 42:-2.839445 43:-0.897867 44:0.692877 45:-0.743624 46:1.725756 47:-0.571984 48:2.925042 49:-2.021597 50:1.114590 51:-0.278342 52:0.185173 53:2.874764 54:0.994571 55:0.434773 56:-0.242651 57:-0.199808 58:-0.210096 59:-0.660030 60:-1.428563 61:0.912458 62:-0.332049 63:-0.450430 64:-0.029417 65:-0.776826
-1 1:0.264094 2:-1.122852 3:-2.258739 4:-0.440852 5:-0.073737 6:1.598227 7:1.056410 8:-1.234879 9:-2.326434 10:-0.599948 11:0.583155 12:1.759375 13:0.804878 14:-0.588969 15:-0.507949 16:0.426796 17:-1.556861 18:-0.447143 19:-0.284758 20:-0.952695 21:2.369125 22:-0.514999 23:0.739727 24:-0.259512 25:-1.314583 26:-0.575528 27:-0.447326 28:-2.603995 29:-1.384724 30:0.192665 31:0.657371 32:0.407588 33:-1.193800 34:0.025135 35:-2.927034 36:0.684876 37:-0.164747 38:0.508228 39:-0.975927 40:-0.426683 41:-1.065275 42:-0.128096 43:-2.046510 44:1.849033 45:0.996365 46:0.756110 47:0.559315 48:-1.302255 49:-0.716021 50:-0.612324 51:0.777156 52:0.746931 53:1.937805 54:-0.965495 55:0.645925 56:-0.014461 57:1.389608 58:-0.460642 59:0.305959 60:0.656801 61:-0.683127 62:-1.583275 63:0.443651 64:-1.810477 65:0.817508
-1 1:-2.163365 2:-0.282894 3:-1.914269 4:1.236636 5:0.891337 6:-0.044265 7:0.174187 8:-0.234904 9:-0.447670 10:0.170507 11:-0.706827 12:2.576269 13:-0.582720 14:-1.124870 15:0.540983 16:-0.568853 17:-0.859356 18:1.727051 19:0.765475 20:0.288814 21:-1.468030 22:2.737403 23:-0.926462 24:0.498517 25:-0.513152 26:1.225746 27:-0.731703 28:-0.791957 29:-0.735040 30:1.248012 31:0.248643 32:-0.148547 33:-1.383258 34:-0.223223 35:0.041810 36:-3.790549 37:0.157229 38:0.371465 39:-0.208447 40:0.454535 41:0.884535 42:-0.786253 43:-0.995110 44:-0.134651 45:-1.220402 46:1.870154 47:0.003943 48:0.232028 49:-1.420400 50:0.832390 51:-0.662342 52:0.333145 53:-0.388006 54:1.105671 55:-1.478133 56:0.365483 57:1.136198 58:0.381218 59:-1.594654 60:1.215523 61:1.715098 62:-0.303333 63:0.877538 64:0.303227 65:-1.331414
-1 1:0.757269 2:-0.637146 3:-0.100502 4:1.476732 5:-0.785161 6:-0.149347 7:-1.003366 8:1.168278 9:-1.115536 10:-2.354879 11:-1.031539 12:-2.066391 13:-0.571769 14:-1.485361 15:0.042060 16:-1.272923 17:0.003358 18:-0.544467 19:2.241996 20:-1.269809 21:0.023972 22:-2.333336 23:-0.767748 24:1.128276 25:-0.761895 26:0.707471 27:0.358339 28:0.403386 29:-0.774116 30:-1.578320 31:1.284453 32:0.320729 33:-2.515953 34:-0.096046 35:0.435146 36:-0.179950 37:0.382241 38:-1.654068 39:0.774210 40:-2.204215 41:0.170865 42:0.476626 43:-2.207530 44:-0.728730 45:1.646198 46:0.323925 47:0.234383 48:-0.075560 49:0.677230 50:-0.928059 51:-2.022293 52:-0.304771 53:0.257035 54:0.086338 55:-1.375050 56:0.262592 57:-0.636219 58:-0.694030 59:0.108400 60:1.151572 61:1.218193 62:-0.764038 63:1.153268 64:-0.381711 65:-1.087027
-1 1:0.289742 2:-0.022894 3:0.729070 4:1.263066 5:-0.200315 6:0.344740 7:2.617594 8:-0.938362 9:-0.161098 10:-1.290741 11:-0.928905 12:1.149816 13:-0.058885 14:-0.294947 15:-0.751581 16:-1.607134 17:0.601335 18:-0.676684 19:-0.512741 20:-2.335068 21:0.012380 22:0.696854 23:0.811827 24:0.951282 25:0.123066 26:-0.047948 27:-0.453442 28:1.773516 29:-0.327028 30:0.092627 31:-0.391382 32:0.961824 33:1.148915 34:0.436216 35:0.334444 36:0.492946 37:-1.019103 38:0.233577 39:-0.850251 40:-1.907471 41:-0.080376 42:1.918054 43:-0.467219 44:-1.265611 45:0.979319 46:2.294594 47:-0.926888 48:-0.057655 49:-1.321890 50:-1.040643 51:-0.301770 52:-1.450732 53:0.950725 54:-0.139386 55:-0.815505 56:-0.487063 57:1.260457 58:-0.988962 59:-0.224855 60:0.281289 61:-0.472679 62:-1.381662 63:1.767714 64:-1.087768 65:-0.801536
-1 1:-1.026467 2:0.392078 3:1.103978 4:0.787119 5:-0.593134 6:-1.477301 7:0.987194 8:0.400730 9:0.013037 10:-1.247074 11:-0.209418 12:-0.384555 13:-0.054445 14:-0.396946 15:0.205217 16:0.430577 17:1.107405 18:-0.634366 19:-2.129653 20:-0.484109 21:0.202557 22:0.785905 23:0.519936 24:0.783295 25:0.267419 26:0.914786 27:-0.077572 28:0.424757 29:-0.537022 30:1.758079 31:-0.410811 32:1.021797 33:0.823548 34:-0.840054 35:-0.560049 36:-2.070319 37:0.856448 38:0.151276 39:-1.519838 40:-0.249924 41:-0.116226 42:-2.100600 43:1.801371 44:-1.949142 45:-0.659817 46:-0.491658 47:1.255337 48:2.028083 49:0.349569 50:-0.144726 51:-1.091921 52:-0.644352 53:0.432832 54:-0.099947 55:-0.298028 56:1.049406 57:-2.783725 58:1.095851 59:-0.250575 60:-0.136514 61:-0.847721 62:0.790638 63:-0.052044 64:0.810010 65:0.704502
-1 1:-0.543280 2:2.280324 3:0.393329 4:0.403947 5:0.144421 6:1.138857 7:0.499686 8:0.209369 9:0.185066 10:0.977891 11:0.634798 12:-0.521337 13:0.640288 14:0.597421 15:-1.003475 16:-1.162936 17:0.015915 18:-0.403001 19:-0.007903 20:0.870264 21:-0.380977 22:-1.762063 23:1.016537 24:1.249282 25:0.088321 26:0.574423 27:1.343633 28:-0.872601 29:-0.284986 30:-1.231504 31:0.314550 32:-0.901283 33:1.592781 34:-0.546019 35:-1.107299 36:1.828768 37:0.334522 38:0.033801 39:-0.386627 40:0.017785 41:-0.441909 42:-1.639184 43:0.809770 44:0.117722 45:-0.132394 46:1.531026 47:0.317214 48:0.311078 49:-0.722995 50:0.270482 51:-1.118267 52:-1.824295 53:1.124157 54:0.689464 55:0.596185 56:-0.709908 57:-0.954622 58:-0.479235 59:-0.476077 60:1.187810 61:0.310059 62:-0.220540 63:0.111934 64:2.647696 65:-0.314392
-1 1:0.522592 2:-0.927326 3:-0.122203 4:-0.633591 5:-0.115386 6:1.026134 7:0.555280 8:-1.593481 9:-0.543672 10:2.159165 11:0.309324 12:-1.089172 13:0.216415 14:0.162860 15:-0.591094 16:2.319615 17:-1.466201 18:-0.224055 19:0.542338 20:-0.380859 21:0.319715 22:-0.007397 23:-0.155902 24:-1.294576 25:-0.630870 26:-0.119637 27:0.902652 28:0.026669 29:0.757942 30:1.733162 31:-1.339643 32:1.050446 33:-1.568284 34:-0.471723 35:0.639128 36:1.062719 37:-0.724232 38:-0.386084 39:-0.783265 40:0.232717 41:0.075587 42:0.468690 43:-1.022779 44:-1.412091 45:-1.583063 46:2.142933 47:-1.411174 48:0.056644 49:0.781837 50:-1.856596 51:0.780731 52:-0.487507 53:-0.930976 54:0.429608 55:0.442591 56:-0.487339 57:1.696085 58:0.679494 59:-1.758163 60:-0.677953 61:-1.066823 62:-0.593623 63:2.124600 64:-1.105800 65:1.834509
-1 1:-0.633536 2:-1.536989 3:-1.028129 4:-0.557776 5:-0.673966 6:-1.094526 7:-0.461120 8:0.690368 9:1.306180 10:0.464703 11:1.383705 12:2.293203 13:0.143002 14:0.246317 15:-0.278803 16:-2.737513 17:0.166543 18:1.178835 19:-2.016702 20:0.659972 21:-1.715604 22:1.005104 23:0.094733 24:0.186552 25:0.497823 26:-0.541615 27:0.422385 28:0.467771 29:1.165316 30:0.764732 31:0.160332 32:1.347026 33:1.073966 34:-0.730135 35:1.324606 36:2.215411 37:-1.278654 38:1.088633 39:-0.422521 40:0.049427 41:0.243561 42:0.464390 43:0.945667 44:0.696085 45:-0.098422 46:0.007065 47:-0.811144 48:0.071976 49:-0.691986 50:-1.415111 51:0.105874 52:0.692429 53:0.162689 54:0.878323 55:0.194379 56:-1.593478 57:-0.956078 58:1.179188 59:-0.559646 60:0.216298 61:-0.038099 62:-0.337799 63:-1.336571 64:1.446663 65:-1.141593
-1 1:0.442107 2:1.160307 3:-0.090560 4:-1.012146 5:-0.468143 6:-1.286425 7:0.993322 8:-0.851490 9:0.185431 10:1.236998 11:-1.691831 12:0.403304 13:-0.505012 14:0.709159 15:1.257248 16:-0.998065 17:-0.036858 18:-0.715062 19:1.696025 20:-0.338929 21:1.325652 22:0.212811 23:0.146560 24:-1.830390 25:1.263612 26:-1.955937 27:1.004182 28:-1.155354 29:-0.179758 30:-0.255649 31:-1.170133 32:-1.228001 33:-0.910494 34:-0.954978 35:1.308363 36:0.745687 37:-0.289905 38:0.034290 39:-1.127070 40:0.747881 41:-0.144973 42:-0.544712 43:-1.263584 44:-1.521676 45:-0.905228 46:-1.087064 47:0.018518 48:-1.152117 49:-1.336841 50:-1.385293 51:-0.376398 52:0.195971 53:-1.710249 54:0.228617 55:-2.478469 56:-1.046556 57:0.322813 58:1.554606 59:0.527047 60:-1.236043 61:-0.067317 62:1.083641 63:2.105800 64:-0.673090 65:0.116370
-1 1:1.608472 2:0.251817 3:1.096145 4:-2.054713 5:-0.451783 6:-1.045367 7:0.399928 8:0.490732 9:-0.301871 10:0.929907 11:-1.224474 12:0.967363 13:-0.830714 14:-0.501142 15:0.003106 16:-1.880746 17:1.021284 18:1.615441 19:-0.859975 20:0.349553 21:-0.131746 22:-0.943355 23:1.343115 24:-1.655682 25:1.080061 26:-0.237941 27:-0.063659 28:-1.391333 29:1.442881 30:-1.187358 31:0.120754 32:-0.835886 33:-1.364024 34:-0.997780 35:-0.426638 36:-1.274807 37:-1.011129 38:-0.936529 39:0.584198 40:0.200576 41:0.502249 42:0.098983 43:0.473943 44:0.045854 45:-1.113308 46:-0.374238 47:-0.834118 48:-1.627387 49:-0.953384 50:1.055988 51:-0.463479 52:-0.991441 53:-0.999466 54:1.552728 55:0.531195 56:0.918980 57:1.563600 58:0.300004 59:0.657368 60:0.420813 61:0.095583 62:1.282961 63:0.402125 64:0.002693 65:0.738147
-1 1:-0.086512 2:-0.007705 3:-0.727810 4:-0.003852 5:-0.922735 6:1.367030 7:1.292024 8:1.475285 9:-0.914698 10:1.411077 11:-0.263417 12:-0.454571 13:0.925892 14:-0.218021 15:-0.588445 16:-0.043519 17:0.279257 18:-0.373071 19:0.397987 20:-0.581914 21:0.348623 22:1.594056 23:1.055545 24:0.456357 25:-0.703897 26:-2.301813 27:-1.496975 28:-2.723018 29:1.556134 30:-0.240114 31:0.538569 32:2.568828 33:-0.586070 34:0.750016 35:0.054717 36:-0.460121 37:-0.917827 38:-0.243589 39:0.850118 40:0.196886 41:0.285675 42:0.214602 43:0.892563 44:0.747188 45:0.556023 46:1.442223 47:-0.526232 48:0.402507 49:-0.199300 50:0.542132 51:2.343967 52:1.154415 53:1.368510 54:0.564707 55:1.558506 56:1.254676 57:0.770566 58:1.468268 59:-0.165813 60:0.269012 61:1.169470 62:-1.463300 63:0.452131 64:0.145927 65:-2.974166
-1 1:-0.043094 2:0.788999 3:0.557328 4:-1.949528 5:0.747435 6:-0.556757 7:-0.266955 8:-0.160696 9:-1.068794 10:-0.287652 11:-0.750413 12:-0.856228 13:-0.305174 14:1.020226 15:1.033390 16:0.478623 17:-0.354577 18:0.528634 19:-1.746066 20:0.939206 21:-0.360087 22:1.206810 23:-1.857957 24:0.694295 25:-0.944685 26:-1.415795 27:-0.630981 28:1.653991 29:-0.494844 30:0.872781 31:-0.742997 32:0.182270 33:-0.921444 34:-1.286422 35:-0.235430 36:-0.837392 37:-0.364829 38:0.066240 39:0.813771 40:0.710725 41:-1.114291 42:0.631611 43:0.440763 44:-0.559864 45:0.537389 46:-0.455048 47:-0.378502 48:-0.281349 49:-0.979682 50:2.037577 51:-1.003146 52:-0.584806 53:-1.325280 54:-0.607224 55:-0.663903 56:-0.041467 57:0.455510 58:-1.034493 59:0.165395 60:-0.565969 61:-1.582725 62:-1.645369 63:-0.266098 64:-3.034034 65:0.697980
-1 1:0.469431 2:-0.440365 3:0.517843 4:0.098214 5:-0.972109 6:0.357334 7:0.876187 8:0.560889 9:1.310831 10:-0.175561 11:0.538311 12:-0.493212 13:-0.982223 14:2.134370 15:1.663696 16:1.830934 17:-0.282449 18:-1.334873 19:0.290873 20:-0.223581 21:-1.139821 22:1.238382 23:-1.837920 24:-0.420828 25:1.120493 26:1.152622 27:1.134099 28:-1.287203 29:0.166182 30:-0.963040 31:0.281808 32:1.162405 33:1.991384 34:-0.582242 35:0.338683 36:-1.222566 37:0.886452 38:0.410090 39:-0.118115 40:-0.045592 41:0.849334 42:-0.796492 43:0.389546 44:0.592612 45:1.621420 46:-1.255870 47:2.067622 48:-1.277061 49:-1.298169 50:0.153696 51:-1.474244 52:-0.015921 53:0.190501 54:0.618316 55:1.375274 56:-0.405170 57:2.146048 58:-0.940060 59:-0.863692 60:1.510172 61:0.199101 62:0.685767 63:0.099200 64:-1.019394 65:0.692806
-1 1:1.048654 2:-0.432652 3:0.252554 4:0.494722 5:0.448613 6:-0.763981 7:0.067036 8:-1.276688 9:1.011627 10:-1.094081 11:0.743574 12:-1.405112 13:-0.802551 14:-0.498162 15:0.547381 16:0.250444 17:0.085788 18:0.035282 19:-1.061730 20:0.221778 21:-0.453825 22:1.353986 23:1.454929 24:-0.424661 25:0.989311 26:-0.878467 27:-0.481464 28:-0.898267 29:-0.508330 30:-0.695619 31:0.193256 32:-2.590639 33:-0.944166 34:-1.690247 35:1.555420 36:-1.116489 37:-1.531706 38:-1.673057 39:1.427361 40:0.222165 41:1.400254 42:-2.197853 43:-0.161546 44:-1.045911 45:-0.296046 46:-0.228174 47:0.891385 48:0.360960 49:-0.083171 50:-0.013018 51:0.240559 52:-0.497165 53:0.077813 54:-1.467253 55:-0.313093 56:0.017188 57:0.907976 58:-0.876856 59:-0.341193 60:0.953048 61:-1.483332 62:0.868595 63:-1.680187 64:0.900477 65:0.143191
-1 1:0.976065 2:0.515293 3:0.023843 4:-0.945208 5:1.777148 6:-0.611545 7:0.465470 8:0.450383 9:-1.796693 10:-0.610690 11:-0.893689 12:-0.867114 13:2.032806 14:0.525993 15:0.919453 16:2.172202 17:-1.172751 18:0.927584 19:0.464555 20:0.285660 21:0.526901 22:0.386616 23:0.875783 24:-0.046598 25:-1.089489 26:0.562577 27:0.039787 28:0.048733 29:0.618113 30:-1.024980 31:-0.517858 32:0.071197 33:-0.725809 34:-0.875745 35:1.597316 36:-1.367132 37:1.021454 38:-0.480151 39:-0.712467 40:0.267905 41:-1.172188 42:-1.259401 43:0.090485 44:2.024704 45:-0.662252 46:1.584919 47:-0.253773 48:1.051001 49:-0.188114 50:0.092146 51:0.261000 52:0.443952 53:-0.601952 54:-0.159991 55:0.192109 56:0.947768 57:1.142480 58:-0.306530 59:-0.906605 60:-0.276298 61:-1.607558 62:-1.361561 63:1.963155 64:-0.337559 65:0.620442
-1 1:-0.502234 2:-1.295775 3:-0.123573 4:-0.564249 5:-0.782509 6:-1.203772 7:-2.291285 8:0.552936 9:0.833387 10:0.323452 11:1.155546 12:0.249308 13:1.881629 14:0.437183 15:0.128004 16:0.395306 17:1.337346 18:0.153426 19:0.460313 20:0.493495 21:0.644803 22:1.411224 23:-1.617807 24:0.574281 25:0.172892 26:-0.959985 27:-1.619143 28:0.067378 29:0.599996 30:0.689548 31:0.750238 32:1.780061 33:0.698766 34:1.203722 35:0.013699 36:0.803081 37:0.868647 38:-2.358051 39:-0.445135 40:-0.996158 41:-0.813462 42:0.213045 43:0.606541 44:0.097092 45:-0.998960 46:-0.779398 47:-0.653337 48:1.064580 49:-2.075285 50:1.041889 51:0.911998 52:-0.676813 53:-0.832471 54:-0.637635 55:-0.960803 56:0.886086 57:1.328168 58:0.111205 59:-0.152633 60:0.572729 61:-0.168825 62:1.436323 63:0.278565 64:-0.841034 65:-2.043610
-1 1:0.803207 2:0.687875 3:1.854066 4:-0.103829 5:0.937185 6:-0.283354 7:0.478293 8:-0.342409 9:1.148349 10:-0.002691 11:1.400788 12:1.589862 13:0.585016 14:-1.827589 15:1.716298 16:2.409665 17:0.578061 18:-0.469600 19:-0.185012 20:-0.605129 21:0.056647 22:0.178144 23:-1.585747 24:-0.093345 25:-0.619232 26:1.975154 27:1.387456 28:0.207127 29:-1.316686 30:0.073725 31:0.433904 32:1.189374 33:-1.335959 34:-0.046106 35:1.560249 36:-0.045276 37:-1.901475 38:-0.726363 39:-0.814604 40:0.134736 41:1.131428 42:0.834214 43:-0.763403 44:1.260907 45:-0.336338 46:0.281572 47:0.323728 48:0.378060 49:-0.592328 50:1.066915 51:-0.991758 52:-1.157100 53:-0.930431 54:-0.358218 55:-0.784113 56:1.160079 57:-1.967191 58:0.535594 59:1.531374 60:0.664064 61:0.055451 62:0.166713 63:-1.326004 64:-0.633460 65:-0.782498
-1 1:0.986117 2:-2.667029 3:0.180606 4:0.219957 5:0.248258 6:-0.858604 7:1.642231 8:-0.865481 9:2.485575 10:1.219446 11:-0.153996 12:-0.350212 13:-0.526419 14:0.526652 15:0.284331 16:-1.193599 17:1.026846 18:0.562317 19:0.211061 20:1.268285 21:0.374683 22:-2.156578 23:-0.759613 24:-0.733470 25:1.424085 26:-0.304237 27:0.232108 28:-0.816796 29:-1.825269 30:0.118565 31:-0.310909 32:-0.109922 33:0.115779 34:-0.484363 35:-0.612060 36:-1.081691 37:-0.877544 38:-0.510411 39:-0.597192 40:1.342800 41:0.742849 42:-0.630700 43:-1.478210 44:-1.568887 45:-1.066568 46:-0.447034 47:-2.060018 48:-0.132190 49:0.954197 50:-1.249787 51:-0.951047 52:0.875083 53:0.396471 54:-0.169611 55:-2.402434 56:0.756388 57:-0.330685 58:0.593502 59:1.063585 60:0.937130 61:1.344726 62:0.544315 63:1.028654 64:-1.032665 65:-0.174850
-1 1:1.114566 2:0.070715 3:0.602188 4:-2.231476 5:0.886924 6:-0.285356 7:0.649003 8:1.663305 9:-0.374548 10:0.672886 11:-1.604557 12:-1.053235 13:-0.694128 14:0.196660 15:0.529233 16:0.230340 17:0.139985 18:0.402774 19:-0.270485 20:0.629436 21:-1.642532 22:0.235066 23:-1.410539 24:-1.105209 25:0.305533 26:1.041071 27:1.688230 28:-0.119898 29:-0.574009 30:-0.570186 31:0.338063 32:-1.946722 33:1.359266 34:0.444197 35:-1.181115 36:-0.400681 37:-0.131593 38:-0.722631 39:0.059991 40:-1.935245 41:-1.408471 42:0.659379 43:0.497938 44:-1.194850 45:2.055448 46:0.885195 47:-0.252608 48:0.367973 49:-0.038146 50:-2.720392 51:0.436445 52:-0.583690 53:1.130645 54:0.959013 55:-0.352688 56:-0.242530 57:-0.621712 58:-1.097248 59:0.403736 60:-0.616498 61:-0.532279 62:1.121070 63:-1.389252 64:-1.336205 65:-0.133612
-1 1:1.560648 2:1.311220 3:0.018383 4:1.258366 5:-0.666792 6:1.692722 7:-0.079782 8:-0.067852 9:-0.650004 10:-0.335269 11:-1.684859 12:-0.219514 13:1.047230 14:1.315385 15:0.288889 16:2.703422 17:0.002170 18:-0.388559 19:-0.171469 20:-0.796691 21:0.243240 22:-0.181928 23:-0.427204 24:1.616005 25:0.823100 26:1.589759 27:0.204252 28:0.711841 29:-1.018996 30:0.383791 31:0.991666 32:-0.063917 33:1.364775 34:-0.411751 35:1.342110 36:0.180329 37:0.033194 38:0.608786 39:-0.048273 40:0.551673 41:0.653852 42:0.532443 43:-0.616486 44:-0.366833 45:1.885592 46:-0.428591 47:-0.368298 48:-0.519721 49:-0.022188 50:1.374528 51:-1.369709 52:-0.154023 53:2.208214 54:-0.476000 55:-0.365077 56:0.909528 57:-0.055748 58:0.946405 59:-0.400672 60:-1.918169 61:-2.106283 62:0.038767 63:-0.670522 64:-0.243715 65:1.172911
-1 1:0.360312 2:-0.821400 3:0.620031 4:0.360274 5:0.040003 6:0.281568 7:-1.102876 8:-0.457312 9:-0.644598 10:-0.020313 11:-0.775109 12:-1.078457 13:-0.406209 14:-0.955746 15:-1.269360 16:1.290220 17:1.253965 18:-0.360646 19:1.221526 20:0.769591 21:0.052052 22:0.407195 23:1.168499 24:-0.271373 25:-0.688428 26:0.945548 27:0.052641 28:-1.329377 29:-0.565503 30:-0.372159 31:0.898333 32:1.054793 33:-0.769938 34:-0.798972 35:-0.538472 36:-0.495172 37:0.913731 38:-0.941082 39:1.319328 40:1.473405 41:-0.279214 42:1.460587 43:-1.808884 44:2.009917 45:0.324704 46:-1.830462 47:0.583309 48:0.957609 49:-0.269496 50:1.725438 51:0.346505 52:0.205740 53:0.560764 54:0.353751 55:0.719867 56:-0.163758 57:-1.656726 58:0.063228 59:0.860409 60:0.406075 61:1.545793 62:3.496023 63:0.624813 64:1.690547 65:0.134097
-1 1:-0.730862 2:-1.378020 3:2.305182 4:1.566525 5:-1.271079 6:-0.045976 7:-1.323884 8:0.810856 9:1.068775 10:-0.899709 11:-0.096936 12:-0.297436 13:0.698365 14:1.060698 15:0.371192 16:-0.973854 17:0.204985 18:1.984144 19:0.844252 20:-1.706913 21:-1.104021 22:0.455019 23:0.873695 24:0.087522 25:-0.213380 26:0.294821 27:-1.098581 28:1.969905 29:0.006986 30:0.210647 31:-0.107531 32:1.247278 33:0.838045 34:0.124487 35:-0.713956 36:-0.327414 37:-0.052678 38:0.513940 39:1.290625 40:-0.189718 41:1.167353 42:-0.360174 43:0.815954 44:-0.260428 45:0.633751 46:1.758119 47:-0.383003 48:0.838028 49:0.579741 50:0.004273 51:0.585608 52:-0.042468 53:-1.926161 54:-0.127893 55:0.735767 56:1.270158 57:1.432800 58:-0.829373 59:0.653073 60:0.134745 61:1.845620 62:-0.598228 63:0.249759 64:-0.519410 65:-2.663569
-1 1:0.247813 2:-0.344480 3:0.383520 4:-1.517600 5:1.211530 6:1.739697 7:-0.238443 8:1.533545 9:-1.240856 10:-0.973243 11:0.888878 12:-0.043454 13:-0.977587 14:-2.062882 15:-0.065549 16:-1.368964 17:-0.327263 18:0.728955 19:0.941701 20:1.472426 21:-0.463369 22:0.217121 23:-0.611039 24:-1.377510 25:-0.659451 26:0.932471 27:-3.354727 28:-1.128857 29:0.435469 30:-0.278046 31:-0.425007 32:-0.616958 33:0.882930 34:0.868730 35:1.499644 36:-0.909889 37:-0.456726 38:0.897684 39:1.477454 40:0.080772 41:-1.281839 42:-1.160901 43:0.237824 44:-0.581007 45:-0.592662 46:1.333440 47:0.406718 48:-1.073907 49:-0.648236 50:-0.139518 51:0.686387 52:-1.613807 53:0.571388 54:2.260963 55:1.321070 56:-0.241021 57:0.483595 58:0.133819 59:-0.377332 60:0.654990 61:0.019161 62:1.803839 63:0.412630 64:-1.384861 65:0.131305
-1 1:-0.607513 2:1.001025 3:0.764559 4:-0.559327 5:2.037990 6:0.221373 7:-0.472778 8:0.813106 9:-0.833321 10:0.108518 11:-1.295519 12:1.809399 13:0.504060 14:-1.442871 15:1.309132 16:-0.668253 17:0.233032 18:-0.888138 19:0.666158 20:0.337035 21:0.107272 22:-0.147656 23:-0.193006 24:1.410815 25:0.353493 26:-1.041413 27:1.000249 28:-0.737499 29:-0.822214 30:0.441669 31:-1.112088 32:1.442128 33:0.000699 34:-0.779461 35:0.549270 36:0.879328 37:-1.037267 38:0.356420 39:-0.330311 40:3.705147 41:0.969105 42:0.327636 43:-1.055734 44:-1.031853 45:-0.774115 46:-0.073745 47:0.596799 48:0.687406 49:-1.417599 50:0.060641 51:1.014301 52:0.236108 53:-0.960543 54:-0.044040 55:-0.517676 56:-0.529084 57:3.112506 58:0.983345 59:-0.093018 60:0.201753 61:0.610417 62:0.100699 63:-0.547170 64:1.600984 65:-0.252978
-1 1:0.158375 2:0.252463 3:1.121472 4:-1.347680 5:0.122725 6:0.929732 7:0.098561 8:0.413962 9:0.891715 10:1.659014 11:-0.081652 12:-0.521652 13:-0.826682 14:0.991478 15:1.212480 16:0.564620 17:0.030556 18:0.682385 19:-0.065600 20:-0.053559 21:0.276821 22:0.195163 23:-1.000015 24:1.066139 25:0.818232 26:0.017213 27:0.080144 28:0.854804 29:-0.497805 30:-0.893957 31:1.225112 32:-0.864922 33:0.385321 34:0.010316 35:-1.043236 36:-0.354119 37:-0.728763 38:0.750003 39:-0.305310 40:1.731797 41:1.484419 42:1.113656 43:0.711734 44:0.755014 45:0.201959 46:0.362130 47:-1.177130 48:0.926619 49:0.141076 50:0.200322 51:-0.191273 52:-1.025608 53:0.619631 54:-1.103195 55:-1.000655 56:0.053854 57:-1.255118 58:0.569188 59:-0.832297 60:-1.050492 61:1.169843 62:0.647692 63:-0.383251 64:-1.584850 65:0.529928
-1 1:-0.314003 2:-1.278816 3:-0.328814 4:0.302432 5:-0.511354 6:-1.543518 7:-1.618986 8:0.919313 9:0.087868 10:-0.195978 11:1.538979 12:0.365911 13:0.014994 14:-0.378590 15:-0.834424 16:-0.329300 17:-0.664345 18:1.516652 19:1.212554 20:-1.964091 21:0.130314 22:-0.143492 23:-0.488034 24:-1.473596 25:0.830499 26:-0.143610 27:-1.048759 28:0.604594 29:1.564515 30:-0.211332 31:0.278088 32:-1.811170 33:-0.477011 34:0.019042 35:-0.722804 36:-0.177288 37:1.335351 38:-1.112818 39:-0.658873 40:1.061964 41:1.472994 42:-0.948437 43:-1.062410 44:-0.607378 45:-0.516685 46:0.888957 47:1.056409 48:0.165302 49:-0.181027 50:0.603993 51:-1.822219 52:1.489489 53:-1.667290 54:-0.320315 55:0.345130 56:-1.040950 57:0.729344 58:-0.546800 59:-0.374273 60:1.804035 61:0.169376 62:0.057220 63:0.115711 64:-1.275358 65:0.433938
-1 1:2.423593 2:-1.561985 3:0.170422 4:-0.761135 5:0.048681 6:-0.120791 7:-0.453793 8:0.111041 9:-0.103507 10:0.711483 11:-0.299444 12:-0.064239 13:-1.595604 14:0.607434 15:0.758730 16:0.177001 17:1.307830 18:-0.047533 19:-0.368678 20:1.013482 21:-1.619381 22:-0.329972 23:-1.375902 24:-0.043759 25:0.292485 26:-1.608503 27:-0.274807 28:1.065885 29:-0.443000 30:1.162819 31:-0.318074 32:-0.938146 33:1.388460 34:-0.534621 35:0.533678 36:0.364485 37:-1.351288 38:-0.730430 39:0.504799 40:-0.796544 41:-1.274479 42:0.044044 43:-0.546281 44:0.568018 45:1.075576 46:-1.180583 47:1.186765 48:-0.345604 49:0.455318 50:0.221175 51:0.046255 52:0.391078 53:-0.361638 54:0.368788 55:0.560615 56:-0.834930 57:1.335430 58:0.011749 59:1.860148 60:-0.472944 61:-0.616063 62:0.556700 63:0.041980 64:1.141071 65:-0.448011
-1 1:-0.797212 2:-0.905535 3:0.072135 4:0.658277 5:-2.243782 6:0.123237 7:0.217902 8:1.155823 9:-0.605508 10:-0.153691 11:-2.710297 12:-1.005977 13:-1.439278 14:0.384188 15:-0.513511 16:0.567075 17:0.395289 18:-0.296415 19:-0.330319 20:-0.067101 21:0.353824 22:-0.692384 23:-0.016566 24:1.425021 25:-1.734716 26:-0.332509 27:2.648045 28:0.809105 29:-0.225494 30:-0.309874 31:0.409825 32:-1.044588 33:-0.110732 34:0.257651 35:1.594667 36:-1.438024 37:-0.114724 38:0.877722 39:0.421144 40:-1.224122 41:0.430704 42:1.504985 43:0.834591 44:-1.515642 45:-1.235583 46:-2.414381 47:-0.566134 48:-0.381727 49:1.033544 50:0.209484 51:0.546736 52:2.566778 53:-0.329458 54:0.634217 55:-0.540156 56:-1.523468 57:1.600283 58:0.581478 59:2.259927 60:0.174578 61:0.129859 62:1.739858 63:-0.587970 64:0.862101 65:-0.241537
-1 1:-0.952532 2:1.471247 3:-1.577974 4:1.712450 5:-0.519416 6:-0.998140 7:-0.966995 8:-0.739794 9:0.695038 10:-0.404965 11:-2.467152 12:3.443328 13:-0.221707 14:0.445830 15:2.045072 16:-1.460794 17:0.560029 18:-1.986499 19:0.118629 20:0.466591 21:-0.430600 22:0.746870 23:1.534863 24:0.839545 25:1.356009 26:0.438265 27:0.990718 28:-0.022587 29:0.066745 30:0.770369 31:-1.522097 32:-0.581815 33:-0.724845 34:-0.161329 35:-0.953183 36:-2.106356 37:1.024779 38:-2.102880 39:-1.682963 40:-0.254801 41:-0.543143 42:-0.799073 43:-0.912918 44:-1.380106 45:-0.240864 46:0.258270 47:-1.095676 48:-1.436107 49:-0.746662 50:0.747670 51:-1.028694 52:0.901176 53:-1.896893 54:-1.200848 55:0.419627 56:0.896819 57:-0.593373 58:-0.637510 59:0.068213 60:-0.670819 61:-0.431984 62:-1.453394 63:-0.213776 64:0.054646 65:0.308898
-1 1:-0.627530 2:-0.337549 3:-1.538226 4:0.122164 5:0.377870 6:-0.212505 7:-0.530210 8:-1.607175 9:-0.400532 10:0.674138 11:-0.313499 12:-1.099026 13:1.724781 14:-0.126546 15:-0.446843 16:-2.391521 17:-1.167268 18:-0.708933 19:1.256424 20:2.855763 21:-1.096110 22:-0.172530 23:0.754114 24:0.693325 25:-0.133161 26:0.307080 27:-0.365326 28:-1.388892 29:1.670060 30:0.128114 31:-0.706421 32:0.651263 33:-0.509022 34:0.991034 35:-0.258598 36:0.437264 37:-0.296739 38:0.972029 39:-0.080063 40:-0.176641 41:2.119141 42:-0.189928 43:-0.348767 44:-0.458916 45:-0.550834 46:-0.841798 47:-0.641882 48:0.040258 49:-0.723322 50:-0.717970 51:1.038294 52:0.942573 53:0.415488 54:-1.274753 55:0.427945 56:-0.524100 57:-0.503492 58:-0.234470 59:-0.779691 60:-1.112466 61:0.063702 62:-0.592221 63:-0.471929 64:-1.465808 65:0.848175
-1 1:1.324176 2:-1.003926 3:1.487730 4:0.418352 5:-0.673650 6:-1.216964 7:-1.746077 8:0.749178 9:0.176506 10:-1.282460 11:0.559221 12:-0.686156 13:0.333966 14:-0.741922 15:0.027236 16:-1.251859 17:-1.533726 18:0.253427 19:0.499796 20:-1.681178 21:-0.592393 22:-0.292660 23:-0.107816 24:-0.385243 25:-0.129147 26:-0.041578 27:-1.253182 28:-1.566244 29:0.118595 30:-1.978121 31:-0.277772 32:-0.338681 33:-0.004886 34:-1.218519 35:-0.353197 36:0.358497 37:-0.704775 38:0.764194 39:2.039964 40:1.314884 41:-2.349484 42:-0.006413 43:-1.522959 44:-0.847079 45:0.424236 46:-0.183314 47:0.318389 48:-1.416929 49:-0.595569 50:0.239999 51:-0.631625 52:0.492450 53:-1.736635 54:0.732697 55:0.081822 56:0.130123 57:-0.257015 58:-0.912846 59:0.711601 60:-1.557999 61:0.320290 62:0.532004 63:-0.566221 64:0.427144 65:1.568750
-1 1:0.575441 2:-0.618877 3:-0.793279 4:-1.012021 5:-0.325868 6:1.370728 7:0.899654 8:1.172291 9:-0.309589 10:-1.125676 11:-0.579309 12:-0.173850 13:0.282893 14:0.974621 15:0.222635 16:-1.252353 17:1.298315 18:0.966348 19:0.610305 20:1.243417 21:-1.186935 22:-0.582542 23:1.689352 24:2.221050 25:0.161899 26:-0.696843 27:0.735849 28:2.180734 29:1.155572 30:-0.815594 31:-0.352387 32:-1.044748 33:-2.138745 34:-0.260064 35:-1.366304 36:-0.739052 37:-0.651656 38:0.600917 39:1.020833 40:0.463150 41:-0.338590 42:1.310139 43:-1.418899 44:0.144077 45:0.399316 46:1.717562 47:0.847221 48:-0.905963 49:1.423331 50:0.612336 51:0.640891 52:-0.186715 53:2.206606 54:0.245884 55:-1.023211 56:2.695453 57:-0.412776 58:1.333451 59:0.378049 60:1.058373 61:-0.065973 62:1.433156 63:0.106669 64:-0.629926 65:0.316641
-1 1:-1.903382 2:-2.185107 3:1.194278 4:0.457873 5:-0.506157 6:-0.796061 7:1.249665 8:-0.766121 9:-0.877230 10:0.539545 11:-0.631210 12:1.925973 13:-1.055241 14:-0.234349 15:-0.276406 16:-0.061173 17:0.527481 18:-0.852830 19:-0.071831 20:1.079789 21:-0.476914 22:0.841587 23:0.403634 24:-1.187731 25:0.996615 26:-0.696091 27:1.454773 28:-0.881414 29:-0.196946 30:-1.123512 31:1.331464 32:-0.229707 33:1.396701 34:1.215032 35:-0.610798 36:0.734939 37:-0.557261 38:0.513542 39:1.666906 40:-1.586302 41:0.786724 42:1.127150 43:-0.306913 44:-0.537537 45:2.146764 46:-0.119133 47:-0.110894 48:0.132503 49:-1.300527 50:-1.179150 51:-1.157314 52:-0.578762 53:-1.002645 54:0.420546 55:0.114574 56:0.350595 57:-1.087859 58:-0.825268 59:0.238524 60:-0.036302 61:-1.590149 62:-0.525145 63:0.773945 64:0.581839 65:-2.349922
-1 1:0.984339 2:0.788407 3:-0.785798 4:1.509520 5:1.424359 6:-0.571694 7:-0.686045 8:-1.566157 9:0.820271 10:0.427882 11:1.495584 12:-0.688493 13:1.548976 14:0.171807 15:0.445907 16:-0.208677 17:-0.338405 18:1.043859 19:-0.083063 20:0.927346 21:0.541115 22:0.183995 23:-0.412677 24:-0.560555 25:0.774068 26:0.575113 27:0.339362 28:-1.442346 29:-0.524366 30:0.897978 31:0.050420 32:0.441597 33:0.346690 34:-1.032254 35:0.412902 36:-0.397830 37:-0.282959 38:-1.571668 39:-0.428464 40:-0.965558 41:0.669881 42:0.603571 43:0.884926 44:-1.084570 45:1.309623 46:-0.895664 47:-1.490728 48:-0.314543 49:0.278841 50:-0.948613 51:-0.136636 52:-0.032349 53:0.129188 54:-0.379079 55:-1.254594 56:-1.311188 57:0.538073 58:0.926064 59:-0.918970 60:-1.708828 61:-0.414781 62:-0.082330 63:0.168886 64:0.261768 65:0.366578
-1 1:-0.314263 2:0.091882 3:-0.953844 4:-0.291626 5:1.695082 6:0.421827 7:0.154100 8:0.390729 9:-0.531359 10:0.432072 11:1.644574 12:-0.973816 13:0.693565 14:-0.927644 15:-0.419537 16:-2.406263 17:-0.720847 18:-0.536759 19:0.036428 20:0.283731 21:0.843427 22:0.453461 23:0.843615 24:2.407636 25:-0.639154 26:0.447916 27:1.473643 28:-0.440186 29:-1.023433 30:-0.072671 31:-0.800500 32:1.717160 33:1.262278 34:-0.977869 35:1.253104 36:-0.469359 37:0.593909 38:-0.253915 39:-0.889257 40:-0.390888 41:-0.224896 42:-0.569052 43:0.206274 44:-0.988819 45:0.241246 46:0.406111 47:-1.408348 48:-0.315218 49:-1.797737 50:-0.490630 51:-1.140842 52:-0.725980 53:0.300795 54:-0.006464 55:1.266838 56:0.092205 57:0.092545 58:0.236573 59:-0.069932 60:-0.928190 61:-0.885918 62:-0.744971 63:-0.619241 64:0.167905 65:-1.306260
-1 1:-0.838998 2:-0.486835 3:0.242626 4:-0.017915 5:-0.826429 6:0.485334 7:-0.401176 8:-0.581400 9:-2.052164 10:0.423038 11:0.505659 12:-0.444546 13:1.111057 14:-0.193553 15:0.897333 16:-0.126517 17:-0.577717 18:-0.382365 19:0.236673 20:-1.105193 21:-0.083524 22:0.353833 23:0.613109 24:-1.408981 25:0.318767 26:-0.337875 27:-0.109628 28:0.675040 29:-0.605482 30:-2.153409 31:-0.435803 32:2.411050 33:-0.742393 34:0.484237 35:-0.728532 36:1.644119 37:0.513834 38:0.653823 39:0.274377 40:0.326283 41:-1.524740 42:0.542409 43:0.697487 44:-0.578763 45:1.136858 46:-0.258158 47:-2.242871 48:0.589487 49:-1.628010 50:-0.919902 51:1.450622 52:-0.352478 53:-0.091311 54:-0.039464 55:-0.928362 56:-0.158731 57:-0.497636 58:-0.102955 59:-1.558380 60:1.115081 61:0.569552 62:-0.972502 63:-0.727563 64:-1.260922 65:0.081672
-1 1:0.428849 2:-0.173409 3:1.416501 4:0.669111 5:-1.271656 6:0.565534 7:1.859218 8:-0.223416 9:-0.154507 10:-0.581426 11:0.250594 12:-2.257007 13:1.289840 14:0.129343 15:0.386065 16:-0.573279 17:0.645928 18:0.102872 19:0.432957 20:-1.202603 21:-0.704930 22:0.088826 23:-0.745957 24:-0.981989 25:-0.260225 26:1.967800 27:0.486193 28:1.273737 29:-0.050025 30:0.311768 31:0.628226 32:0.243068 33:-0.104887 34:-1.128697 35:0.412750 36:-0.898458 37:-1.622151 38:-0.597547 39:1.981942 40:-0.714345 41:0.292918 42:-0.355832 43:1.676870 44:-0.980242 45:1.020669 46:-1.641320 47:0.478055 48:-0.906886 49:0.575272 50:1.188220 51:-1.948682 52:-1.553074 53:-0.888024 54:1.315402 55:0.795578 56:0.682466 57:-0.268028 58:-0.681175 59:1.674473 60:0.348180 61:0.129972 62:0.358138 63:-0.128986 64:0.403605 65:0.349503
-1 1:-0.037789 2:-1.013165 3:0.471261 4:0.396993 5:-0.219817 6:0.799955 7:0.022790 8:-1.142626 9:-0.655572 10:-0.877610 11:-0.136210 12:-1.204843 13:0.102617 14:-0.379911 15:-1.453747 16:-1.246781 17:1.194026 18:-1.323548 19:1.790258 20:-0.672173 21:-2.241005 22:-1.294251 23:1.709464 24:0.574253 25:1.235036 26:-1.262427 27:0.418770 28:0.023909 29:1.269787 30:-0.826412 31:0.459588 32:0.203428 33:1.385793 34:-0.297240 35:-0.858085 36:-1.912996 37:-0.387020 38:0.554515 39:0.675612 40:0.335714 41:-0.238454 42:0.213488 43:1.088492 44:2.214379 45:0.125505 46:0.527647 47:0.815643 48:0.345452 49:-1.329449 50:0.315537 51:-0.328991 52:1.201781 53:-0.290502 54:-1.165754 55:-0.395217 56:-1.264370 57:0.059574 58:0.102839 59:-0.672607 60:-0.294037 61:-0.633041 62:-1.197460 63:-1.633623 64:0.554302 65:-0.210985
-1 1:0.634857 2:-1.675678 3:0.708173 4:-0.616004 5:0.195050 6:-2.540429 7:0.729450 8:-0.716512 9:-0.185773 10:1.705661 11:1.294377 12:-1.249627 13:-0.658506 14:0.769957 15:-0.139480 16:1.533495 17:-0.709579 18:-1.530274 19:0.320529 20:0.041332 21:-1.164268 22:1.258243 23:0.759285 24:-0.297944 25:1.544937 26:-0.265426 27:1.527007 28:0.845150 29:-0.804642 30:-0.128402 31:-0.175767 32:0.471932 33:1.449877 34:-1.378335 35:-0.354322 36:0.138528 37:0.042576 38:-0.663224 39:1.956719 40:0.579462 41:0.246311 42:0.305910 43:-0.373815 44:-0.945664 45:-1.026435 46:1.065898 47:0.657401 48:-0.071634 49:0.629341 50:1.154585 51:0.347605 52:0.704066 53:-0.500158 54:1.381712 55:1.161550 56:-1.055696 57:0.278794 58:-0.313722 59:0.135832 60:-0.356979 61:-0.344913 62:0.124331 63:0.106790 64:1.075962 65:-0.158231
-1 1:0.664299 2:1.166105 3:0.456236 4:0.109503 5:-1.697097 6:0.064437 7:0.331985 8:1.749390 9:1.371104 10:2.232900 11:0.239845 12:1.270581 13:-1.119357 14:-0.615677 15:0.639021 16:1.165795 17:-1.642466 18:-0.661476 19:1.389484 20:0.338531 21:-1.760137 22:-0.684366 23:-1.606638 24:-0.183558 25:1.715588 26:1.082213 27:-0.999611 28:-0.637967 29:-0.956146 30:-0.104455 31:2.068330 32:0.787454 33:0.398831 34:0.969321 35:0.273394 36:1.069150 37:-0.012438 38:-0.061691 39:0.272540 40:-0.235320 41:-0.684649 42:0.500441 43:2.120175 44:0.014533 45:-1.562247 46:0.023416 47:-0.455632 48:-3.401751 49:0.339624 50:0.191260 51:0.075472 52:0.400447 53:0.734728 54:-0.482304 55:0.075589 56:0.233933 57:-1.227725 58:-0.982629 59:-0.186770 60:1.501889 61:-2.093683 62:-0.419851 63:-0.144789 64:1.553812 65:-0.150393
-1 1:-0.215761 2:0.148491 3:-0.102150 4:1.981951 5:-0.751388 6:-0.282300 7:0.189105 8:-0.123554 9:1.462698 10:0.171080 11:-0.891298 12:-0.039533 13:0.121723 14:1.529641 15:1.240403 16:-0.573470 17:-0.070055 18:-0.250944 19:1.198031 20:0.593578 21:0.994890 22:-0.732901 23:-0.012126 24:1.450125 25:-0.854060 26:-0.719129 27:0.121625 28:0.145164 29:-1.065384 30:0.346806 31:1.265794 32:-1.845319 33:0.197835 34:0.350238 35:-0.186196 36:0.875037 37:0.005489 38:0.880979 39:0.964348 40:1.462730 41:0.360661 42:-0.453122 43:-1.225385 44:0.133102 45:0.129850 46:0.702528 47:-1.655655 48:0.940436 49:0.741062 50:-0.424414 51:2.464154 52:0.160812 53:0.692938 54:-0.581714 55:-0.351035 56:0.114471 57:-2.410204 58:1.081404 59:1.448536 60:-1.152626 61:1.463146 62:0.506150 63:0.062010 64:0.087851 65:-0.640998
-1 1:3.385018 2:1.509248 3:-0.683055 4:-1.339875 5:0.951589 6:1.428725 7:-0.825528 8:1.185213 9:0.240896 10:0.663280 11:0.907529 12:-1.800794 13:0.152671 14:-0.013375 15:0.033988 16:-1.755456 17:-1.891221 18:-0.586465 19:0.427374 20:0.086459 21:-0.699823 22:0.248845 23:0.146653 24:-0.241817 25:0.265626 26:-0.372113 27:-0.591662 28:-2.130407 29:0.522219 30:-1.041066 31:0.039034 32:-2.167426 33:-0.288607 34:-1.261700 35:-1.828793 36:-0.018241 37:0.593680 38:-0.432143 39:-1.431646 40:0.108565 41:-1.159864 42:0.424847 43:-1.193446 44:-1.208135 45:0.919527 46:0.776161 47:1.239568 48:-1.903267 49:0.659544 50:-1.238280 51:-1.242712 52:-2.746513 53:0.598321 54:-0.389633 55:2.034318 56:0.053475 57:-0.432876 58:-0.212716 59:-0.559652 60:0.273459 61:0.685552 62:-0.057631 63:0.432202 64:-0.592460 65:-0.798649
-1 1:-1.002714 2:0.326565 3:-0.465359 4:-1.149714 5:0.604937 6:0.762311 7:0.266017 8:0.300351 9:-0.777078 10:2.019569 11:-0.802510 12:-1.002236 13:-1.362600 14:-0.700578 15:0.971757 16:1.313416 17:0.745733 18:-0.220133 19:-1.015393 20:-0.575405 21:0.526442 22:1.349103 23:0.154239 24:0.893084 25:0.378144 26:-0.336966 27:-0.814643 28:-0.982164 29:0.834771 30:0.409789 31:-0.643431 32:-0.980332 33:1.249804 34:0.111041 35:-0.459263 36:0.155880 37:1.279782 38:-0.667513 39:-0.017362 40:-1.383788 41:-1.447110 42:0.361039 43:-0.741076 44:1.261600 45:-0.172314 46:0.297168 47:-0.588771 48:-0.381123 49:0.703727 50:0.649747 51:-0.081492 52:0.082530 53:0.953775 54:-0.569900 55:2.244508 56:-0.533487 57:2.004330 58:-1.720451 59:-1.223633 60:0.132768 61:-1.263312 62:-1.094972 63:-0.028488 64:0.038796 65:-1.238179
-1 1:-0.864196 2:0.506073 3:-1.690088 4:2.347102 5:0.544167 6:0.797201 7:-0.417438 8:1.216638 9:0.776149 10:-1.091649 11:-0.507661 12:0.503623 13:2.506258 14:1.035520 15:-1.705651 16:-0.670804 17:-0.117126 18:0.042466 19:0.233130 20:-0.831494 21:0.016537 22:0.834646 23:-0.408818 24:0.435298 25:0.275574 26:0.357245 27:0.101893 28:1.205891 29:0.767863 30:0.280738 31:-0.287135 32:0.126947 33:2.449149 34:0.815574 35:0.261620 36:-1.294367 37:0.896493 38:-0.021198 39:0.086017 40:-0.413132 41:-0.419539 42:-0.560181 43:-1.440981 44:1.263546 45:-0.382166 46:1.263199 47:-0.347835 48:-0.982582 49:-0.649102 50:1.132276 51:2.556908 52:0.613670 53:0.560732 54:-0.401835 55:-1.283161 56:-1.599688 57:-1.393988 58:-0.220675 59:-0.620312 60:0.475351 61:1.360340 62:2.151250 63:1.255212 64:-1.268486 65:0.630735
-1 1:0.433190 2:-0.787597 3:0.329975 4:-0.537037 5:1.115300 6:-1.095734 7:1.950780 8:1.111641 9:0.330727 10:-0.789411 11:-1.393400 12:-1.925131 13:-0.116238 14:-0.520763 15:1.299022 16:-1.626269 17:0.167255 18:0.029648 19:1.421199 20:1.188899 21:-1.005090 22:-0.330827 23:0.775363 24:0.892633 25:0.412038 26:-1.291114 27:-0.498198 28:-1.230865 29:-0.714832 30:-0.485130 31:1.287341 32:0.698899 33:2.297802 34:-1.128620 35:-0.257693 36:-0.293085 37:-1.043853 38:-0.261235 39:-0.736743 40:0.643512 41:0.620968 42:0.823782 43:0.599111 44:0.143733 45:-0.551657 46:0.795184 47:0.779018 48:1.152602 49:0.375945 50:0.117447 51:-0.737159 52:-1.104158 53:-0.675118 54:-1.661558 55:-0.414466 56:0.709002 57:0.353382 58:-0.207807 59:0.103219 60:-1.099013 61:-0.168019 62:0.157387 63:-1.524681 64:0.280347 65:0.345698
-1 1:0.641178 2:-1.666823 3:-0.625459 4:0.908483 5:-1.755059 6:-0.473531 7:-0.072022 8:0.929889 9:0.343775 10:-0.855147 11:-0.038666 12:0.209634 13:-0.315714 14:-1.452001 15:-0.633004 16:1.256768 17:-1.018400 18:-0.370703 19:1.175981 20:0.511117 21:0.661444 22:1.355145 23:-0.006976 24:1.389568 25:-0.303590 26:0.574457 27:-0.388338 28:-0.976905 29:0.138439 30:0.987815 31:-0.454973 32:-0.731369 33:-0.178449 34:0.273999 35:0.377840 36:-1.577610 37:-0.765485 38:1.173606 39:-0.351397 40:-0.186392 41:-0.439807 42:-1.179809 43:0.581796 44:0.663235 45:-0.683125 46:0.034947 47:0.664457 48:0.166658 49:1.625768 50:-0.027984 51:-1.369152 52:-1.648897 53:-1.567768 54:-1.316693 55:-1.159662 56:-0.337176 57:-1.794673 58:0.447949 59:-0.790316 60:0.818386 61:1.775793 62:-0.969169 63:2.443505 64:0.236397 65:0.291103
-1 1:-0.126630 2:-1.056106 3:-0.046014 4:-1.799728 5:0.330789 6:-0.302386 7:-0.085332 8:-1.032076 9:0.882195 10:-0.536249 11:-0.343369 12:0.341494 13:0.597542 14:-1.264025 15:-0.608947 16:-1.466100 17:0.830807 18:0.636491 19:0.811405 20:1.000195 21:1.344302 22:0.031283 23:-0.570601 24:-0.313309 25:0.270735 26:-1.003916 27:-1.665047 28:0.819674 29:-0.143226 30:1.237355 31:0.727567 32:-1.062435 33:-1.130680 34:0.386188 35:1.429270 36:0.857137 37:-0.774217 38:2.075119 39:0.166735 40:0.814039 41:-1.012510 42:-0.278353 43:1.477123 44:-1.871447 45:-0.139467 46:1.044143 47:0.362432 48:1.342522 49:0.425610 50:-0.667628 51:-0.397532 52:-0.193751 53:1.023292 54:-0.278260 55:-0.978300 56:-2.480466 57:-1.555625 58:-0.059936 59:-0.589426 60:0.480670 61:1.141649 62:1.053203 63:0.534612 64:0.414880 65:-1.280337
-1 1:-0.240056 2:0.677291 3:-1.301121 4:0.711352 5:0.648581 6:-0.978315 7:-0.391572 8:1.378334 9:0.564269 10:0.695768 11:3.015025 12:1.272473 13:-0.679294 14:-0.523145 15:-1.387461 16:2.770678 17:1.162630 18:-2.971703 19:-0.778258 20:-1.684199 21:0.466272 22:1.378539 23:-1.688798 24:0.409190 25:0.506927 26:-0.671374 27:1.932382 28:-0.611476 29:-1.207324 30:0.337155 31:-0.002677 32:0.104218 33:0.390460 34:1.542998 35:-1.947382 36:-0.402733 37:-0.577717 38:1.157861 39:1.063004 40:-1.455322 41:0.660243 42:-0.494250 43:-0.837644 44:0.917057 45:-1.053523 46:-0.362770 47:-0.535487 48:-0.951634 49:-0.553489 50:-1.798842 51:-1.917909 52:-0.815066 53:0.289897 54:1.639235 55:1.672115 56:0.814827 57:-0.180493 58:0.809804 59:1.139403 60:1.248530 61:-1.222762 62:0.155470 63:1.559481 64:0.335121 65:-0.161332
-1 1:1.956392 2:-2.290069 3:-0.216035 4:0.073934 5:-0.338164 6:1.762214 7:0.713820 8:-0.357720 9:-1.067520 10:-1.913407 11:-0.733025 12:0.181269 13:1.417992 14:0.998021 15:0.155964 16:1.319885 17:-1.565608 18:0.909896 19:0.352336 20:-0.652361 21:-1.123853 22:0.654235 23:1.810059 24:-0.055093 25:2.200720 26:0.623268 27:0.659376 28:1.040651 29:-2.664983 30:1.698061 31:0.340983 32:-0.565526 33:0.712875 34:1.040940 35:0.317487 36:0.326450 37:1.492440 38:1.116386 39:0.335370 40:-0.104669 41:0.557564 42:0.740942 43:-0.760770 44:-0.323958 45:0.351832 46:-1.641838 47:0.398730 48:-1.086371 49:-0.859500 50:-0.486316 51:-0.139005 52:-0.863669 53:0.793412 54:1.247775 55:2.120154 56:0.355103 57:0.923896 58:-1.623492 59:1.074406 60:2.169764 61:2.292686 62:0.735617 63:-1.290761 64:-0.158648 65:-0.475461
-1 1:0.420886 2:-1.777872 3:0.656951 4:0.082259 5:-0.097821 6:-0.864623 7:0.658919 8:-0.340761 9:-0.766250 10:0.064063 11:0.350284 12:-0.473374 13:-0.200933 14:0.064782 15:1.092703 16:-0.598909 17:1.321245 18:-1.072883 19:-0.225992 20:0.724938 21:-0.608898 22:-0.570849 23:-0.589890 24:0.185470 25:0.160731 26:-0.077062 27:-0.411804 28:-0.037112 29:0.174781 30:-0.975970 31:0.838277 32:0.676760 33:0.664281 34:0.196122 35:-1.179248 36:-1.024523 37:0.592074 38:0.154938 39:-0.422238 40:0.136484 41:-0.249209 42:-0.038752 43:-2.440601 44:0.552061 45:-2.112150 46:-0.731874 47:-0.624578 48:-1.369139 49:-0.771860 50:0.082721 51:-1.231623 52:0.059097 53:0.183195 54:0.291838 55:0.191157 56:-1.338000 57:-1.316728 58:0.776170 59:-0.260938 60:2.134014 61:0.252249 62:-0.813457 63:0.358389 64:0.534370 65:0.709931
-1 1:-0.253961 2:0.908785 3:0.770726 4:1.486846 5:1.843656 6:0.820862 7:0.310542 8:1.944842 9:-0.887255 10:1.482860 11:0.819115 12:0.699881 13:0.845244 14:0.907318 15:-0.119337 16:0.518002 17:0.023460 18:1.701678 19:0.618867 20:2.050505 21:-1.429068 22:0.309914 23:-0.648123 24:-0.184204 25:-0.483888 26:-0.273779 27:0.168342 28:-0.245352 29:-1.215150 30:-0.571549 31:1.149595 32:-1.057358 33:-0.095141 34:0.221199 35:-0.213500 36:-0.312338 37:0.702797 38:1.841019 39:2.129664 40:0.322667 41:2.146795 42:-0.782743 43:0.139074 44:1.735325 45:-0.017432 46:-0.208850 47:0.730672 48:-0.393407 49:0.602782 50:0.486608 51:-0.686226 52:-0.214500 53:-2.004471 54:-2.115883 55:-2.707304 56:1.291159 57:0.644419 58:-0.506153 59:0.804856 60:-0.126259 61:0.838526 62:-0.373677 63:-1.445646 64:-1.581417 65:-1.971522
-1 1:-2.149839 2:0.562465 3:0.230731 4:-0.618457 5:-0.336770 6:-0.217816 7:2.149053 8:-0.009893 9:-0.629679 10:0.044806 11:0.703152 12:0.283735 13:-0.037376 14:-1.051271 15:-1.726196 16:0.803813 17:-0.942270 18:1.312108 19:0.246218 20:-1.746015 21:-1.349763 22:-1.657405 23:-0.032668 24:1.999552 25:0.544874 26:1.967607 27:1.077638 28:1.275137 29:-2.557942 30:2.242760 31:0.725953 32:0.215659 33:-0.779097 34:0.232387 35:1.197579 36:-0.160232 37:-1.369886 38:-0.262802 39:1.048008 40:0.800742 41:0.623088 42:2.159625 43:-1.818268 44:-0.853338 45:-0.110251 46:1.286950 47:1.296050 48:-0.682748 49:1.485559 50:0.131771 51:0.572574 52:-0.414133 53:-0.449185 54:-0.087565 55:0.647046 56:-2.350070 57:-0.379500 58:0.414376 59:-0.325013 60:-1.017075 61:0.301487 62:-1.826409 63:-0.059712 64:0.062707 65:-1.218366
-1 1:-0.008138 2:-2.443040 3:-0.383533 4:0.440477 5:-0.371904 6:-0.572890 7:0.833173 8:-0.088746 9:1.829247 10:-0.313241 11:0.726919 12:-0.800642 13:0.114810 14:-0.630200 15:1.078908 16:-1.027615 17:-1.455038 18:1.618697 19:-0.476104 20:1.812071 21:0.624409 22:-0.361468 23:0.336178 24:0.863743 25:-1.144994 26:0.630237 27:0.096640 28:-1.907013 29:-1.632215 30:-0.467385 31:0.609765 32:-0.450046 33:-0.562819 34:0.805560 35:0.796353 36:0.346776 37:-0.168766 38:-0.754248 39:-0.070055 40:-1.419287 41:1.543634 42:-1.076726 43:-1.031113 44:-0.494320 45:-0.214628 46:0.032856 47:0.682084 48:-0.768427 49:-0.198120 50:0.544821 51:-0.070601 52:-1.302418 53:0.103173 54:-0.849041 55:-1.133569 56:-0.164513 57:0.913249 58:-0.210789 59:0.945759 60:0.844725 61:0.436006 62:-1.024091 63:-2.236668 64:-0.100977 65:0.024514
-1 1:0.128781 2:0.384658 3:-0.322758 4:-0.775373 5:1.589479 6:-0.819065 7:0.289748 8:-0.568777 9:1.501822 10:1.694842 11:0.366372 12:1.692699 13:0.225722 14:0.947608 15:-2.053315 16:-0.127282 17:0.712183 18:-0.934154 19:0.735645 20:-0.295111 21:-0.547953 22:1.551884 23:-1.170006 24:0.068567 25:0.394484 26:0.829443 27:-0.660335 28:0.097003 29:0.588129 30:1.136260 31:-0.740545 32:-0.235861 33:1.215757 34:1.389886 35:-0.102258 36:-0.425138 37:0.718834 38:-0.667057 39:0.329976 40:0.569272 41:1.188183 42:-0.540457 43:0.308170 44:0.737070 45:-0.561260 46:-1.279075 47:0.245583 48:-0.177773 49:-0.216418 50:-0.555604 51:-0.368430 52:0.096508 53:0.039618 54:0.521619 55:-0.648652 56:-0.654890 57:-0.095907 58:0.368357 59:0.102649 60:-1.971778 61:1.988035 62:0.823692 63:1.055971 64:0.075069 65:0.966669
-1 1:-1.445032 2:-0.622161 3:-0.403561 4:-1.145175 5:-1.608133 6:-2.295484 7:0.740796 8:0.720690 9:-0.037940 10:0.170923 11:0.738515 12:1.357477 13:1.464879 14:-0.330059 15:-0.177300 16:-0.293335 17:-0.700495 18:-0.741638 19:-0.319828 20:-0.572017 21:0.081075 22:-0.074104 23:-0.627432 24:-0.626989 25:1.125620 26:0.239620 27:0.042213 28:1.302578 29:-0.594330 30:1.362349 31:-2.180944 32:-0.719562 33:0.250606 34:-0.442930 35:-1.050564 36:-0.561225 37:-1.404113 38:-0.122690 39:0.515191 40:2.189406 41:0.455699 42:0.910093 43:0.202560 44:-1.531841 45:1.004059 46:0.778329 47:-0.722002 48:-1.252988 49:-0.733486 50:0.184998 51:0.742234 52:-0.794539 53:-0.477796 54:-0.021587 55:-0.133668 56:1.716496 57:-1.200228 58:-1.997661 59:0.855162 60:0.366438 61:0.443036 62:0.180980 63:-0.344198 64:-1.026986 65:1.894280
-1 1:-0.395564 2:-0.291833 3:-0.334073 4:-0.345254 5:1.391081 6:0.543358 7:-0.799496 8:0.289104 9:-1.007232 10:1.484718 11:-0.290150 12:-0.944010 13:1.057602 14:0.188078 15:-0.138900 16:2.074356 17:1.712815 18:-1.486803 19:-0.010742 20:0.266289 21:-0.766043 22:0.153414 23:0.228523 24:0.899921 25:-1.974707 26:-2.013786 27:1.494788 28:0.787033 29:0.738386 30:0.301636 31:0.514678 32:-0.066643 33:-2.047726 34:2.972117 35:0.376288 36:1.379959 37:0.032721 38:3.055705 39:-1.022060 40:-2.174923 41:-0.241931 42:1.176038 43:-0.503585 44:-1.272132 45:0.354654 46:1.368810 47:1.204252 48:1.455966 49:-2.029487 50:-0.308826 51:-0.674959 52:1.273528 53:1.551362 54:0.089593 55:-0.247752 56:-1.584711 57:-0.224558 58:-0.188065 59:0.443183 60:1.012119 61:0.047409 62:0.342058 63:0.310217 64:0.979538 65:-0.724190
-1 1:1.968098 2:-0.683746 3:0.383349 4:0.006580 5:0.006575 6:-0.181054 7:0.537812 8:0.017636 9:-0.364459 10:0.670540 11:-0.541530 12:-2.318363 13:-0.023687 14:-0.594331 15:0.080911 16:-0.499772 17:-0.476256 18:0.961496 19:0.345164 20:-0.095325 21:-0.104315 22:0.081514 23:0.872054 24:-0.240119 25:-0.495349 26:-1.319681 27:1.644308 28:0.442843 29:-0.879522 30:0.138032 31:-0.254716 32:-0.551568 33:0.529033 34:-1.250492 35:-0.594910 36:-0.359084 37:-0.054480 38:-2.352986 39:0.184221 40:-2.453092 41:0.352683 42:-0.800964 43:-2.222738 44:-0.987309 45:-0.910700 46:-0.261041 47:0.800427 48:1.237415 49:-0.997501 50:0.183369 51:1.223682 52:-1.571872 53:-0.628592 54:0.348826 55:-1.379205 56:-0.481305 57:-0.264459 58:-0.589159 59:-0.345084 60:0.238575 61:-0.054975 62:-0.511257 63:0.544107 64:-0.792249 65:0.683716
-1 1:1.118058 2:1.067381 3:-0.307461 4:1.183216 5:1.668307 6:-0.669449 7:0.686226 8:-0.307651 9:-2.581931 10:1.340518 11:-0.456855 12:-0.883480 13:-0.306559 14:0.038162 15:0.989049 16:-0.891397 17:-1.927843 18:-0.662143 19:-0.113309 20:0.261351 21:0.021579 22:0.230451 23:0.959833 24:2.478965 25:-1.023695 26:1.688219 27:-0.127821 28:0.587015 29:1.191409 30:0.334578 31:0.311621 32:0.454110 33:0.742970 34:-0.407661 35:2.422058 36:0.193016 37:-0.800705 38:-0.435314 39:-0.828513 40:0.300087 41:0.196154 42:0.235728 43:-0.332341 44:-1.823651 45:0.760150 46:2.065259 47:-1.000110 48:0.606629 49:0.950456 50:-0.082682 51:0.549606 52:-1.676497 53:-0.838492 54:-0.523207 55:-0.626752 56:1.130929 57:-0.638414 58:0.117375 59:-1.213622 60:1.407113 61:0.492854 62:0.761345 63:-0.274610 64:-0.930036 65:0.470452
-1 1:-1.737072 2:0.265736 3:1.444773 4:-0.651225 5:-1.167662 6:0.453638 7:0.887941 8:-0.087865 9:-1.485314 10:0.160844 11:-0.418363 12:-0.341646 13:-0.982605 14:-0.371318 15:0.120550 16:0.473521 17:1.013062 18:1.942269 19:1.934365 20:1.552957 21:-0.745588 22:1.492720 23:0.871845 24:-1.320841 25:2.111864 26:-1.922174 27:1.258832 28:-0.429314 29:1.278893 30:-0.655147 31:0.480564 32:-0.358091 33:-0.572441 34:1.256022 35:-1.023410 36:0.023802 37:1.226774 38:-0.883491 39:1.859816 40:-2.460794 41:-0.213260 42:-0.664921 43:0.341732 44:-0.607270 45:0.386681 46:2.784169 47:0.441755 48:-0.543134 49:-0.190952 50:2.076808 51:-0.128563 52:-0.911015 53:0.214863 54:-0.482042 55:-0.523699 56:-1.007453 57:-0.557559 58:-0.386484 59:0.612164 60:0.899717 61:0.744551 62:0.933924 63:-0.872287 64:0.178139 65:0.781937
-1 1:0.018481 2:-0.620269 3:2.378506 4:-0.118884 5:-0.490681 6:0.249012 7:-1.569991 8:-0.003513 9:-1.507380 10:-0.619417 11:0.716861 12:0.175418 13:-2.329835 14:0.910629 15:0.615990 16:-0.344860 17:1.241401 18:1.628589 19:-0.202476 20:-0.969286 21:0.093185 22:0.285179 23:1.489961 24:-0.090053 25:-0.575420 26:0.146427 27:-0.495296 28:-0.530528 29:1.057586 30:-0.989196 31:0.446553 32:-0.978468 33:0.771171 34:-0.121457 35:-2.043590 36:0.030760 37:-1.290979 38:-0.109283 39:-0.897303 40:0.505225 41:0.564509 42:0.794498 43:-0.197884 44:1.232895 45:-1.250025 46:1.073541 47:0.456918 48:0.190168 49:-0.863080 50:-1.022131 51:-0.492517 52:-0.544273 53:-0.278064 54:-0.422062 55:-0.535042 56:0.259638 57:0.740109 58:0.180203 59:1.161890 60:-1.886573 61:-0.498140 62:-0.477117 63:0.154149 64:-1.313642 65:-1.714697
-1 1:-0.252730 2:2.095272 3:0.075861 4:0.617396 5:0.045000 6:0.207157 7:0.702983 8:0.469896 9:1.037194 10:-1.687092 11:-0.910468 12:0.041182 13:1.019170 14:0.272981 15:-1.686910 16:0.195558 17:1.466652 18:0.039031 19:-1.017341 20:0.221418 21:2.453996 22:-0.027141 23:0.003804 24:0.285857 25:-1.263383 26:-0.172110 27:0.908878 28:0.629080 29:0.846604 30:1.113426 31:0.520296 32:1.502962 33:0.677647 34:0.501125 35:0.507389 36:-1.195509 37:-0.608170 38:-0.801772 39:-1.082550 40:-0.349267 41:1.110086 42:-0.041250 43:-0.471230 44:0.025860 45:-0.570980 46:0.139232 47:0.213864 48:0.486599 49:1.132317 50:-0.320525 51:1.366369 52:1.462488 53:2.425590 54:-0.396853 55:2.159790 56:1.360582 57:-0.249322 58:1.396416 59:-0.719219 60:-0.230320 61:0.045283 62:1.340312 63:-2.054237 64:-1.722479 65:1.311191
-1 1:-0.957060 2:0.168191 3:-0.097831 4:2.187721 5:-0.554559 6:0.120043 7:-0.313308 8:-0.331480 9:-0.087706 10:-0.322124 11:0.475295 12:0.280944 13:0.980098 14:1.171556 15:-0.979667 16:0.931988 17:0.133354 18:-0.007847 19:0.986933 20:0.789047 21:0.290438 22:1.333323 23:0.872744 24:0.763171 25:0.030266 26:-1.242475 27:-2.141997 28:-1.787244 29:1.758188 30:-0.620594 31:0.492933 32:0.675415 33:-1.730402 34:-0.919863 35:-0.780043 36:-0.515162 37:0.159147 38:0.681064 39:-0.458069 40:-0.993795 41:-1.596270 42:0.914335 43:-1.556553 44:1.068532 45:2.004608 46:-0.134016 47:1.322927 48:-0.097098 49:-0.344658 50:-0.083666 51:-0.729470 52:-0.001755 53:0.228511 54:-0.290178 55:-1.437206 56:-0.181837 57:0.318130 58:1.070026 59:0.915717 60:1.041686 61:-0.067282 62:0.767565 63:-0.138474 64:-0.361815 65:-1.979772
-1 1:0.099272 2:-1.681239 3:0.043918 4:-0.920823 5:0.592608 6:-0.141967 7:0.656088 8:-0.217842 9:0.791582 10:-1.196122 11:0.091424 12:-1.413541 13:0.490969 14:-1.420381 15:-0.077420 16:-0.131546 17:0.597722 18:0.326153 19:0.848022 20:-0.890107 21:-0.432738 22:-0.696690 23:0.879168 24:0.964798 25:0.338383 26:-0.709279 27:-0.145057 28:0.167300 29:0.358693 30:2.193474 31:-1.358827 32:0.657722 33:2.093771 34:0.518185 35:0.181832 36:-0.912279 37:1.196473 38:0.244155 39:-1.817749 40:2.769445 41:-1.496292 42:1.188490 43:-0.209949 44:1.288791 45:0.122701 46:-0.380851 47:0.664658 48:-0.479441 49:0.058060 50:-0.815524 51:-0.514152 52:-0.942336 53:-2.067685 54:0.587729 55:-0.894210 56:0.946871 57:0.943003 58:2.095964 59:-1.499728 60:0.546236 61:0.449336 62:-0.232301 63:-0.171882 64:-0.766777 65:1.215229
-1 1:2.563947 2:-1.138519 3:0.818106 4:0.549468 5:-0.099844 6:0.422629 7:-0.039317 8:1.118423 9:0.150957 10:-0.828730 11:0.427328 12:-0.111928 13:0.228950 14:0.987206 15:2.076425 16:-1.584805 17:0.391089 18:-0.334233 19:0.217662 20:-0.545385 21:-1.013752 22:2.696392 23:0.427088 24:-0.897551 25:0.799511 26:0.298110 27:0.449804 28:0.127076 29:-0.890517 30:-1.358707 31:-0.886250 32:-0.374565 33:-0.137694 34:0.551354 35:1.261906 36:-1.048691 37:2.251087 38:0.588897 39:-0.443510 40:0.812447 41:-0.904231 42:-0.672403 43:-1.574879 44:-0.746953 45:-1.200515 46:-1.075488 47:1.202840 48:0.904036 49:-0.146907 50:-0.264393 51:-0.506604 52:-0.907216 53:-0.614810 54:1.218839 55:1.028478 56:0.356805 57:-0.002694 58:-0.788054 59:-0.815747 60:1.756874 61:0.740482 62:-1.005606 63:-0.044258 64:-1.063084 65:-0.930790
-1 1:0.102926 2:-0.383950 3:0.275040 4:-0.163335 5:-0.918437 6:-0.348118 7:-0.364812 8:1.331755 9:0.774825 10:-0.044730 11:-0.505616 12:-1.440515 13:0.899828 14:-1.878966 15:0.593657 16:-0.625712 17:-0.546017 18:0.233302 19:0.025947 20:1.394322 21:-0.358110 22:0.986159 23:0.113018 24:-2.488773 25:-1.110284 26:-0.978231 27:0.703080 28:-1.538945 29:0.404499 30:-1.023954 31:0.771945 32:0.598239 33:1.741978 34:0.386628 35:-2.342357 36:-0.337605 37:1.728803 38:0.292290 39:2.925930 40:0.577129 41:-1.160272 42:1.026420 43:0.702546 44:-0.765071 45:0.484340 46:1.430568 47:0.698963 48:-1.168702 49:0.733408 50:1.203181 51:-0.636040 52:0.714986 53:-0.521498 54:-0.846117 55:-1.428383 56:0.791589 57:-0.212857 58:0.463365 59:1.331740 60:-0.113984 61:-0.724393 62:0.108241 63:2.157731 64:0.035637 65:0.111577
-1 1:0.520800 2:0.071284 3:0.804765 4:0.907997 5:-2.001354 6:1.223100 7:0.694231 8:1.331656 9:-0.487780 10:1.315303 11:-0.816104 12:1.403889 13:0.169086 14:-0.089050 15:-0.210093 16:0.278955 17:0.270666 18:0.656199 19:-0.747818 20:1.106750 21:-0.177058 22:2.189873 23:0.622693 24:0.248223 25:1.425504 26:1.537882 27:0.212727 28:0.166980 29:0.166137 30:1.319683 31:-0.093300 32:0.075369 33:-0.028705 34:-0.064668 35:-0.741134 36:0.028846 37:-0.671991 38:0.795900 39:-0.588436 40:2.177610 41:0.239988 42:1.000157 43:-0.935794 44:0.253063 45:1.485390 46:-0.580885 47:0.189640 48:-0.155616 49:-2.050225 50:0.312600 51:-1.943201 52:-0.743240 53:1.886671 54:0.034522 55:-0.664765 56:0.259929 57:-1.336868 58:0.177636 59:1.880046 60:-0.189272 61:-0.381736 62:0.005398 63:-0.254767 64:0.108776 65:-0.672601
-1 1:-0.131155 2:0.372678 3:-3.679918 4:-0.070242 5:0.784412 6:-0.434896 7:0.786103 8:1.417730 9:-0.252180 10:-0.777322 11:-0.404944 12:-0.644906 13:-1.239711 14:0.255325 15:0.972647 16:-1.534923 17:0.168613 18:0.137906 19:1.350036 20:-1.936957 21:-0.004523 22:-1.032438 23:1.809647 24:0.046666 25:-0.984158 26:-0.362263 27:1.100827 28:1.620724 29:1.867082 30:1.102576 31:1.324834 32:-0.088886 33:-1.454740 34:-0.187254 35:1.945533 36:-1.235167 37:1.250912 38:-1.518304 39:-0.100523 40:-0.121510 41:-0.010155 42:-0.563980 43:0.812990 44:-1.016192 45:-1.289112 46:-0.525742 47:-0.112438 48:-0.417990 49:0.896494 50:1.019909 51:0.027516 52:-0.215024 53:-0.810851 54:0.550852 55:0.291496 56:0.541922 57:2.335397 58:-0.583505 59:1.913184 60:0.463435 61:0.383106 62:0.437434 63:-1.152633 64:0.357493 65:-1.537785
-1 1:-0.635983 2:1.746940 3:0.156424 4:1.363486 5:-0.809513 6:-0.292293 7:-1.399305 8:-0.623397 9:0.836175 10:-0.605918 11:0.674415 12:-0.563043 13:1.254207 14:0.976259 15:0.315045 16:0.156496 17:-0.328926 18:1.038007 19:0.008454 20:0.268142 21:0.517090 22:0.399358 23:-0.649841 24:-0.367252 25:-0.113070 26:-1.300370 27:-0.788583 28:1.059981 29:0.516697 30:0.139811 31:-1.093022 32:0.014998 33:1.781102 34:-1.644696 35:-1.158891 36:0.878654 37:-0.827267 38:-0.960743 39:-0.512216 40:-0.298901 41:1.079640 42:-0.504271 43:-1.343964 44:0.205407 45:-1.276859 46:-1.339353 47:-0.177785 48:1.246945 49:-0.595562 50:-0.323122 51:-0.121403 52:-0.483317 53:0.474063 54:0.232645 55:-0.842674 56:-0.670319 57:-0.747387 58:0.386173 59:0.150666 60:-0.720014 61:-0.082344 62:1.760752 63:0.050241 64:0.319523 65:-1.394172
-1 1:-0.284562 2:-0.236520 3:-0.475168 4:1.761088 5:0.740660 6:0.308848 7:1.022664 8:-0.228511 9:-0.827174 10:1.302746 11:-0.687175 12:1.912594 13:-1.389679 14:-0.658992 15:-1.070805 16:0.355173 17:1.807136 18:0.238541 19:-1.008906 20:0.165687 21:0.224537 22:0.605896 23:0.273489 24:1.199377 25:0.055489 26:0.829238 27:1.062945 28:-0.743395 29:1.967517 30:-0.269726 31:-1.938266 32:1.386806 33:-1.485377 34:-1.583129 35:0.639697 36:1.608986 37:-1.037586 38:1.118186 39:0.009175 40:0.398537 41:-0.918113 42:-0.334161 43:0.570924 44:0.336352 45:-0.928627 46:-1.436487 47:0.314233 48:-0.916158 49:1.078451 50:2.447910 51:1.833212 52:1.835811 53:-1.371519 54:-0.595429 55:-0.003082 56:-1.501222 57:-1.425816 58:-0.226243 59:0.191093 60:1.006789 61:-1.458195 62:-0.324721 63:-1.585171 64:0.735746 65:-0.840405
-1 1:0.075590 2:-0.696337 3:0.803008 4:0.696627 5:-0.039160 6:-2.094745 7:0.670499 8:1.220458 9:0.331001 10:0.458435 11:-0.092747 12:-1.111870 13:1.746695 14:-0.814087 15:0.623948 16:0.335637 17:1.808935 18:1.404352 19:0.626027 20:-1.204410 21:-0.918678 22:-1.798019 23:1.353474 24:0.794911 25:-0.799299 26:-1.405380 27:0.620811 28:-1.244082 29:0.269649 30:2.170844 31:0.142640 32:1.984788 33:-1.913748 34:-0.651530 35:1.431492 36:1.165419 37:-0.194633 38:0.013390 39:0.684471 40:0.737472 41:-0.689399 42:-0.102161 43:0.565358 44:1.825790 45:0.835114 46:1.379104 47:0.249352 48:0.153221 49:-0.657367 50:0.486144 51:-0.368784 52:0.794447 53:-2.139668 54:0.971742 55:-0.468766 56:0.398264 57:-1.463376 58:-1.886191 59:1.024777 60:0.011781 61:-1.360469 62:-0.879207 63:1.327287 64:-0.306033 65:-0.237301
-1 1:0.139618 2:-0.153354 3:-1.852371 4:0.700497 5:-0.022663 6:1.959913 7:-0.525648 8:-0.994041 9:0.857034 10:-2.228976 11:-0.694256 12:0.472293 13:-0.652693 14:-1.711121 15:-1.730416 16:0.562972 17:0.714327 18:-1.641417 19:-0.602276 20:0.260024 21:3.032500 22:-0.615225 23:0.767772 24:0.113239 25:-0.192811 26:0.588689 27:0.917233 28:-0.792064 29:-0.041813 30:-1.318380 31:0.485950 32:0.000606 33:-0.494997 34:-0.098146 35:0.914781 36:0.268530 37:1.576150 38:0.255254 39:0.022307 40:0.040862 41:-0.916797 42:1.305971 43:0.399632 44:-0.910639 45:0.850107 46:-0.236115 47:0.625011 48:-0.102162 49:0.131988 50:1.973864 51:-0.222011 52:-0.902399 53:-0.646735 54:-1.078528 55:0.268554 56:1.245095 57:-1.551909 58:1.725323 59:0.965296 60:-0.716021 61:-0.936376 62:0.807352 63:0.253836 64:0.472082 65:0.365829
-1 1:0.469496 2:-0.315339 3:0.849282 4:-0.013116 5:-0.341386 6:-0.061691 7:-1.479464 8:-0.024731 9:0.797351 10:-0.422379 11:0.116120 12:-0.784233 13:0.681151 14:0.780417 15:2.169076 16:-1.464263 17:0.320820 18:1.051201 19:0.902211 20:0.013727 21:-1.926117 22:0.359250 23:0.756858 24:-0.292924 25:-1.591671 26:-0.971248 27:0.203217 28:0.426015 29:1.090239 30:-0.160747 31:0.826172 32:0.517962 33:-0.175544 34:2.769870 35:1.497264 36:-0.916204 37:-1.019001 38:-0.373042 39:1.512765 40:0.348707 41:-0.055955 42:-0.783654 43:0.785162 44:-0.196921 45:0.674370 46:-0.198244 47:0.296906 48:0.296098 49:-1.676661 50:0.210944 51:-0.681765 52:1.227396 53:2.019536 54:-0.916457 55:-0.131015 56:1.620484 57:0.726636 58:0.108997 59:0.775642 60:-1.416684 61:0.946144 62:-0.671869 63:-1.267889 64:1.108875 65:-0.823577
-1 1:-0.853968 2:1.324250 3:0.332743 4:0.491825 5:0.996206 6:-0.374365 7:1.879613 8:1.355786 9:0.034534 10:1.723620 11:-0.740851 12:-0.664335 13:1.720687 14:-0.615661 15:1.203405 16:0.278683 17:-2.153206 18:0.666386 19:-1.626767 20:-0.035637 21:0.191689 22:-0.630820 23:0.287849 24:-0.912280 25:0.776166 26:0.374394 27:-0.842723 28:-1.220596 29:1.310623 30:1.058342 31:0.052816 32:-0.763337 33:1.358514 34:0.293077 35:-0.062802 36:-1.733010 37:-0.803620 38:-0.879857 39:0.765777 40:0.096725 41:0.297302 42:-0.598655 43:-1.090483 44:2.628465 45:1.151345 46:-0.884793 47:0.692650 48:-0.245655 49:-0.119591 50:-0.170558 51:1.368978 52:1.036362 53:-1.824337 54:-1.048404 55:2.303989 56:0.776618 57:1.734441 58:0.318570 59:-1.191975 60:0.393847 61:-1.083851 62:-0.974367 63:-0.415483 64:-0.194470 65:-2.109896
-1 1:1.391941 2:-1.532107 3:0.330897 4:0.163615 5:0.473583 6:1.262457 7:-0.937564 8:-1.033097 9:1.297187 10:0.449871 11:-1.100909 12:0.935266 13:-1.229838 14:-0.428744 15:0.123568 16:0.959901 17:0.558749 18:0.462111 19:0.150614 20:0.048669 21:-0.483333 22:-0.418939 23:-0.312059 24:-0.539458 25:-1.117588 26:0.412038 27:-0.595610 28:2.289983 29:2.330743 30:0.327360 31:0.695243 32:0.721965 33:-0.334681 34:-1.985823 35:1.311867 36:1.343869 37:-0.708284 38:1.686866 39:1.490883 40:0.419153 41:-0.498282 42:-0.175781 43:-0.931449 44:-0.138082 45:-0.135194 46:0.242979 47:-0.200661 48:1.220616 49:0.935401 50:-0.431451 51:1.432804 52:0.884771 53:0.789993 54:-0.447091 55:0.674838 56:-0.152938 57:1.844848 58:-1.587566 59:0.197178 60:0.732889 61:0.857442 62:-0.064380 63:0.375441 64:1.198903 65:-0.962836
-1 1:0.372111 2:0.503783 3:-1.289098 4:-0.796708 5:0.848870 6:0.240403 7:0.916874 8:-1.514156 9:-0.578143 10:-0.901867 11:-0.023092 12:0.599616 13:0.675529 14:1.149675 15:-1.343569 16:0.775217 17:1.034269 18:0.240271 19:1.816512 20:1.346867 21:1.131590 22:0.269542 23:0.046105 24:0.434028 25:-1.046644 26:-0.805885 27:0.916472 28:0.533343 29:0.112018 30:-0.474739 31:0.386228 32:1.783285 33:-0.351976 34:0.188342 35:0.060400 36:-0.219130 37:0.832079 38:1.679276 39:-0.271063 40:0.144021 41:0.638219 42:1.226131 43:0.584384 44:0.894457 45:-0.288130 46:-1.703247 47:-0.100159 48:-0.650098 49:-1.323041 50:0.621244 51:-1.576302 52:-0.506115 53:-0.100036 54:-0.021867 55:0.431152 56:-0.255953 57:-1.619063 58:-1.147988 59:-0.736476 60:0.178438 61:-1.066786 62:0.156076 63:-1.200482 64:0.921991 65:-0.512688
-1 1:-0.898333 2:-0.839606 3:0.272955 4:-2.579939 5:-0.362502 6:0.634429 7:-0.295659 8:-0.596330 9:-0.053134 10:1.666773 11:-1.199850 12:-0.397135 13:0.600037 14:-1.947617 15:-0.637952 16:-0.257264 17:-0.336335 18:-2.023745 19:0.522632 20:1.140650 21:0.699475 22:-1.042528 23:-0.383958 24:0.696346 25:-0.917812 26:0.766719 27:-0.178431 28:0.425908 29:1.303049 30:0.274763 31:1.574746 32:0.551397 33:1.928203 34:0.898674 35:0.059247 36:1.168534 37:1.092721 38:-0.853284 39:-1.012129 40:0.706067 41:-3.428272 42:-0.957999 43:1.635616 44:2.157053 45:1.398642 46:2.221300 47:0.215523 48:-0.288911 49:0.570109 50:0.515149 51:1.418840 52:1.614549 53:0.046849 54:0.195202 55:0.306819 56:-1.035350 57:0.387585 58:1.113994 59:-2.489798 60:1.698719 61:0.499280 62:0.608764 63:1.210402 64:0.685178 65:-0.821420
-1 1:-1.520921 2:-1.300646 3:1.400797 4:-1.548200 5:-0.482834 6:0.123780 7:-0.452633 8:0.536702 9:-1.715747 10:2.032394 11:-1.125788 12:-0.031629 13:-1.806721 14:-1.045316 15:-0.170514 16:0.593236 17:2.138914 18:-0.264653 19:2.028669 20:-0.487698 21:-0.755604 22:-0.157875 23:-0.864273 24:0.257843 25:-1.005443 26:-0.738872 27:1.097899 28:-1.111362 29:-0.360485 30:1.100996 31:1.631625 32:-0.280834 33:2.303964 34:0.036464 35:-1.124083 36:-0.242540 37:-0.664271 38:-2.196402 39:-0.962488 40:-0.316016 41:-0.354936 42:-2.141538 43:0.399257 44:0.785159 45:1.878956 46:-0.001682 47:0.189946 48:0.093007 49:-0.841939 50:-0.105303 51:-0.804890 52:-0.958491 53:-0.026855 54:-0.049595 55:-0.567723 56:0.384632 57:0.738182 58:2.306791 59:0.048155 60:-1.103502 61:0.315284 62:-0.539494 63:0.725280 64:-1.729112 65:-0.926359
-1 1:0.177674 2:-1.037819 3:-0.686739 4:0.540832 5:0.149924 6:0.217684 7:0.271626 8:-0.106816 9:0.740570 10:-0.107903 11:-1.866684 12:-0.416404 13:0.957401 14:0.012989 15:1.668291 16:1.067608 17:-2.001818 18:0.544530 19:-1.292892 20:-0.378115 21:0.382751 22:-1.072237 23:0.498908 24:2.550963 25:0.739268 26:-0.975275 27:0.563929 28:-0.402959 29:0.208789 30:-0.147313 31:0.632762 32:-0.629033 33:1.639823 34:-0.768631 35:1.055254 36:-1.548001 37:-1.669462 38:1.253876 39:-2.445590 40:-0.374363 41:1.151284 42:0.173679 43:0.688672 44:-0.320800 45:-2.162487 46:-0.584577 47:-0.361435 48:0.336301 49:0.839053 50:-1.176654 51:-0.025696 52:-0.815446 53:2.088084 54:0.247496 55:0.603892 56:-1.241570 57:0.122853 58:-0.618932 59:0.489468 60:1.253901 61:-0.788734 62:-1.047903 63:-0.152244 64:0.211712 65:0.158131
-1 1:1.029244 2:-0.954678 3:0.252619 4:0.545866 5:-1.097877 6:1.109780 7:0.753558 8:0.341570 9:-0.781134 10:-0.781110 11:-0.524627 12:-0.455742 13:-0.430434 14:0.362847 15:-0.676857 16:-0.038314 17:0.314743 18:-0.340714 19:1.138586 20:0.680541 21:1.817031 22:0.515056 23:0.316628 24:0.624926 25:0.917824 26:-1.697289 27:0.607555 28:-0.664788 29:-1.027871 30:0.219790 31:-0.474751 32:0.026059 33:1.166602 34:-0.100510 35:0.074987 36:0.661165 37:-0.398469 38:0.699081 39:1.481262 40:-0.990218 41:1.741254 42:-0.213231 43:-0.219376 44:0.618690 45:0.033628 46:-1.328110 47:0.148471 48:0.129982 49:0.041389 50:0.242931 51:-0.133581 52:-0.362159 53:0.000945 54:-0.096037 55:-2.043781 56:-0.647198 57:1.057514 58:0.660503 59:0.503822 60:0.736127 61:0.304123 62:-1.301967 63:-1.152602 64:-0.850949 65:0.029806
-1 1:-0.116578 2:0.512672 3:-0.816658 4:-0.722560 5:0.902395 6:-1.575258 7:-1.658882 8:0.568768 9:1.596850 10:0.711409 11:0.353791 12:1.965651 13:-0.935350 14:-0.409889 15:0.198079 16:-2.314345 17:-0.458169 18:-1.269700 19:0.280981 20:1.928269 21:-0.090378 22:-0.588213 23:-1.103750 24:0.323201 25:-1.377008 26:-0.451135 27:-0.511698 28:-1.216970 29:0.682717 30:-0.300929 31:1.114463 32:-0.758564 33:-0.635797 34:2.201841 35:0.119531 36:-0.411958 37:0.894677 38:0.079256 39:-0.362896 40:-0.995714 41:1.245058 42:-2.720764 43:0.402151 44:-1.009075 45:1.487275 46:-0.203104 47:2.299502 48:-0.603857 49:2.183537 50:-0.223752 51:1.483778 52:0.041330 53:-1.162056 54:0.877500 55:0.488586 56:0.651229 57:0.931885 58:-0.060674 59:0.696086 60:-0.673819 61:-0.506281 62:0.100211 63:-0.310187 64:0.215895 65:-0.600103
-1 1:0.981712 2:1.506819 3:-0.268075 4:0.523340 5:-0.707719 6:0.538532 7:-0.886646 8:2.532334 9:0.892805 10:-1.573468 11:0.438317 12:-0.466991 13:-0.770994 14:0.406121 15:-2.255611 16:0.458352 17:-0.196131 18:-0.111709 19:-0.131916 20:0.411397 21:-0.008092 22:0.362827 23:0.253210 24:0.798945 25:0.322360 26:0.300573 27:-0.295278 28:0.997467 29:-1.422746 30:-0.767286 31:-0.796669 32:-0.482330 33:-1.059809 34:1.282501 35:-1.008257 36:-1.782106 37:-0.395533 38:0.879608 39:0.762197 40:1.022633 41:-0.030337 42:0.221758 43:0.465848 44:-0.570995 45:-0.653647 46:-2.444837 47:0.289280 48:0.827153 49:-1.701074 50:-0.623082 51:0.244009 52:-0.276622 53:-1.816857 54:0.100050 55:0.561263 56:0.668122 57:-0.443860 58:0.472176 59:1.317415 60:0.382643 61:0.299027 62:1.606314 63:0.166153 64:0.083354 65:1.040158
-1 1:-0.242723 2:-0.485423 3:0.355409 4:-1.385179 5:-0.661040 6:-0.180553 7:-0.962946 8:-1.736870 9:1.175935 10:0.957466 11:-0.326274 12:-0.735085 13:-0.434565 14:0.155311 15:1.867671 16:0.714147 17:0.702127 18:-1.129077 19:-0.648101 20:0.578719 21:-1.759216 22:1.263360 23:-0.413594 24:-1.083129 25:-0.307906 26:-1.204925 27:-0.633477 28:-0.165004 29:-0.503109 30:-1.040415 31:1.685519 32:1.429178 33:-0.205495 34:-0.945389 35:0.644109 36:0.061730 37:0.840761 38:-1.131701 39:-0.273569 40:1.342034 41:1.144224 42:0.784122 43:-0.013161 44:-0.313200 45:-1.777705 46:-0.564040 47:-2.716158 48:0.892708 49:0.451606 50:0.169550 51:-1.160447 52:-1.198547 53:1.004456 54:1.808155 55:-1.828242 56:-0.105146 57:0.252167 58:-0.548860 59:-0.855646 60:1.158521 61:-0.834089 62:-1.155315 63:1.097085 64:1.429340 65:0.281335
-1 1:0.101160 2:0.937899 3:-1.189738 4:2.667852 5:-1.474350 6:-1.096927 7:1.138170 8:0.049303 9:1.377564 10:1.828883 11:-1.421604 12:-0.305175 13:1.650291 14:-0.338915 15:0.053833 16:-0.923093 17:-1.000637 18:-1.197723 19:-1.235325 20:-1.249022 21:-1.968408 22:0.107989 23:-0.932627 24:-0.426991 25:0.686373 26:-0.377718 27:0.531807 28:-0.441463 29:-0.414460 30:1.115388 31:-0.065078 32:-1.078191 33:-0.656741 34:0.353601 35:0.518124 36:0.332577 37:-0.839602 38:1.123931 39:-0.491897 40:1.576347 41:-0.274912 42:0.544129 43:-1.465769 44:-0.358928 45:-0.630379 46:-0.527012 47:0.316030 48:-0.436024 49:0.897956 50:0.706349 51:-1.605302 52:0.986635 53:0.665398 54:1.658058 55:-0.741603 56:0.035253 57:0.685664 58:-0.044755 59:0.328071 60:-0.693181 61:0.987424 62:-3.304617 63:-1.169147 64:0.557714 65:-0.191630
-1 1:0.650679 2:1.018310 3:-0.362490 4:-0.018186 5:-1.615620 6:-1.164760 7:0.320069 8:-1.645340 9:-0.207891 10:-1.767796 11:-1.097848 12:-0.738970 13:-0.341054 14:-0.235629 15:0.401409 16:0.403125 17:-0.157593 18:0.558662 19:1.349059 20:-2.251493 21:0.635245 22:-0.279798 23:-0.125951 24:-0.248680 25:-1.097523 26:0.381915 27:-1.718941 28:0.138992 29:1.408468 30:0.703860 31:0.063822 32:-0.660074 33:-0.177359 34:0.451320 35:-1.037846 36:0.556280 37:0.491675 38:1.301317 39:-1.048788 40:1.606977 41:-0.183528 42:0.594527 43:0.150256 44:0.267435 45:0.269741 46:0.643575 47:0.214525 48:0.448421 49:-2.201252 50:-1.585394 51:-0.241554 52:-1.163068 53:0.154338 54:-0.797691 55:1.524627 56:-0.589776 57:0.482289 58:0.188824 59:0.478217 60:-0.487886 61:-0.034177 62:-0.981844 63:0.036587 64:0.007922 65:0.005255
-1 1:-0.068028 2:1.003083 3:-1.438346 4:-0.842869 5:-1.340129 6:2.573991 7:0.242081 8:1.725531 9:-0.208726 10:0.374840 11:1.263694 12:-0.737831 13:-0.730545 14:-1.531807 15:1.340089 16:-0.053418 17:0.371339 18:0.760683 19:-0.895290 20:1.157366 21:-0.514462 22:-0.011595 23:-0.580839 24:-1.587754 25:1.790542 26:0.150541 27:0.401998 28:-0.267265 29:0.607296 30:0.067306 31:-2.187071 32:-0.722281 33:0.720919 34:-0.469525 35:-0.600345 36:0.175448 37:-0.374929 38:-0.318140 39:0.548409 40:0.223343 41:-2.467442 42:1.104170 43:0.690493 44:-0.348487 45:-0.184425 46:1.390622 47:0.353576 48:-1.143915 49:-0.517295 50:0.391570 51:-0.358835 52:-0.836710 53:-1.701672 54:0.409674 55:1.403110 56:-2.279094 57:-0.123598 58:-0.481208 59:0.482828 60:-1.314819 61:-0.018389 62:-0.410667 63:-1.798674 64:0.012835 65:1.110205
-1 1:-0.580617 2:-1.450321 3:0.797231 4:0.227011 5:-0.484212 6:-0.995935 7:0.459079 8:-0.265021 9:0.014350 10:1.190199 11:0.440776 12:-0.933219 13:-0.567155 14:-1.717330 15:-1.341526 16:-1.228182 17:0.451671 18:-1.511919 19:0.357278 20:-1.753572 21:-0.314652 22:1.647491 23:-0.372501 24:0.578184 25:-2.024514 26:0.018134 27:0.187800 28:0.967643 29:-0.874923 30:-0.270993 31:-2.064881 32:-0.432581 33:0.697521 34:1.314669 35:0.269800 36:-1.028861 37:0.174524 38:0.640822 39:1.031043 40:-0.594799 41:0.033925 42:0.351697 43:0.091532 44:-1.839881 45:0.073509 46:0.792160 47:-2.137778 48:0.434830 49:-0.216418 50:1.450692 51:-0.027227 52:-0.693485 53:-0.720220 54:0.341557 55:-2.103641 56:-0.323536 57:-1.797532 58:1.375411 59:-0.678239 60:0.105137 61:-0.190293 62:1.383585 63:-1.702346 64:1.046991 65:0.723508
-1 1:-0.468284 2:-0.961279 3:-0.035249 4:0.259077 5:-0.296118 6:-0.188002 7:-1.256915 8:0.109336 9:-0.761975 10:0.507363 11:-1.266736 12:0.922748 13:-0.694423 14:-1.837838 15:-0.048729 16:0.208855 17:-1.517111 18:-1.128708 19:-2.144168 20:0.277499 21:0.052143 22:-1.933055 23:-0.365415 24:0.842223 25:0.124764 26:0.247973 27:-0.603602 28:1.120089 29:0.462584 30:-0.342602 31:-0.458103 32:1.619238 33:-0.534899 34:0.346420 35:0.100849 36:-1.694676 37:0.298687 38:-0.876985 39:-0.101615 40:0.544579 41:-0.841365 42:0.389106 43:1.553352 44:0.016178 45:-0.149309 46:-0.080980 47:-0.057170 48:0.633081 49:0.089879 50:-0.448033 51:-1.532914 52:-0.944295 53:-1.186406 54:0.240410 55:-1.580465 56:-0.880953 57:-0.847604 58:0.284146 59:1.334233 60:0.110975 61:-0.688735 62:-0.865856 63:-0.040185 64:0.976996 65:-0.695467
-1 1:1.116161 2:-0.151462 3:-0.301972 4:0.526733 5:0.512267 6:0.882382 7:-1.091293 8:1.639232 9:-1.409667 10:-0.251778 11:-0.870994 12:-0.866044 13:-0.508565 14:-0.426261 15:-0.950002 16:0.315332 17:0.739821 18:0.681791 19:0.641305 20:0.039945 21:0.125850 22:0.889408 23:-1.511788 24:-0.931309 25:-0.604144 26:0.017145 27:1.666218 28:-0.220254 29:1.820628 30:-0.623870 31:-0.357138 32:-0.012888 33:-0.713003 34:-0.719319 35:0.013585 36:-0.283072 37:-1.061973 38:-0.774483 39:0.711503 40:-0.291568 41:-0.397659 42:-0.476079 43:-0.269725 44:-0.036378 45:-0.007934 46:-0.065678 47:0.505542 48:1.533423 49:0.069129 50:0.280893 51:-0.047734 52:1.267594 53:-0.383656 54:-0.557556 55:-0.369035 56:1.319069 57:-0.685705 58:-1.085375 59:-1.318844 60:-0.283918 61:0.472869 62:0.033929 63:-1.135086 64:0.478282 65:0.073232
-1 1:-0.149188 2:-0.325851 3:-0.304067 4:-0.618784 5:-1.412330 6:-0.263556 7:0.064313 8:0.952376 9:0.041631 10:-0.057989 11:0.180439 12:1.026539 13:0.832437 14:-1.172294 15:0.604305 16:-1.627964 17:-0.084891 18:-0.065580 19:-0.040192 20:-0.699304 21:1.042491 22:0.545185 23:-0.645194 24:1.998300 25:0.002705 26:-1.298029 27:-0.221599 28:-0.896352 29:-0.120687 30:0.116536 31:0.422704 32:1.053023 33:-1.039005 34:0.689331 35:0.850136 36:-0.924768 37:0.969993 38:1.071393 39:0.198299 40:0.885108 41:0.012385 42:-0.301257 43:-0.279383 44:0.097579 45:0.653626 46:1.431293 47:2.209064 48:-1.209210 49:-1.473150 50:1.032071 51:-0.402612 52:-1.268464 53:-0.591686 54:1.641082 55:-0.785454 56:0.881587 57:-0.649976 58:0.414161 59:0.635431 60:-1.852229 61:-0.584951 62:0.212800 63:2.027736 64:0.356667 65:-0.438214
-1 1:1.486318 2:-1.858392 3:-0.070768 4:0.719608 5:-0.048562 6:-1.066808 7:0.692421 8:-0.972031 9:-1.340046 10:1.210268 11:1.003151 12:0.086913 13:-1.202450 14:0.074598 15:0.121435 16:0.626498 17:1.129412 18:-0.402866 19:-1.060505 20:1.434666 21:-0.696175 22:0.634500 23:0.746030 24:2.049559 25:0.690144 26:0.037917 27:-0.078917 28:0.878044 29:-2.636424 30:0.504316 31:0.241418 32:-1.962119 33:0.037274 34:-1.013236 35:-0.371821 36:1.577835 37:-1.013856 38:-0.332239 39:-0.917054 40:1.304189 41:0.202649 42:0.084072 43:-0.326606 44:-0.331106 45:-0.651760 46:-0.396711 47:0.367275 48:-0.627596 49:0.590820 50:0.533790 51:2.308172 52:2.089094 53:-0.724572 54:0.614344 55:-1.933477 56:1.179493 57:1.184977 58:0.591381 59:0.970264 60:0.390622 61:0.829533 62:0.110494 63:-0.148910 64:1.290153 65:0.629868
-1 1:-0.744814 2:0.638006 3:-0.331750 4:0.076489 5:0.375179 6:-0.764835 7:-0.725848 8:1.735379 9:0.326527 10:-0.101353 11:-0.204131 12:-0.071485 13:-0.475665 14:-2.034229 15:-0.127969 16:0.529669 17:-0.429093 18:-0.784144 19:-0.397947 20:-0.493464 21:-1.104338 22:-0.520903 23:1.494343 24:0.283934 25:1.400201 26:-0.102798 27:-0.589150 28:-0.125288 29:-0.753167 30:-0.479766 31:0.242554 32:-0.980581 33:0.032879 34:1.432754 35:-0.689526 36:0.582207 37:-0.678944 38:-1.675503 39:-0.086073 40:0.605627 41:-0.376727 42:0.755723 43:-1.179449 44:-1.566302 45:0.771553 46:1.727944 47:-0.669242 48:0.471068 49:-0.097567 50:-0.928648 51:0.074361 52:0.859017 53:-0.665973 54:-0.535894 55:-0.666074 56:0.905826 57:-0.877521 58:-0.607907 59:0.942987 60:-0.959834 61:-0.140540 62:0.416627 63:0.124579 64:-0.671327 65:0.686899
-1 1:-0.550571 2:-0.409277 3:0.844238 4:1.385243 5:0.068903 6:0.160383 7:-1.073527 8:-1.304454 9:1.576302 10:0.775731 11:-0.029208 12:0.341370 13:-0.754539 14:-0.737720 15:1.387801 16:-0.901531 17:-0.134613 18:1.766353 19:0.761639 20:-0.390152 21:-0.986713 22:1.079875 23:0.275574 24:0.039649 25:0.551727 26:-0.562296 27:1.820783 28:0.434560 29:0.335409 30:0.863338 31:0.048057 32:0.601956 33:0.405841 34:0.776190 35:-0.305790 36:0.981822 37:-0.017254 38:0.359265 39:0.272079 40:0.440072 41:1.618157 42:-1.212725 43:0.121932 44:-0.376449 45:0.863913 46:1.624295 47:1.750331 48:-0.897452 49:0.200878 50:-0.096759 51:0.742135 52:-0.151410 53:1.290393 54:-0.128335 55:-0.695624 56:-0.149591 57:-0.781432 58:0.172091 59:1.829836 60:-1.594579 61:0.243943 62:0.332661 63:-0.929665 64:0.571306 65:1.193698
-1 1:-0.506973 2:0.663064 3:0.414428 4:0.316239 5:0.175911 6:-0.844094 7:-0.221893 8:-0.360030 9:-0.820338 10:-0.565511 11:0.784763 12:0.604286 13:-0.597687 14:0.292895 15:-0.282814 16:0.669805 17:2.105209 18:0.198164 19:-0.031697 20:-0.938169 21:-0.350504 22:0.722689 23:-0.696191 24:-0.666558 25:0.129844 26:0.189816 27:-0.523790 28:-1.483408 29:0.348355 30:0.898773 31:-0.318742 32:-0.134444 33:0.126012 34:0.480633 35:-0.881199 36:-0.819316 37:0.339437 38:-0.240674 39:-0.286789 40:-0.278402 41:0.157473 42:-0.175092 43:-0.615361 44:0.164141 45:-0.769089 46:1.016626 47:-2.214380 48:-1.099276 49:-0.986511 50:0.958855 51:-0.175171 52:0.285234 53:1.564756 54:-1.153597 55:0.849514 56:2.290476 57:-1.123382 58:-0.751825 59:-1.954764 60:-0.365339 61:0.864458 62:-0.395887 63:-0.095653 64:1.498858 65:0.751848
-1 1:0.090633 2:0.738548 3:1.569459 4:0.926069 5:-0.525279 6:0.458805 7:-0.125823 8:-0.700923 9:0.930337 10:0.317225 11:0.185615 12:0.427935 13:0.233353 14:-0.827519 15:0.842628 16:0.732491 17:-1.149181 18:-0.537398 19:0.970030 20:-0.060912 21:-0.964294 22:0.125366 23:-0.168766 24:-1.619895 25:-0.714273 26:1.182382 27:-0.332411 28:-0.551288 29:-1.324360 30:-0.453347 31:0.229722 32:0.087300 33:0.777855 34:1.233598 35:0.375008 36:0.762775 37:0.838040 38:-1.312162 39:1.383392 40:0.361018 41:1.019718 42:1.474522 43:0.274113 44:0.377054 45:1.188556 46:-0.227713 47:-0.603935 48:0.209739 49:-0.969441 50:0.081900 51:-0.424714 52:0.003883 53:0.450512 54:-0.137230 55:0.470604 56:1.358189 57:-0.763333 58:0.062696 59:-0.571595 60:0.133257 61:-1.413566 62:0.900753 63:1.182065 64:0.570424 65:-0.460325
-1 1:-0.403019 2:-1.929512 3:1.607389 4:0.287520 5:1.976572 6:-0.430828 7:0.575285 8:0.501311 9:1.234748 10:0.348332 11:0.555253 12:-0.741596 13:1.635112 14:-0.098594 15:-1.893264 16:-1.371740 17:-0.494371 18:0.190409 19:-0.443195 20:1.796264 21:0.942192 22:0.511061 23:1.048236 24:-1.529681 25:0.188014 26:0.104555 27:-0.098405 28:1.122359 29:0.749020 30:1.542549 31:-0.662532 32:1.647951 33:0.206792 34:-1.511618 35:-1.323734 36:1.387613 37:-1.255978 38:0.179050 39:1.432270 40:-0.474342 41:-0.775792 42:-0.914918 43:-0.484196 44:-0.564985 45:0.611636 46:-0.119388 47:-0.920480 48:1.098599 49:-0.456306 50:0.838148 51:-1.793381 52:1.135714 53:0.922564 54:-0.858571 55:-1.266192 56:-3.624843 57:2.611786 58:0.033030 59:-1.552462 60:-1.130096 61:-0.532414 62:0.788776 63:-1.469050 64:-0.915672 65:1.543139
-1 1:0.866675 2:0.488153 3:0.443525 4:0.904155 5:0.580908 6:1.193755 7:-2.323734 8:-1.023770 9:0.863849 10:-0.025733 11:0.691222 12:0.318645 13:2.192402 14:-0.307731 15:-0.342091 16:0.027703 17:-0.217346 18:-1.469839 19:-1.846255 20:0.158897 21:1.933509 22:-0.132252 23:0.308435 24:-1.045874 25:-0.220125 26:1.671392 27:1.050505 28:0.838019 29:-0.144258 30:-1.092761 31:0.400058 32:1.493419 33:-0.122701 34:-0.604395 35:1.051786 36:-0.301092 37:0.841203 38:1.323395 39:0.721101 40:-0.438994 41:-0.355865 42:1.401983 43:0.415398 44:-0.446992 45:1.631056 46:0.208914 47:0.823256 48:-1.167084 49:0.379401 50:0.047266 51:-0.268187 52:-0.443921 53:0.183083 54:-0.766540 55:-0.067453 56:1.229897 57:0.319434 58:-0.972732 59:0.916404 60:-1.829220 61:-0.143222 62:0.916022 63:1.073553 64:1.603336 65:-0.054686
-1 1:0.583787 2:0.564761 3:1.074174 4:0.867911 5:2.327643 6:0.233018 7:-1.602378 8:-0.711547 9:0.063520 10:-0.027339 11:0.041757 12:-0.250566 13:0.215664 14:-0.834793 15:-0.976874 16:-0.348206 17:-0.546065 18:-0.045672 19:-0.513798 20:1.410304 21:-0.569145 22:1.382575 23:-1.355491 24:-0.220089 25:-0.746578 26:-1.848754 27:0.455323 28:1.140800 29:-0.335035 30:-0.420133 31:1.497417 32:-0.614847 33:-0.798702 34:-1.733859 35:-1.485384 36:-0.491177 37:1.032217 38:-0.402533 39:-1.509902 40:-0.516592 41:-1.246027 42:0.278454 43:0.694455 44:1.205890 45:-1.103206 46:-0.042785 47:1.769880 48:0.562969 49:-1.250199 50:-0.961907 51:-0.442171 52:-0.681280 53:-1.238786 54:0.210531 55:-0.937466 56:-1.053153 57:0.927705 58:0.843392 59:0.089644 60:0.107203 61:-0.280044 62:-0.267889 63:-0.558606 64:-0.817037 65:0.368019
-1 1:-1.099685 2:0.988263 3:-0.069874 4:1.084036 5:-0.085009 6:1.113897 7:-0.439001 8:-0.980145 9:-0.772488 10:0.832228 11:0.945823 12:1.317557 13:1.019369 14:-0.501435 15:0.005647 16:-0.256334 17:0.038973 18:-0.602406 19:-1.071820 20:-1.999434 21:-1.223533 22:0.397460 23:1.289883 24:-0.026317 25:-0.763266 26:-1.218005 27:1.202563 28:-0.097160 29:-0.491823 30:1.313665 31:0.983387 32:1.616899 33:0.429318 34:-0.791620 35:0.555385 36:-0.244971 37:0.180417 38:-0.616222 39:-0.916125 40:1.060872 41:-0.062870 42:-0.032883 43:-0.480990 44:-0.299108 45:-0.192870 46:-1.356911 47:-1.101940 48:0.175277 49:-0.914596 50:-0.890542 51:-0.140092 52:0.895945 53:1.310419 54:1.715666 55:0.074092 56:-0.499028 57:-1.282142 58:-0.352503 59:0.955651 60:-0.088299 61:-0.632035 62:0.110981 63:0.648277 64:1.037169 65:0.943760
-1 1:-0.789195 2:0.072320 3:0.496995 4:-0.712297 5:-0.366878 6:0.204087 7:0.364845 8:-0.279390 9:2.075134 10:1.967382 11:-0.933687 12:-0.191224 13:-0.207744 14:-0.680073 15:0.121964 16:0.133074 17:0.352233 18:-0.442908 19:0.303825 20:1.144684 21:-0.668626 22:-0.160593 23:-1.822726 24:-0.409933 25:1.891755 26:0.346209 27:0.044749 28:-0.589619 29:-0.516935 30:-1.391559 31:-0.027497 32:-0.238661 33:-1.020356 34:-0.912703 35:-0.021622 36:-0.210874 37:0.399780 38:-0.171427 39:1.988643 40:0.847679 41:-0.597925 42:-0.156732 43:0.301077 44:0.519616 45:-1.207930 46:1.218866 47:-0.492615 48:-0.597210 49:-0.781492 50:-0.794258 51:-1.554149 52:-0.227450 53:2.365294 54:0.517699 55:0.539034 56:-1.402979 57:0.084317 58:-1.138959 59:1.532936 60:0.386990 61:-0.462292 62:0.088536 63:-0.598999 64:-1.049660 65:-1.129950
-1 1:-0.433062 2:0.506731 3:0.853961 4:-1.597411 5:0.767743 6:-0.800516 7:0.636601 8:-0.495240 9:0.287023 10:0.805099 11:-1.051343 12:-0.037061 13:-0.440903 14:-0.449799 15:-0.174106 16:-0.668154 17:-0.245101 18:-0.755173 19:-0.442428 20:0.063358 21:1.584217 22:1.550133 23:0.462203 24:0.115774 25:-0.539452 26:-0.274632 27:0.555973 28:0.458367 29:1.157194 30:-0.824061 31:0.060025 32:-0.014695 33:0.138785 34:1.101291 35:-0.006722 36:-0.513677 37:0.790110 38:-1.487923 39:-0.685251 40:0.121359 41:-0.308065 42:-0.193273 43:1.792540 44:0.132607 45:-0.320866 46:1.784862 47:-0.950052 48:0.587336 49:0.300668 50:0.865697 51:-0.198770 52:0.164193 53:-0.245725 54:-0.210313 55:-1.165435 56:0.263545 57:-1.498485 58:-1.814769 59:0.356649 60:-1.552976 61:0.112153 62:0.109977 63:0.156491 64:-1.059230 65:-0.272306
-1 1:-0.052572 2:0.530347 3:0.209438 4:1.287537 5:-1.374267 6:-1.371735 7:-0.734139 8:-0.698447 9:1.382415 10:3.147115 11:-0.497089 12:-0.021010 13:-1.907363 14:-0.695961 15:-1.539902 16:-0.014188 17:-0.692204 18:0.095304 19:1.307287 20:0.411840 21:1.339724 22:-0.223493 23:-0.169162 24:0.009511 25:-1.243154 26:-0.728023 27:-0.262086 28:0.207245 29:1.435421 30:0.474256 31:0.625520 32:-0.438068 33:-0.190395 34:-0.179354 35:-2.090143 36:-1.413270 37:-0.308453 38:-0.133245 39:-0.563162 40:0.080588 41:0.972083 42:-0.165107 43:1.884029 44:-0.074426 45:0.595569 46:-0.519553 47:0.515518 48:1.378263 49:-0.302349 50:0.356670 51:1.773829 52:-1.327388 53:0.791582 54:0.698738 55:-1.433936 56:-3.201233 57:1.428590 58:0.758272 59:-0.888831 60:-1.079319 61:0.453047 62:-0.752782 63:1.414063 64:-0.199626 65:0.027854
-1 1:-0.050623 2:-1.018195 3:-0.310847 4:-0.909979 5:0.138920 6:-0.745958 7:0.381591 8:-0.257681 9:-0.077340 10:0.141486 11:2.045474 12:-1.027470 13:-0.967575 14:0.955791 15:0.285588 16:-0.721992 17:-0.363164 18:0.780044 19:0.583356 20:-0.084810 21:-0.248228 22:0.830401 23:1.409752 24:-0.043717 25:1.237147 26:-0.896246 27:0.905374 28:-1.000226 29:-0.206879 30:0.271386 31:0.220339 32:-1.086348 33:0.215656 34:-1.178505 35:-1.995687 36:2.048081 37:0.181170 38:0.824328 39:1.196898 40:1.625146 41:0.303744 42:1.284125 43:-0.756932 44:-0.550626 45:1.051130 46:-1.594361 47:0.018855 48:-0.338381 49:-1.006795 50:2.361741 51:0.688397 52:1.515090 53:-0.928672 54:-1.548623 55:-1.277228 56:-0.560568 57:-0.715332 58:0.042025 59:2.108625 60:0.425340 61:0.623663 62:-0.700564 63:0.050718 64:-0.294315 65:0.534195
-1 1:0.627965 2:0.864049 3:2.069921 4:-0.511783 5:0.184695 6:-1.370758 7:-0.100627 8:0.265506 9:0.685464 10:0.721852 11:-0.897123 12:0.811630 13:0.055710 14:0.693890 15:0.696988 16:0.201366 17:1.638021 18:1.308291 19:0.457574 20:0.094547 21:0.477438 22:-0.382464 23:-0.160992 24:-1.444435 25:1.413863 26:-0.125043 27:0.304778 28:-0.128676 29:0.145552 30:-0.006553 31:-0.545202 32:0.163583 33:1.040486 34:0.688365 35:2.697820 36:-1.522709 37:1.049191 38:0.933941 39:0.356368 40:1.766737 41:0.734653 42:0.198384 43:-0.485337 44:-0.923347 45:-0.032916 46:1.721570 47:-1.129537 48:0.590930 49:0.500706 50:-1.312504 51:-0.552128 52:-1.177582 53:-1.265164 54:1.074882 55:0.149996 56:0.296685 57:-1.057865 58:-0.888762 59:1.606872 60:0.117870 61:1.142184 62:1.667119 63:-0.262187 64:-1.224653 65:-0.360852
-1 1:-0.550398 2:0.453828 3:-1.381847 4:-0.272877 5:0.595770 6:-1.268064 7:-0.284813 8:-0.904602 9:0.095388 10:0.643510 11:1.908256 12:0.908429 13:0.074686 14:-0.180351 15:-1.402496 16:0.024999 17:0.585568 18:-0.038847 19:-0.163129 20:0.620088 21:0.622690 22:0.706116 23:0.077641 24:-0.260555 25:0.303535 26:-1.132388 27:-0.738106 28:0.357611 29:0.557518 30:-0.203477 31:0.742531 32:1.124929 33:-0.275598 34:0.376415 35:0.858760 36:1.612846 37:1.624543 38:-1.656842 39:-0.077557 40:0.607000 41:-3.033818 42:-0.772781 43:1.772481 44:0.648178 45:0.046760 46:-1.067737 47:-1.353782 48:-0.194286 49:1.119306 50:1.002357 51:0.557147 52:0.062679 53:-0.126761 54:-0.080923 55:0.222253 56:0.058607 57:-0.667330 58:0.893387 59:-0.094905 60:-1.681122 61:-0.172226 62:1.619322 63:0.604499 64:-0.499690 65:-0.361739
-1 1:1.479838 2:0.128998 3:1.483802 4:2.023298 5:-1.824223 6:-1.515378 7:-0.630157 8:0.259546 9:-2.165770 10:-0.572136 11:1.964985 12:0.185231 13:-0.695701 14:1.586198 15:0.531105 16:-0.603031 17:-0.765720 18:-3.028508 19:0.909687 20:-1.332927 21:-1.618501 22:0.449685 23:-0.094297 24:0.261540 25:0.204680 26:-1.358618 27:-0.235764 28:-1.731861 29:-0.737605 30:-1.810569 31:0.938090 32:-0.465383 33:0.813008 34:-0.366948 35:2.331820 36:-0.095798 37:-1.190719 38:1.421334 39:0.259882 40:-1.976433 41:-1.103984 42:-0.814503 43:-0.280984 44:0.339140 45:-0.081478 46:0.012279 47:0.399132 48:-0.296314 49:-1.204626 50:0.204980 51:-1.011609 52:0.839458 53:-0.913128 54:0.270641 55:1.009895 56:-0.921997 57:-1.187640 58:-1.586873 59:0.405038 60:0.921720 61:-0.074427 62:-0.272006 63:1.549805 64:0.990391 65:0.980892
-1 1:-0.190504 2:-0.730042 3:-0.781696 4:1.013069 5:-0.448257 6:-0.240306 7:1.108946 8:0.958356 9:0.801123 10:0.449160 11:1.389854 12:-0.583589 13:-0.008017 14:0.487400 15:1.426964 16:-0.948912 17:0.792305 18:0.182027 19:0.294847 20:-0.603051 21:0.334345 22:0.373623 23:0.579470 24:0.387928 25:0.887112 26:-0.074361 27:-0.777268 28:-1.180876 29:-0.058214 30:0.419697 31:0.314597 32:-0.320126 33:0.596722 34:-1.154975 35:-1.525951 36:-0.308464 37:0.083272 38:-0.463354 39:1.606712 40:1.197372 41:-0.973485 42:-0.824109 43:0.829428 44:-1.841485 45:0.720863 46:1.230534 47:1.329187 48:1.522174 49:0.754640 50:0.436826 51:-0.140507 52:0.269396 53:-1.337000 54:-1.159237 55:0.109254 56:-0.460104 57:-0.979452 58:-0.330948 59:0.556081 60:0.654299 61:1.349392 62:2.190078 63:-0.830435 64:-1.262568 65:0.624378
-1 1:0.214415 2:0.380425 3:1.136593 4:0.024051 5:-0.285286 6:0.148307 7:1.234245 8:0.965971 9:-0.430743 10:-0.567602 11:0.772449 12:-1.255791 13:0.094156 14:0.149924 15:-1.132895 16:-1.893191 17:0.058758 18:-0.652025 19:-0.768249 20:-1.185753 21:-1.067491 22:0.924315 23:0.103990 24:-0.306984 25:-0.193096 26:-0.734854 27:0.281071 28:0.738071 29:0.624138 30:0.266273 31:0.833777 32:0.656716 33:1.352597 34:0.014024 35:0.923564 36:0.249583 37:0.187463 38:1.247144 39:-2.401021 40:-1.140625 41:-0.542978 42:-0.473008 43:0.489567 44:0.572488 45:-0.495291 46:0.793321 47:-0.028836 48:2.076993 49:0.783020 50:0.685660 51:-1.203497 52:-0.105053 53:-1.444109 54:0.167175 55:0.599547 56:1.921773 57:-0.033887 58:-1.043500 59:0.421717 60:0.611001 61:-0.488540 62:-0.480082 63:-1.915459 64:-0.823424 65:1.527910
-1 1:1.273276 2:-1.582306 3:-1.102283 4:0.102011 5:0.013886 6:0.355414 7:-1.201834 8:-0.356154 9:-0.404983 10:-0.882204 11:0.074752 12:0.820114 13:1.532269 14:-0.775920 15:-0.257832 16:0.600544 17:0.888385 18:-1.053549 19:-0.816275 20:1.367438 21:-0.503513 22:0.412537 23:-0.831654 24:-0.027193 25:-0.855333 26:0.869853 27:-1.627619 28:-1.098962 29:1.100650 30:-0.285237 31:-0.938315 32:1.676290 33:-0.092543 34:0.706789 35:0.499279 36:1.435387 37:0.205547 38:0.490203 39:1.530897 40:1.126429 41:-0.529745 42:-1.838481 43:0.040777 44:-0.105328 45:0.683752 46:0.333450 47:-0.610016 48:0.269389 49:0.027969 50:-0.094336 51:-0.338069 52:-0.741365 53:0.235354 54:-1.569804 55:-0.664952 56:-0.130064 57:0.707253 58:0.198128 59:-0.211909 60:2.052867 61:-0.343427 62:-1.144129 63:0.807480 64:1.059068 65:1.393901
-1 1:0.715017 2:0.509171 3:0.953860 4:-0.107373 5:-0.415140 6:-0.192891 7:-0.615804 8:0.317274 9:-1.862143 10:1.609212 11:-1.793631 12:-1.765903 13:-0.058810 14:1.157684 15:1.626707 16:1.126321 17:0.486159 18:-1.311430 19:0.097762 20:-0.063013 21:-0.498185 22:-1.491098 23:0.085147 24:-0.108714 25:-0.125317 26:-1.908582 27:0.000346 28:0.116334 29:-0.110737 30:0.509280 31:0.694008 32:0.681342 33:-0.756702 34:0.109634 35:2.070427 36:-0.644703 37:-0.338078 38:-1.556230 39:-0.363089 40:-0.326170 41:-0.626509 42:-1.471579 43:1.050024 44:-0.695639 45:-0.344254 46:0.874933 47:0.687617 48:0.627944 49:-0.515263 50:-1.040328 51:0.341503 52:-0.062131 53:-0.900906 54:-0.749571 55:1.297230 56:0.014754 57:0.872975 58:-0.074629 59:2.625141 60:0.806649 61:-0.866884 62:-0.563960 63:1.021326 64:-1.026920 65:-1.818982
-1 1:0.187725 2:-0.964061 3:0.997487 4:-0.479338 5:-0.740188 6:0.856272 7:-0.620716 8:-0.073462 9:-0.098568 10:-0.559987 11:-1.751228 12:0.753362 13:1.196112 14:1.670416 15:-0.106512 16:-0.830751 17:-0.100554 18:-0.168423 19:-1.661993 20:0.144263 21:2.053335 22:0.048065 23:-0.363525 24:-0.318273 25:0.056292 26:-1.749439 27:0.243148 28:0.293024 29:0.542871 30:1.230044 31:0.731454 32:-0.120535 33:1.149698 34:0.337031 35:0.946614 36:-1.518448 37:0.158274 38:0.107950 39:0.676267 40:-0.163670 41:-0.979583 42:-1.558104 43:-0.407406 44:-0.551120 45:0.970625 46:2.250243 47:0.424719 48:0.935211 49:1.680857 50:0.296611 51:-0.469708 52:-2.796449 53:1.126822 54:-0.781881 55:-0.227604 56:-0.284771 57:-1.054038 58:1.528747 59:-0.814765 60:1.863319 61:0.273789 62:-0.175108 63:-0.937623 64:1.246654 65:2.646395
-1 1:-1.653728 2:-1.556522 3:2.256893 4:0.837173 5:-0.408219 6:1.788864 7:-0.426936 8:0.804699 9:0.295643 10:-0.827304 11:1.747112 12:-1.455637 13:0.397050 14:-0.175535 15:-0.124348 16:0.457673 17:-1.079296 18:0.557913 19:-0.807403 20:-0.635188 21:-0.149058 22:2.259488 23:0.210053 24:-0.726497 25:0.094042 26:1.517822 27:0.086313 28:-0.010911 29:0.337034 30:-0.299242 31:-0.597920 32:-0.065066 33:-0.119625 34:0.334443 35:0.397917 36:-0.935323 37:0.726261 38:-1.448779 39:0.577659 40:-0.511721 41:-0.818981 42:2.570229 43:-1.839201 44:-0.971821 45:-0.774552 46:-0.746901 47:-0.077354 48:-0.533075 49:2.687663 50:0.435151 51:0.617047 52:-0.647184 53:-0.872638 54:0.738078 55:0.148909 56:0.000261 57:-0.473494 58:-0.605580 59:1.497810 60:-0.160959 61:-0.270439 62:0.353960 63:-0.561934 64:0.159746 65:0.143348
-1 1:1.546636 2:-0.840816 3:-0.656541 4:-0.129825 5:-1.053419 6:-0.273035 7:0.393175 8:-0.162731 9:0.354178 10:0.505788 11:-0.273348 12:0.800968 13:-2.249137 14:-0.344937 15:0.853920 16:-1.382414 17:0.803066 18:-0.359100 19:-2.771010 20:-0.889466 21:-0.797540 22:0.509284 23:0.683174 24:-0.432673 25:2.075852 26:-0.808204 27:0.735360 28:0.244391 29:0.988395 30:-0.150973 31:-1.486846 32:0.150595 33:-0.346462 34:-0.065439 35:-0.491454 36:0.158027 37:0.530151 38:0.084952 39:-0.666373 40:-0.629554 41:-0.489893 42:0.374519 43:0.948301 44:-1.629332 45:0.671683 46:0.987746 47:-0.587833 48:-0.480289 49:0.165231 50:0.324642 51:-1.162431 52:1.439744 53:-1.505929 54:1.952432 55:-0.589151 56:-0.268642 57:1.098290 58:0.475239 59:1.179030 60:1.036978 61:-1.560763 62:0.146584 63:-0.032401 64:0.235928 65:0.054531
-1 1:0.628708 2:-1.134351 3:-0.432631 4:-1.042706 5:-0.679476 6:0.680447 7:1.216748 8:-1.100470 9:-0.237948 10:0.506104 11:-1.260371 12:-2.048508 13:-0.525340 14:0.095477 15:0.967539 16:-1.978191 17:-0.389398 18:-0.027847 19:0.656906 20:0.346191 21:1.454098 22:-0.057610 23:0.681115 24:-1.103101 25:-0.997931 26:-0.778732 27:0.282999 28:-0.103940 29:-1.398210 30:-0.270046 31:-1.258511 32:-0.271472 33:0.389737 34:-0.419217 35:-0.442620 36:0.606211 37:1.117356 38:-0.227965 39:-0.325237 40:1.459150 41:0.201514 42:-0.393494 43:0.091470 44:1.323515 45:0.400062 46:-2.061675 47:0.482247 48:0.769276 49:0.145038 50:0.293925 51:-1.230200 52:0.315704 53:2.166630 54:-0.431432 55:1.169295 56:-0.272086 57:0.534895 58:-0.301019 59:0.456243 60:2.201372 61:-0.010567 62:-0.185177 63:1.818781 64:2.206908 65:0.827683
-1 1:0.284988 2:-1.490374 3:0.175793 4:-0.330108 5:0.316532 6:-0.008326 7:0.150900 8:-0.046347 9:1.976740 10:-0.585837 11:-0.133910 12:-0.663607 13:0.348946 14:0.544062 15:-0.821787 16:1.636818 17:-1.237235 18:0.018950 19:-0.804753 20:0.660847 21:-1.201405 22:0.070102 23:0.919036 24:0.585054 25:-0.687212 26:-0.833823 27:0.153562 28:0.737953 29:-0.154956 30:-0.127110 31:-0.542041 32:-0.613599 33:1.027203 34:0.969885 35:0.205600 36:0.484090 37:-0.581535 38:0.022459 39:-1.823559 40:0.365170 41:2.107626 42:-0.805953 43:-0.510950 44:1.687108 45:1.214318 46:1.536504 47:-1.200718 48:-1.075229 49:0.378407 50:1.548439 51:-0.544922 52:-0.568330 53:0.334465 54:1.678757 55:-1.118916 56:-0.222304 57:-0.931426 58:1.015611 59:-0.530028 60:-0.143438 61:0.101445 62:-0.446032 63:0.216847 64:0.208295 65:-1.206237
-1 1:-0.707994 2:-0.053787 3:-0.207384 4:1.096264 5:0.604791 6:-0.026852 7:1.214804 8:-0.136477 9:-0.428943 10:-0.595815 11:1.764746 12:0.451257 13:-0.320615 14:-1.213293 15:-1.499613 16:-0.599135 17:0.363799 18:-0.531120 19:-2.048500 20:0.727542 21:1.585777 22:1.241515 23:0.040048 24:-1.754027 25:1.666626 26:-1.154062 27:-0.893409 28:-1.431944 29:-1.907087 30:-0.757280 31:-1.365414 32:1.509292 33:0.096337 34:0.089665 35:-0.203027 36:-0.020776 37:0.114343 38:-1.188248 39:-0.104840 40:1.419467 41:-0.034318 42:-0.760531 43:-0.402810 44:0.188173 45:-0.536358 46:-1.313473 47:1.744878 48:-0.496314 49:1.183462 50:1.395917 51:0.057419 52:-0.202185 53:0.089005 54:2.075071 55:0.131214 56:-0.415632 57:1.162105 58:0.005372 59:-0.232718 60:-1.781755 61:0.610583 62:-2.650019 63:0.665533 64:-0.604223 65:-0.737407
-1 1:0.040930 2:-0.841875 3:-0.427649 4:1.048144 5:-1.252264 6:0.095655 7:0.576873 8:0.055080 9:0.515007 10:1.236682 11:0.428720 12:0.328290 13:-0.686804 14:1.512794 15:0.646560 16:1.786630 17:3.073721 18:1.328759 19:-0.549288 20:-0.284239 21:-0.318750 22:0.162445 23:-0.464910 24:-0.270891 25:-1.451041 26:0.660291 27:-0.901854 28:0.773475 29:0.399298 30:-1.376729 31:0.814817 32:-0.415027 33:-1.135566 34:0.163693 35:-0.428254 36:-0.991505 37:0.438788 38:-0.011385 39:1.165899 40:-0.581228 41:-0.283819 42:0.170825 43:0.916563 44:2.500029 45:-1.188350 46:0.302883 47:-1.448862 48:-0.611271 49:-0.704457 50:0.521861 51:2.152405 52:0.716210 53:1.766337 54:-0.425797 55:1.205994 56:-0.440766 57:0.055210 58:-0.019782 59:-0.384814 60:1.116118 61:-0.843357 62:-0.632400 63:0.519761 64:2.604891 65:0.056268
-1 1:0.523018 2:0.907733 3:-0.083767 4:2.618935 5:1.171478 6:-1.221618 7:1.356048 8:-1.228185 9:-0.851756 10:1.031689 11:-0.011549 12:0.391679 13:0.526837 14:0.630235 15:0.137148 16:-0.058623 17:-2.711565 18:-0.090258 19:-0.960930 20:0.570693 21:0.428570 22:0.425597 23:0.864230 24:1.584333 25:2.253521 26:1.011706 27:-0.047271 28:-2.418964 29:-1.718135 30:-2.156511 31:-1.178225 32:1.143220 33:-2.104381 34:1.726252 35:-0.041137 36:-0.432077 37:-0.348869 38:-0.245533 39:-1.018349 40:0.521508 41:0.096989 42:0.874027 43:0.213380 44:0.759706 45:0.920777 46:1.229248 47:0.831728 48:1.484776 49:-0.610485 50:-0.331197 51:3.138610 52:0.500782 53:-1.273996 54:-0.033862 55:0.677581 56:1.969715 57:-0.563041 58:-1.363015 59:0.066369 60:0.510671 61:-0.035345 62:2.080270 63:0.565379 64:0.977031 65:0.534614
-1 1:1.293952 2:0.557496 3:-1.083464 4:-0.466981 5:-0.071756 6:0.654544 7:0.023969 8:-0.379842 9:1.281792 10:0.008180 11:-0.160837 12:-0.132585 13:-1.005142 14:-0.315645 15:-0.511573 16:0.464334 17:2.275565 18:-0.701002 19:-1.976063 20:-1.623675 21:0.895020 22:0.244669 23:-2.395774 24:-1.226594 25:-0.949477 26:0.225111 27:-0.116978 28:0.277296 29:-0.271095 30:0.959474 31:-0.041744 32:-0.475013 33:1.480246 34:0.451998 35:1.876642 36:-0.239667 37:0.838131 38:1.073783 39:1.968726 40:-0.036679 41:-1.325046 42:0.617325 43:0.102061 44:-1.468512 45:0.208910 46:-1.111822 47:-0.345664 48:-0.025962 49:1.005359 50:1.373547 51:-0.091578 52:-0.420533 53:1.420445 54:-0.306282 55:0.776251 56:-0.197953 57:2.399035 58:0.148632 59:-1.518238 60:-1.165613 61:0.374055 62:0.048143 63:0.566954 64:0.507100 65:-0.210851
-1 1:-0.667399 2:-0.036830 3:-2.044006 4:0.180107 5:0.001347 6:-0.796779 7:0.542416 8:-0.711465 9:0.799456 10:-0.540214 11:-1.474040 12:0.424232 13:2.290624 14:-0.131057 15:1.442558 16:0.397273 17:0.466903 18:-1.216416 19:-0.027992 20:0.689191 21:-1.183962 22:1.840696 23:1.053439 24:1.757061 25:0.280669 26:-0.658696 27:-0.995423 28:-0.285140 29:1.322357 30:-1.214592 31:-1.219181 32:1.120263 33:-0.009504 34:0.722497 35:-0.444925 36:1.912242 37:1.075966 38:0.399180 39:-0.471583 40:-1.528786 41:0.349908 42:-0.781481 43:-0.935827 44:-0.616514 45:-0.768647 46:0.170632 47:-0.928403 48:1.097615 49:-1.641580 50:1.165026 51:-0.292480 52:2.038936 53:0.287243 54:-0.473336 55:-2.283173 56:-1.295166 57:1.285442 58:-0.212904 59:-0.724136 60:1.335690 61:-0.848478 62:0.717823 63:-1.290212 64:0.951677 65:0.611838
-1 1:0.535191 2:1.201794 3:-0.633360 4:0.117345 5:-0.641014 6:0.683531 7:-0.369317 8:-0.175525 9:0.194441 10:-2.586717 11:0.672178 12:0.956079 13:0.923179 14:-0.026846 15:-1.564976 16:0.345046 17:0.167070 18:1.491325 19:1.428863 20:0.522048 21:-0.266671 22:1.016112 23:0.301743 24:1.217211 25:1.564977 26:-0.332021 27:-1.042376 28:0.100529 29:0.420840 30:0.440129 31:-1.911791 32:-1.407026 33:-0.896074 34:-2.072249 35:0.038124 36:0.391013 37:-1.377089 38:0.874226 39:0.601472 40:1.533647 41:0.450012 42:-0.842222 43:0.050566 44:0.991356 45:0.821405 46:1.794546 47:-1.062239 48:1.969692 49:0.379459 50:0.585147 51:-0.947875 52:0.649015 53:-0.021589 54:0.093432 55:-1.658060 56:-0.540090 57:-0.186450 58:0.228784 59:-2.287395 60:0.072969 61:1.262483 62:0.047876 63:0.399129 64:-0.919608 65:-0.988480
-1 1:-0.964045 2:0.327747 3:0.200319 4:1.048419 5:-0.267161 6:-0.292302 7:0.150586 8:-0.035844 9:1.318103 10:0.484778 11:0.489692 12:1.293655 13:-0.839795 14:0.654985 15:-0.375653 16:-1.022918 17:0.141804 18:1.547843 19:-0.136954 20:-0.546583 21:-0.067772 22:1.801189 23:0.731409 24:0.098897 25:-1.496926 26:0.743661 27:-0.988777 28:-0.197034 29:2.293798 30:-0.960995 31:-1.246111 32:0.635135 33:0.283259 34:-2.175133 35:-0.503039 36:0.893621 37:0.423837 38:-1.961111 39:-0.489756 40:0.396712 41:-0.356365 42:0.392222 43:1.431253 44:-0.792281 45:-0.571039 46:1.225714 47:1.225021 48:-0.353948 49:2.347019 50:0.510721 51:-1.133790 52:0.600684 53:-1.147855 54:0.142680 55:0.850924 56:-1.268332 57:-0.960605 58:-0.267957 59:0.069836 60:0.169092 61:-0.989851 62:0.757659 63:1.260820 64:-0.215510 65:2.413347
-1 1:-0.449891 2:-0.248122 3:-0.146451 4:1.253769 5:0.491160 6:-1.273383 7:0.299612 8:-0.237926 9:-1.251221 10:-1.088363 11:-0.846270 12:-1.422179 13:-0.586244 14:-0.851021 15:0.160134 16:-0.795795 17:-0.130568 18:1.041718 19:-0.552065 20:-1.255205 21:0.501748 22:-0.319282 23:0.114851 24:-0.401298 25:1.848886 26:0.911924 27:1.178446 28:0.492012 29:2.125691 30:-0.817119 31:0.090870 32:-0.520627 33:-0.767967 34:0.595523 35:-1.484323 36:-1.485118 37:-1.364150 38:-1.348393 39:-0.429295 40:1.481913 41:-1.272908 42:-0.081113 43:0.351956 44:-0.295061 45:1.722920 46:0.512820 47:0.917457 48:0.699031 49:-1.713486 50:0.309962 51:-0.432350 52:-0.004092 53:-1.853585 54:-1.513219 55:-0.233362 56:-0.419363 57:-0.624206 58:-0.537910 59:0.443904 60:-0.528448 61:1.842222 62:-0.150024 63:-0.388656 64:0.497411 65:0.369149
-1 1:-0.461152 2:-0.523186 3:-0.127887 4:1.235445 5:-0.385367 6:0.522365 7:1.309027 8:-1.884381 9:-0.083916 10:0.635780 11:-0.902358 12:-0.367939 13:-1.007635 14:0.440592 15:-1.218267 16:0.383122 17:0.335517 18:0.696840 19:-1.086135 20:1.119344 21:-1.735317 22:-0.713345 23:-0.087580 24:-0.148005 25:1.498704 26:-0.084248 27:-0.241932 28:1.166539 29:-1.199025 30:-0.735691 31:-1.055320 32:-2.711866 33:-2.933638 34:0.772347 35:-0.236080 36:-0.763554 37:-0.955992 38:-0.225985 39:-1.671351 40:0.709022 41:-0.343342 42:0.690731 43:0.722711 44:0.111311 45:-0.776310 46:-1.898182 47:-0.362758 48:0.489610 49:-0.101376 50:0.551081 51:-0.235145 52:0.287327 53:0.994907 54:-0.785211 55:0.135645 56:0.497141 57:-1.082467 58:-0.342679 59:0.602714 60:-0.401755 61:0.428276 62:0.064609 63:-0.238866 64:0.628307 65:0.181306
-1 1:-0.450496 2:1.661901 3:-0.573911 4:0.177367 5:0.225732 6:1.365007 7:1.097178 8:1.224798 9:1.652227 10:0.533602 11:1.794238 12:1.917776 13:2.754157 14:1.029347 15:0.263631 16:-0.154945 17:0.745065 18:1.480226 19:0.384978 20:-0.743021 21:-0.704407 22:0.187596 23:0.610274 24:0.769082 25:0.890320 26:-0.739704 27:0.333058 28:-2.796349 29:0.543535 30:0.022245 31:-0.182601 32:0.425913 33:-0.279034 34:1.210254 35:0.706075 36:0.360507 37:-0.418145 38:-1.232666 39:1.825923 40:-0.860420 41:2.437541 42:0.956800 43:-2.183184 44:0.599854 45:-0.716463 46:0.263097 47:-0.675593 48:-0.345655 49:2.232033 50:1.436255 51:-1.216249 52:0.004622 53:-0.213412 54:1.090627 55:1.798152 56:-2.100599 57:-0.619694 58:0.767655 59:0.686138 60:-0.192111 61:-0.874935 62:-0.875243 63:0.570526 64:0.068577 65:0.356838
-1 1:-0.116531 2:0.378003 3:-0.721595 4:0.675452 5:-0.179770 6:-0.952711 7:1.115859 8:-0.552075 9:-1.906815 10:-0.598841 11:-1.016358 12:-0.896295 13:-0.117503 14:-0.782409 15:0.835349 16:-0.678291 17:-1.719362 18:-0.402579 19:-2.119877 20:-1.977017 21:2.750039 22:0.067831 23:-1.764552 24:-1.345235 25:0.358176 26:-0.614139 27:0.119999 28:0.286063 29:-1.496622 30:-0.903653 31:0.120999 32:-0.693599 33:-0.723642 34:1.502055 35:0.478150 36:-0.018683 37:1.922375 38:-0.038936 39:0.521533 40:2.506163 41:0.342115 42:0.489490 43:-0.203264 44:2.327303 45:-0.386194 46:-0.282079 47:0.727197 48:-0.773065 49:0.230365 50:0.597167 51:0.040089 52:2.515798 53:-1.125806 54:0.173558 55:-1.337032 56:1.483532 57:1.145488 58:1.632637 59:0.224854 60:-0.390281 61:-2.168081 62:0.202693 63:0.432461 64:0.879243 65:-0.091774
-1 1:0.928376 2:-0.965427 3:-0.332483 4:0.409135 5:0.143332 6:-0.692575 7:-0.138822 8:-0.129831 9:-0.261613 10:0.549801 11:-0.278105 12:0.604508 13:0.830598 14:-0.201672 15:2.411301 16:0.189583 17:-0.431753 18:0.628870 19:0.543034 20:-0.784550 21:2.290850 22:-0.270932 23:0.466319 24:-0.095084 25:-1.183181 26:-0.029613 27:0.091040 28:-0.120133 29:-0.092987 30:-0.680578 31:-0.592346 32:-0.329524 33:-1.891667 34:-2.213714 35:-1.810825 36:3.049930 37:0.191130 38:-0.772756 39:0.497328 40:0.885722 41:-0.196175 42:-0.126182 43:-0.384619 44:2.753827 45:-0.328260 46:0.958933 47:-0.518907 48:0.232239 49:-0.471316 50:-0.295741 51:-0.114901 52:-1.046527 53:-2.297691 54:0.545802 55:-1.285580 56:-2.569565 57:0.181996 58:0.556018 59:0.398061 60:-1.272172 61:0.176497 62:0.583121 63:-0.281057 64:0.359975 65:-0.456696
-1 1:-1.680824 2:1.595572 3:0.105783 4:-1.146561 5:0.182375 6:-1.416947 7:0.451736 8:0.989031 9:0.068208 10:0.870312 11:1.765490 12:-1.003780 13:-0.567202 14:1.448360 15:1.237147 16:0.116213 17:-0.374365 18:1.766614 19:-0.767655 20:-1.263386 21:0.017543 22:-0.463254 23:-2.444466 24:0.646226 25:0.752891 26:-1.529889 27:-0.666002 28:0.213850 29:-0.402756 30:-1.035510 31:0.372137 32:-0.088997 33:0.872446 34:0.264814 35:-0.584537 36:-1.039405 37:-0.824627 38:0.293978 39:-1.123215 40:1.179442 41:-0.916682 42:-0.340054 43:3.102721 44:-0.223026 45:-0.688426 46:-0.703268 47:2.116017 48:-1.159729 49:-0.679995 50:0.730998 51:-1.231008 52:0.642624 53:-0.179782 54:0.326878 55:0.779041 56:1.350452 57:0.475362 58:1.916674 59:-1.342128 60:-1.010226 61:-0.922920 62:0.832463 63:1.776958 64:0.420815 65:-0.076860
-1 1:1.181265 2:-0.272867 3:0.074808 4:-0.753625 5:1.152284 6:0.945953 7:0.953958 8:-0.101879 9:-1.169678 10:-0.909207 11:1.261716 12:-0.276240 13:0.496142 14:0.513813 15:-0.174648 16:-0.162620 17:0.465128 18:-1.731708 19:1.075093 20:-0.408741 21:-0.590551 22:-1.155494 23:0.637781 24:0.204576 25:-0.942948 26:-0.139432 27:0.170234 28:-1.577830 29:-1.106602 30:2.282772 31:0.806774 32:-0.156007 33:0.403325 34:-0.733335 35:0.310207 36:0.250781 37:-0.564473 38:-0.812168 39:-0.384414 40:0.866565 41:-0.128912 42:-0.103387 43:0.297171 44:0.964039 45:0.471189 46:0.839642 47:-2.309621 48:-1.608753 49:1.166755 50:0.332657 51:-0.931774 52:0.055314 53:0.071382 54:-0.517409 55:-1.113334 56:0.578092 57:1.149621 58:1.611401 59:-0.070733 60:-1.085240 61:1.383730 62:-1.078045 63:0.703640 64:-1.221435 65:0.940644
-1 1:-0.004187 2:0.198533 3:-0.776235 4:1.343956 5:1.186430 6:2.777065 7:0.374547 8:0.785558 9:-0.080950 10:0.073687 11:-0.463181 12:0.076382 13:-0.413303 14:1.029452 15:-1.088391 16:-1.650173 17:0.688655 18:1.341538 19:-0.906044 20:1.747631 21:-0.208839 22:-0.760236 23:0.119101 24:-0.034032 25:-0.731146 26:0.206322 27:-1.234176 28:0.651540 29:1.671135 30:1.351599 31:0.415865 32:0.080590 33:0.321485 34:-0.426915 35:-1.675869 36:0.704854 37:-1.641754 38:0.213010 39:0.248906 40:-0.294670 41:0.258341 42:-0.094227 43:0.086120 44:0.445999 45:0.324590 46:0.439471 47:-0.960970 48:-1.111961 49:-1.239464 50:-0.253400 51:1.160667 52:0.066264 53:1.148556 54:0.017545 55:1.275594 56:-1.496680 57:-0.371241 58:0.699057 59:0.247621 60:-1.004681 61:1.242377 62:0.574235 63:-0.413185 64:0.323542 65:0.039661
-1 1:0.533710 2:-0.418305 3:-0.257729 4:0.181367 5:-0.499639 6:-0.696829 7:1.386945 8:-0.021434 9:1.005413 10:-0.739504 11:0.680030 12:1.048283 13:-0.068776 14:-0.282651 15:-0.165188 16:-0.412465 17:-1.360988 18:-0.246879 19:0.857162 20:-0.608298 21:-1.427534 22:0.539457 23:-0.056907 24:-0.278144 25:-0.477726 26:-1.113671 27:0.771212 28:1.408183 29:0.719140 30:0.075310 31:1.570724 32:-0.774491 33:-0.328237 34:-0.076652 35:0.395599 36:1.020966 37:-1.075368 38:0.918594 39:-0.374620 40:-1.215209 41:0.143090 42:0.217766 43:0.390786 44:0.494630 45:-0.918541 46:-0.933821 47:-0.811402 48:-1.168830 49:-0.276244 50:0.227254 51:0.223788 52:-0.281200 53:-0.177305 54:0.467355 55:0.609682 56:0.349343 57:-0.615176 58:0.246858 59:0.613107 60:1.292886 61:-0.395787 62:0.140634 63:-1.447847 64:1.082871 65:0.000432
-1 1:-0.994967 2:1.271993 3:0.204385 4:-0.115580 5:-0.720586 6:0.351751 7:0.866079 8:-0.119832 9:1.274672 10:1.238684 11:-0.199438 12:0.197543 13:-0.309972 14:-1.281641 15:-0.275006 16:-1.148781 17:-0.285569 18:-1.298259 19:-0.697569 20:-0.954205 21:0.065659 22:-1.331139 23:-0.536067 24:3.326058 25:-0.790216 26:2.689065 27:-0.041985 28:-0.575436 29:0.329653 30:1.044966 31:-1.142712 32:1.512326 33:1.128463 34:-0.362861 35:-0.865287 36:-1.213334 37:-0.679355 38:0.917058 39:0.296465 40:0.626958 41:-0.374015 42:1.559305 43:0.839274 44:0.934597 45:-0.336645 46:-0.893998 47:-1.016025 48:0.330973 49:-0.469380 50:0.027207 51:-0.383357 52:0.738728 53:0.081428 54:-0.626439 55:-1.157762 56:-0.056262 57:0.167153 58:-1.062534 59:0.082555 60:-2.849856 61:3.082379 62:-0.040482 63:0.130996 64:-0.070517 65:-0.796266
-1 1:1.316279 2:0.371439 3:2.051252 4:0.060830 5:0.358910 6:-0.845952 7:0.624314 8:-1.827386 9:-0.088184 10:0.244018 11:1.223389 12:0.440977 13:-0.249520 14:1.294353 15:1.078245 16:-0.630394 17:-0.514838 18:1.066710 19:-0.198171 20:-0.864780 21:0.506995 22:0.079826 23:0.712394 24:-1.024272 25:-0.514760 26:1.355161 27:-2.107899 28:0.430744 29:-0.445205 30:2.050352 31:-1.517534 32:-1.201337 33:-1.472651 34:-0.157540 35:0.425355 36:-0.430947 37:0.855904 38:-0.259353 39:-1.817914 40:1.248836 41:-0.181918 42:-0.810716 43:-0.163519 44:-0.367202 45:0.400045 46:-1.305722 47:-1.760622 48:-0.480555 49:0.973994 50:-2.198626 51:0.554998 52:-0.148486 53:0.634679 54:0.652509 55:-0.538647 56:0.399058 57:1.928504 58:-0.884941 59:2.020558 60:0.771033 61:1.146485 62:-1.610591 63:-0.535281 64:-0.471968 65:-0.141103
-1 1:0.219557 2:0.342875 3:0.272159 4:1.385251 5:0.197194 6:-0.437623 7:-0.487620 8:-0.722922 9:0.362532 10:-1.146647 11:-0.639500 12:0.729072 13:0.888975 14:-2.349839 15:0.349964 16:0.407803 17:0.467444 18:-1.034721 19:-1.294821 20:-0.589347 21:0.306768 22:0.811067 23:0.329951 24:1.403317 25:-0.687684 26:0.286093 27:0.969047 28:0.165499 29:0.907151 30:0.450515 31:-2.326976 32:0.752192 33:0.715916 34:-0.271493 35:-0.171727 36:-0.530739 37:0.972760 38:0.067965 39:-0.237251 40:1.927135 41:-0.551848 42:-0.230862 43:0.259404 44:-0.111624 45:-1.022220 46:-1.375893 47:-0.246370 48:-0.475562 49:-0.988461 50:-0.423403 51:0.485821 52:-0.439561 53:0.392413 54:-0.080631 55:-1.376505 56:0.414991 57:-1.340371 58:-0.604757 59:0.008078 60:-0.658238 61:-0.219360 62:-0.400952 63:-0.410783 64:0.131799 65:-0.100496
-1 1:-0.271160 2:0.775497 3:1.515192 4:-0.749547 5:0.548738 6:0.962233 7:-1.016482 8:1.959000 9:-1.992290 10:-0.136637 11:-0.358040 12:-1.252933 13:-0.482081 14:0.441773 15:-1.000160 16:0.629780 17:-0.907331 18:-0.262750 19:-0.415207 20:0.710531 21:-0.475264 22:1.022237 23:1.108686 24:-1.578150 25:0.319400 26:0.834572 27:0.609355 28:-0.852432 29:0.345255 30:1.635444 31:-1.225978 32:-0.084739 33:0.411687 34:-0.472488 35:-0.384978 36:-0.073111 37:-0.071413 38:0.047389 39:0.514130 40:1.789633 41:-0.106653 42:-0.188665 43:1.302454 44:-0.302315 45:0.337985 46:-1.120884 47:-0.816342 48:-0.728466 49:0.158934 50:1.383917 51:-2.291252 52:-0.032841 53:1.128867 54:-1.185257 55:1.492839 56:-1.236550 57:-0.906938 58:1.332567 59:-1.108566 60:0.098046 61:-0.092665 62:-0.255264 63:0.638164 64:0.101620 65:-0.539336
-1 1:-1.112156 2:-0.649736 3:-0.282935 4:-1.500716 5:1.045461 6:0.844169 7:-1.475184 8:0.659160 9:0.979701 10:-1.073449 11:-0.347503 12:-0.072844 13:-0.015519 14:0.004455 15:-0.109516 16:-1.027401 17:2.533190 18:0.239580 19:0.662444 20:-0.302699 21:-0.638085 22:0.976539 23:0.893820 24:-0.007158 25:1.150061 26:0.420340 27:-0.309531 28:0.163337 29:0.163224 30:-1.974130 31:0.880228 32:0.409503 33:-1.032002 34:-2.011113 35:-0.161051 36:1.026282 37:-0.271898 38:2.509555 39:-0.994568 40:0.887927 41:-0.582542 42:1.021710 43:0.957667 44:-0.701250 45:0.065287 46:-0.235041 47:-0.694480 48:0.653104 49:-2.175775 50:1.617340 51:-0.522073 52:-1.252416 53:-0.169264 54:-0.166028 55:-0.115280 56:0.317498 57:0.059808 58:1.487647 59:-0.045814 60:-0.277098 61:0.202828 62:0.302389 63:-1.123231 64:0.652246 65:1.067403
-1 1:-0.252846 2:-0.410999 3:0.003789 4:-0.937626 5:-1.265890 6:-0.149884 7:0.483036 8:1.908939 9:0.747807 10:-1.239510 11:0.953649 12:-0.338070 13:-1.018906 14:1.468562 15:-0.213461 16:1.589750 17:1.822458 18:-1.679358 19:1.668070 20:-0.017844 21:0.204606 22:0.210703 23:-1.203249 24:-0.288508 25:0.462424 26:0.587823 27:-0.512214 28:2.042582 29:1.102713 30:0.972340 31:-0.428010 32:0.855101 33:-0.102833 34:1.358673 35:1.146919 36:0.451578 37:0.259764 38:0.065689 39:0.841170 40:0.496508 41:1.161588 42:1.241245 43:0.458745 44:-0.145977 45:1.234212 46:-0.862675 47:-0.448799 48:1.840378 49:-2.002815 50:0.081907 51:1.411233 52:0.713478 53:0.321652 54:0.549650 55:-1.714492 56:-0.317143 57:0.022778 58:-0.508908 59:-1.247135 60:-0.497085 61:0.303639 62:0.921389 63:-0.208325 64:0.465413 65:0.603079
-1 1:-0.506667 2:-0.638247 3:0.207069 4:-0.811598 5:-1.353985 6:-1.589379 7:-0.210535 8:-0.470788 9:0.770317 10:-0.629315 11:-0.735887 12:-0.125243 13:0.140126 14:0.704025 15:0.388890 16:0.428770 17:-1.045433 18:-0.193668 19:0.710456 20:0.213243 21:0.053807 22:-0.742350 23:-1.242089 24:-0.304143 25:0.548807 26:0.125556 27:0.543717 28:-1.158023 29:-0.323726 30:0.213653 31:1.701858 32:0.403101 33:-0.094019 34:-1.767418 35:0.340569 36:-1.027248 37:-0.591780 38:0.001618 39:0.070857 40:-0.111352 41:-1.218521 42:1.552486 43:-0.853999 44:0.911587 45:0.361669 46:0.171680 47:-0.019921 48:-0.188620 49:1.221233 50:1.309742 51:0.646896 52:1.345739 53:-2.393838 54:-0.803909 55:-1.049658 56:1.106640 57:-0.563002 58:-1.589324 59:-0.639729 60:-0.321797 61:0.999135 62:-1.054924 63:0.672208 64:1.500368 65:0.741132
-1 1:-0.054155 2:-0.628425 3:-0.685563 4:0.690751 5:-0.957330 6:-0.394048 7:-0.100009 8:1.741291 9:1.146335 10:-1.149644 11:-0.389776 12:-0.121037 13:0.340230 14:1.614993 15:-1.420721 16:-1.163974 17:0.376746 18:1.454968 19:-0.014038 20:-0.969976 21:-1.874242 22:0.848102 23:2.001455 24:-1.534383 25:0.306055 26:0.703842 27:1.003523 28:-0.930020 29:-0.166912 30:0.243614 31:0.373334 32:1.077143 33:0.973783 34:0.643818 35:-2.001589 36:0.221899 37:-0.922522 38:0.977121 39:1.243328 40:-0.558312 41:-0.116672 42:-0.339063 43:-1.396700 44:-0.474324 45:0.199612 46:-0.446961 47:-0.087359 48:-2.480183 49:1.383312 50:0.979119 51:-0.084171 52:-1.353981 53:0.488620 54:-0.031978 55:1.023649 56:1.583507 57:-0.691101 58:-1.052769 59:0.676801 60:0.113217 61:-1.963567 62:-1.292871 63:-0.494903 64:-0.696079 65:-0.551082
-1 1:-0.171886 2:-0.534719 3:-0.273692 4:-0.280515 5:0.469787 6:0.310327 7:-0.028781 8:0.523974 9:-0.339195 10:-0.449342 11:-0.346674 12:-0.076643 13:-0.379245 14:1.157265 15:0.383807 16:-0.580564 17:0.391042 18:1.387587 19:0.225134 20:-0.252832 21:0.535784 22:1.519473 23:-0.572363 24:-1.329348 25:-1.266146 26:0.168326 27:-1.117346 28:-1.653406 29:-0.015570 30:1.504073 31:-1.301930 32:-0.613693 33:-0.531187 34:0.536231 35:-0.667876 36:-0.114909 37:0.737819 38:0.241050 39:0.453263 40:-1.021374 41:0.339726 42:1.480189 43:-0.056218 44:-0.586802 45:0.735047 46:-1.672469 47:-1.368642 48:0.972039 49:-0.720505 50:-0.789756 51:-0.716240 52:0.789789 53:0.467239 54:-1.884819 55:2.274941 56:-1.417456 57:0.545421 58:0.158208 59:-0.792902 60:-1.344947 61:-0.750779 62:1.179326 63:-1.172972 64:-0.206058 65:0.765183
-1 1:0.076051 2:0.329126 3:0.634064 4:0.638564 5:1.167330 6:-0.789560 7:-0.161477 8:0.458601 9:-1.325252 10:0.627460 11:0.106719 12:-0.843125 13:1.859408 14:1.427162 15:0.542854 16:-1.648536 17:-0.447884 18:-0.199131 19:-0.783191 20:-0.083787 21:-3.577961 22:-1.300210 23:-2.174450 24:1.091637 25:-1.380273 26:-0.345958 27:-0.356722 28:0.220137 29:-0.987643 30:0.086084 31:0.911231 32:0.519099 33:0.557831 34:0.301078 35:1.190909 36:-0.364314 37:-0.856601 38:0.555135 39:0.445335 40:-0.553578 41:-0.659122 42:1.578988 43:-0.292386 44:-0.917259 45:-0.277243 46:-0.247872 47:0.475995 48:-0.978129 49:0.849739 50:1.681879 51:0.927259 52:1.309826 53:-0.322867 54:1.600041 55:-2.027708 56:0.438714 57:0.100136 58:0.714944 59:1.034676 60:0.446395 61:0.945016 62:-0.311707 63:0.377588 64:0.789773 65:-0.208266
-1 1:1.187790 2:-0.645664 3:-0.560338 4:-1.827987 5:0.415509 6:-1.440823 7:-1.225734 8:-1.750284 9:-0.268963 10:0.479870 11:0.840296 12:1.308200 13:1.942337 14:-0.104803 15:0.671540 16:0.222724 17:0.981208 18:-0.864362 19:-0.153160 20:-1.297019 21:1.357536 22:-0.383933 23:-1.590284 24:0.404493 25:0.195210 26:-0.304396 27:1.137488 28:-0.196234 29:-1.141582 30:0.421026 31:-0.612864 32:-0.451702 33:-0.891294 34:-0.595647 35:-0.704256 36:-0.888852 37:1.446467 38:-1.802960 39:1.602268 40:0.839192 41:-0.977968 42:-0.707507 43:-0.281318 44:-1.944252 45:-0.009353 46:1.667842 47:1.064821 48:-0.796788 49:-0.868208 50:0.316428 51:-0.376588 52:-1.707705 53:-0.198020 54:-1.444875 55:-0.296774 56:0.956052 57:0.132481 58:0.244411 59:-2.188549 60:1.885695 61:-0.050734 62:0.913482 63:-0.021019 64:0.125357 65:0.122865
-1 1:0.655201 2:-0.753400 3:-1.162037 4:0.283061 5:-0.392853 6:-0.554849 7:0.521450 8:-0.087248 9:0.636017 10:-0.421256 11:0.465359 12:0.078483 13:0.546025 14:-0.304972 15:-0.834047 16:-1.164022 17:-0.674662 18:2.466392 19:0.539644 20:0.325617 21:-1.054649 22:0.729465 23:0.209393 24:-0.561128 25:-0.367005 26:-0.632581 27:1.946724 28:0.220332 29:-0.178591 30:-1.879284 31:1.406569 32:-1.412796 33:-1.402126 34:-0.980515 35:-0.558984 36:-0.189992 37:-0.390167 38:0.683847 39:-1.346709 40:-1.934943 41:-0.042913 42:-1.409310 43:-0.141743 44:0.560480 45:0.613952 46:0.164060 47:0.025011 48:0.792218 49:-0.140133 50:-1.172458 51:-0.489575 52:-1.367357 53:0.328396 54:0.796193 55:1.200870 56:0.106835 57:0.256524 58:2.877928 59:2.242216 60:0.626932 61:-0.643658 62:0.677748 63:0.742847 64:-1.361872 65:-0.467735
-1 1:0.858681 2:1.563995 3:0.196388 4:-0.584006 5:1.724022 6:2.945404 7:-0.188529 8:0.434314 9:0.738221 10:0.288595 11:-0.070122 12:0.771877 13:-0.437221 14:-0.117924 15:0.943021 16:0.569673 17:0.739076 18:-0.893392 19:-0.836403 20:0.416858 21:0.941839 22:0.414202 23:0.763081 24:-0.904022 25:-0.130348 26:0.171290 27:0.923730 28:1.006444 29:1.117805 30:-0.289722 31:1.405273 32:0.453958 33:-1.160051 34:0.109937 35:0.260510 36:-0.666427 37:-0.897972 38:0.038659 39:-0.452438 40:0.528368 41:0.846379 42:0.260216 43:-0.908332 44:-2.062193 45:0.868654 46:-0.685716 47:-1.149886 48:0.361371 49:-0.846348 50:-0.134488 51:-0.758141 52:0.601131 53:0.392251 54:0.001621 55:0.222504 56:-0.317426 57:0.786260 58:0.804873 59:0.936323 60:-0.813937 61:-0.433299 62:0.299232 63:0.548243 64:0.873999 65:0.878776
-1 1:0.128344 2:2.123415 3:-0.407576 4:-0.199180 5:0.769108 6:-0.574336 7:-0.454112 8:-0.956804 9:0.648651 10:-1.683121 11:0.998746 12:2.155878 13:-1.772544 14:1.221332 15:0.143057 16:-0.591388 17:-0.333399 18:0.548652 19:0.075543 20:0.629050 21:-0.247592 22:1.138648 23:-0.924037 24:1.038425 25:0.639483 26:0.714002 27:1.177665 28:1.723154 29:-0.524138 30:0.504895 31:0.977806 32:0.471214 33:-0.321623 34:1.498918 35:0.881610 36:1.465164 37:-0.121911 38:-1.426456 39:2.283810 40:-0.631678 41:0.718375 42:0.015729 43:1.796523 44:0.120112 45:-1.222710 46:0.494979 47:1.532078 48:1.081187 49:1.319568 50:-1.006941 51:1.555004 52:0.150083 53:-0.275868 54:0.926748 55:1.034060 56:1.238973 57:1.123294 58:0.190025 59:-1.508827 60:-0.652058 61:0.225917 62:-0.357164 63:0.896136 64:-1.950885 65:-0.338026
-1 1:0.193527 2:1.094132 3:0.911618 4:0.077412 5:-0.159305 6:-0.659068 7:0.912598 8:-1.068389 9:-0.546017 10:-0.814776 11:-0.765524 12:-1.841223 13:-0.819615 14:1.026931 15:0.886280 16:-1.210277 17:0.046670 18:0.137869 19:0.505523 20:0.549859 21:1.206373 22:-0.540507 23:-0.202965 24:-3.055542 25:1.855722 26:1.513652 27:0.934185 28:-1.095616 29:-0.096981 30:1.069682 31:-2.016221 32:0.140379 33:0.820680 34:1.158674 35:-0.145598 36:0.456673 37:-0.838176 38:0.182907 39:-0.342953 40:1.323405 41:-1.007600 42:-0.111126 43:-0.021232 44:-0.241714 45:-0.288998 46:-0.674683 47:-1.915288 48:-0.071054 49:1.993982 50:-0.905278 51:-1.565365 52:0.958057 53:0.179717 54:-0.001644 55:0.201110 56:-1.281481 57:1.836347 58:0.935239 59:3.160317 60:0.888465 61:1.144387 62:-1.735486 63:-0.034800 64:-1.775965 65:0.156418
-1 1:1.459462 2:-0.002226 3:-1.150892 4:-1.949714 5:0.394927 6:1.915490 7:-0.856535 8:0.161955 9:1.254344 10:-0.333899 11:0.010614 12:-0.036561 13:-0.313535 14:-0.370609 15:0.797334 16:0.057822 17:0.767240 18:-0.012051 19:0.625790 20:0.365979 21:0.975882 22:-0.036906 23:-2.099311 24:-0.208450 25:0.431513 26:0.779871 27:2.022132 28:1.936377 29:-1.291744 30:1.645666 31:-0.216749 32:-1.450658 33:-0.600746 34:-1.029945 35:-0.830727 36:-1.045653 37:0.023242 38:0.882594 39:0.416153 40:0.311569 41:0.191480 42:1.527797 43:-0.473086 44:-2.192343 45:0.301565 46:-0.541888 47:-0.817734 48:-0.963865 49:0.285722 50:1.779566 51:-1.304981 52:0.474259 53:-0.299709 54:-2.419762 55:-0.334531 56:0.795096 57:-0.250391 58:0.042269 59:-1.123116 60:-0.584150 61:-0.709436 62:-0.815012 63:-0.724638 64:0.174344 65:-1.885321
-1 1:0.497786 2:0.330397 3:1.089232 4:0.252373 5:-1.628917 6:-0.633722 7:0.365556 8:-1.102499 9:-0.364867 10:-1.295811 11:2.178995 12:-1.051595 13:-1.191859 14:-1.564610 15:1.165114 16:0.704107 17:0.730670 18:0.083361 19:-0.167213 20:0.930596 21:-1.083046 22:0.217065 23:0.271218 24:1.267408 25:-1.440993 26:0.391909 27:-0.519652 28:-0.429619 29:2.269590 30:0.201804 31:1.189549 32:-0.532397 33:-1.243153 34:0.652599 35:1.982229 36:1.928143 37:1.795822 38:0.513662 39:0.318311 40:0.241843 41:0.392657 42:0.423787 43:-0.802769 44:-0.206112 45:1.182797 46:-0.230619 47:-0.243474 48:0.731175 49:-0.701324 50:-0.565959 51:0.061267 52:0.642102 53:-0.173793 54:0.000058 55:-1.730551 56:-0.096645 57:1.925974 58:-1.995131 59:-1.508594 60:-0.815361 61:-0.532653 62:-0.932267 63:-0.779605 64:0.440506 65:-2.257001
-1 1:1.302958 2:-0.631857 3:-0.764658 4:-1.748070 5:-2.069744 6:-1.212751 7:0.240101 8:0.829891 9:0.108089 10:1.360128 11:-0.625335 12:-0.472398 13:0.780562 14:0.375695 15:1.241302 16:-0.080261 17:0.002542 18:1.792170 19:-0.484803 20:-0.968379 21:-1.175277 22:-1.311447 23:0.175843 24:0.375618 25:-2.007458 26:-0.366166 27:1.198042 28:-0.585440 29:0.260697 30:0.566392 31:0.957472 32:-1.205772 33:-0.015610 34:-0.184699 35:-0.898838 36:0.752151 37:-2.144974 38:1.434495 39:-1.107937 40:0.785484 41:-0.792066 42:0.457117 43:0.027491 44:-0.602975 45:0.950617 46:-1.340666 47:0.226501 48:0.069281 49:-1.312933 50:0.999577 51:-0.413193 52:-1.401299 53:0.755209 54:0.320913 55:-1.707625 56:-0.735742 57:0.096956 58:0.859391 59:0.267028 60:-0.060191 61:-2.023975 62:0.597287 63:1.401433 64:0.710830 65:-0.667416
-1 1:2.203017 2:-1.876780 3:1.910286 4:-0.637738 5:-1.039732 6:-1.164380 7:-1.249346 8:1.280186 9:-0.368918 10:-0.548801 11:0.716569 12:-0.467826 13:-0.708838 14:0.534068 15:-0.724127 16:-0.156253 17:-0.875929 18:1.927919 19:1.672564 20:1.256365 21:0.502919 22:-0.361825 23:-1.915039 24:-1.626502 25:-0.377058 26:0.307627 27:-2.623736 28:-0.662673 29:-1.345200 30:-1.400000 31:-0.031837 32:-1.165033 33:-0.061913 34:0.040085 35:1.305745 36:-0.425886 37:-0.895235 38:-0.498811 39:1.429371 40:-0.046959 41:0.968732 42:-1.143219 43:0.074639 44:-1.869234 45:-0.055342 46:-1.108587 47:1.435078 48:0.626628 49:0.046258 50:2.344152 51:-0.215477 52:-1.328358 53:0.178166 54:-1.088196 55:-0.038883 56:-0.676741 57:-0.248010 58:1.830294 59:-1.152172 60:-0.156402 61:-0.862409 62:0.370325 63:1.659434 64:-0.163266 65:0.727500
-1 1:-0.412558 2:-0.688161 3:-0.445559 4:0.657443 5:-0.198132 6:-0.216277 7:-0.650146 8:0.216513 9:-0.283628 10:-0.173541 11:-0.144191 12:1.805331 13:-0.807291 14:-0.664279 15:1.346921 16:-1.620629 17:0.884278 18:-0.724485 19:0.413297 20:0.081610 21:-2.110866 22:-2.152308 23:0.584416 24:0.603944 25:0.932528 26:0.368968 27:1.146967 28:0.146039 29:1.086687 30:1.208571 31:-0.258321 32:-0.480839 33:0.171597 34:-0.302257 35:-0.339245 36:0.024549 37:0.089582 38:0.777405 39:0.377976 40:-0.226090 41:-0.411351 42:-0.130853 43:-1.955151 44:-1.354327 45:-1.179642 46:0.771433 47:1.189217 48:-0.137977 49:-1.053723 50:1.045349 51:-0.596613 52:-0.116134 53:0.047374 54:0.434070 55:-1.352622 56:0.455470 57:0.080687 58:0.877260 59:-1.667258 60:-0.786609 61:-0.205752 62:0.657392 63:1.853865 64:1.544819 65:-0.033860
-1 1:-0.657654 2:-0.401685 3:0.982871 4:-0.896354 5:-0.102580 6:0.710357 7:-0.871943 8:0.726311 9:-0.729702 10:-0.619280 11:-0.994899 12:0.395491 13:1.999876 14:-1.072411 15:2.135570 16:-1.320411 17:1.417356 18:0.230509 19:1.379794 20:-1.417673 21:-1.220078 22:-3.558842 23:-2.892291 24:0.316975 25:1.306603 26:0.557313 27:0.212734 28:0.952210 29:2.025985 30:0.137671 31:1.379208 32:0.605542 33:0.547974 34:-0.278040 35:0.779547 36:0.698102 37:0.951920 38:-0.898409 39:-0.339744 40:1.392234 41:-1.236117 42:-2.652681 43:-0.277456 44:1.640052 45:-0.252189 46:0.592962 47:0.475669 48:-1.132045 49:1.289084 50:-0.300296 51:1.053530 52:0.713393 53:0.829736 54:-0.541468 55:-0.902479 56:0.182355 57:0.685873 58:-0.017715 59:-0.999610 60:-0.929576 61:-0.172304 62:2.278874 63:0.044988 64:0.024627 65:2.431681
-1 1:0.275389 2:-0.018612 3:-0.914409 4:0.971154 5:-0.804249 6:-0.453686 7:0.945014 8:-0.308421 9:-0.847456 10:-1.199808 11:0.989515 12:1.123895 13:0.398157 14:0.057069 15:-0.428843 16:0.775112 17:-0.296815 18:1.663549 19:0.204731 20:-1.138018 21:0.063460 22:-0.154039 23:-0.999170 24:0.792924 25:1.145505 26:0.953938 27:-0.112136 28:0.424952 29:0.946812 30:1.644670 31:0.383651 32:0.033284 33:-0.310596 34:1.161671 35:-1.350871 36:-0.043226 37:0.276823 38:-0.790811 39:-0.712452 40:-0.312792 41:2.323404 42:0.980332 43:-0.974557 44:-1.084555 45:0.988341 46:0.784124 47:-0.314844 48:1.163376 49:-1.283020 50:0.145054 51:0.317526 52:-0.682308 53:-1.223502 54:0.738680 55:-1.184098 56:0.671349 57:1.825937 58:0.248464 59:-1.490698 60:-0.245925 61:-0.594023 62:-0.383647 63:0.934931 64:0.574958 65:1.227080
-1 1:1.287765 2:-0.026339 3:0.393052 4:-1.044883 5:0.808484 6:-1.458779 7:-1.243167 8:1.625693 9:-0.263367 10:0.364393 11:-0.429201 12:2.540132 13:0.868423 14:-0.016024 15:0.243286 16:0.208524 17:1.426043 18:0.252386 19:-2.576688 20:-0.757437 21:1.100534 22:-0.410985 23:-0.166509 24:0.795615 25:-0.509244 26:0.152557 27:0.009286 28:-0.272918 29:-0.233163 30:-0.905994 31:-0.439424 32:-0.560739 33:2.713318 34:-2.209468 35:0.215401 36:1.018701 37:0.049413 38:-0.694468 39:-0.000211 40:0.229924 41:1.255518 42:-0.166398 43:-1.352441 44:0.440994 45:0.321695 46:0.519311 47:-0.403328 48:-1.268415 49:-0.039951 50:-0.679042 51:-0.396561 52:0.323158 53:-0.230703 54:-0.409087 55:-0.273926 56:1.915368 57:-0.537105 58:0.060366 59:0.179236 60:-0.946888 61:-2.516537 62:-0.807908 63:-0.121233 64:0.591420 65:-1.068892
-1 1:-0.268199 2:-0.005590 3:0.279834 4:-1.239500 5:-1.314065 6:-1.207375 7:-0.618064 8:0.310812 9:-1.995425 10:0.206945 11:-1.634293 12:-0.919433 13:-1.052517 14:1.034138 15:0.884336 16:1.315344 17:0.087005 18:0.345418 19:-0.668461 20:-1.329209 21:0.404748 22:1.815008 23:0.450875 24:1.373010 25:1.310156 26:0.748855 27:-0.655852 28:-1.472328 29:-2.261665 30:1.084831 31:-1.533104 32:-0.013718 33:0.782407 34:0.439169 35:1.516728 36:-0.294369 37:0.443958 38:-1.696427 39:-0.656857 40:0.922906 41:-1.048654 42:-0.649199 43:0.954696 44:-0.234606 45:0.633005 46:-0.845358 47:1.559663 48:-0.658544 49:0.933630 50:0.998121 51:0.935259 52:-1.505674 53:-2.090913 54:0.844376 55:-1.488974 56:-2.547531 57:-0.688320 58:1.249183 59:-0.560754 60:0.604440 61:-2.781318 62:-1.557078 63:-0.936313 64:1.765624 65:0.519664
-1 1:-0.451265 2:0.152474 3:-1.143819 4:-0.010654 5:0.757653 6:-0.274199 7:-1.560378 8:1.306593 9:1.620923 10:-0.664911 11:-1.139508 12:-0.303765 13:0.872999 14:-1.180471 15:0.499389 16:0.435944 17:-0.778064 18:0.681938 19:1.413573 20:-2.042412 21:0.775965 22:-0.301394 23:-1.076025 24:-1.302988 25:-0.560565 26:-0.319660 27:-1.042384 28:1.006330 29:-0.515690 30:0.431118 31:-1.745515 32:-0.321452 33:1.024537 34:0.341495 35:-2.139211 36:-0.746598 37:-0.634434 38:0.972609 39:0.087233 40:0.739249 41:1.720945 42:0.836068 43:-0.878653 44:0.558614 45:-0.774366 46:1.183657 47:1.369700 48:-0.046749 49:-0.609555 50:0.594087 51:0.193848 52:-0.096669 53:-1.640178 54:-0.872779 55:0.037810 56:0.813758 57:-0.581683 58:1.322822 59:-0.106507 60:-0.700773 61:0.977388 62:-0.137424 63:-1.355612 64:1.336757 65:0.139103
-1 1:-0.436019 2:-1.296531 3:1.035030 4:-0.639137 5:-0.397298 6:-0.141064 7:-2.317713 8:-0.601584 9:-0.554681 10:-0.649734 11:0.379453 12:0.311179 13:0.884172 14:1.012079 15:1.723080 16:-0.633046 17:-1.891594 18:0.837631 19:-0.840588 20:-0.484431 21:-1.320357 22:-0.738435 23:-0.343937 24:1.852324 25:0.178655 26:-0.132996 27:-1.466125 28:-0.487306 29:-0.192663 30:1.113636 31:0.441924 32:0.017636 33:-0.657052 34:0.617186 35:0.795885 36:1.343368 37:0.018001 38:0.008348 39:0.914742 40:1.001461 41:-0.995565 42:-0.352278 43:1.017223 44:0.182259 45:-0.301966 46:0.588664 47:0.150569 48:1.254422 49:-0.252495 50:-0.397237 51:-0.132217 52:1.587225 53:1.674752 54:-0.217520 55:0.646144 56:-1.468761 57:-0.811461 58:0.605643 59:-2.336388 60:0.415611 61:0.541332 62:0.274954 63:-0.408677 64:0.225363 65:0.927864
-1 1:0.108795 2:1.035006 3:-1.358540 4:0.798879 5:-1.806652 6:-0.361988 7:0.673969 8:0.933415 9:2.169135 10:1.525296 11:-0.972741 12:0.247791 13:0.338868 14:0.524847 15:-0.318787 16:0.707459 17:-1.491878 18:1.349158 19:-0.617165 20:-0.092429 21:-0.508571 22:0.214773 23:-1.372174 24:0.622243 25:-0.193069 26:0.870906 27:-0.305830 28:-0.590873 29:-0.239270 30:-0.530238 31:-0.752795 32:-0.582447 33:-1.285138 34:-1.380048 35:-0.211132 36:-0.465837 37:1.447805 38:1.978397 39:-0.892215 40:-0.470271 41:0.626425 42:1.207863 43:-2.068023 44:0.042983 45:-0.086259 46:1.066719 47:-0.457210 48:0.028758 49:0.810012 50:-0.320737 51:0.404772 52:-0.022981 53:-1.145664 54:0.266640 55:0.609466 56:-0.058085 57:1.031970 58:-0.657608 59:0.146883 60:0.310590 61:0.849252 62:-1.613403 63:-1.485091 64:-0.548494 65:-0.537221
-1 1:-0.619397 2:0.559358 3:0.011229 4:-0.078219 5:0.106692 6:1.231675 7:0.339873 8:1.107378 9:-0.720137 10:-0.054884 11:-0.166743 12:-0.483855 13:-0.706615 14:1.078301 15:0.682737 16:-0.233154 17:0.908429 18:-0.735413 19:0.201621 20:0.484874 21:-0.428609 22:-0.510713 23:0.284224 24:-0.187059 25:-1.803767 26:0.056503 27:1.488516 28:-0.052850 29:0.043702 30:1.034199 31:0.944043 32:0.782277 33:1.136900 34:1.339502 35:0.538780 36:1.327892 37:1.187595 38:-0.706429 39:-1.239400 40:1.181283 41:0.055921 42:1.815124 43:0.188436 44:-1.163862 45:1.666022 46:1.129843 47:-0.459991 48:0.031446 49:-0.165128 50:0.176217 51:-0.269223 52:0.901402 53:-1.338153 54:-1.051480 55:-0.788983 56:-0.859470 57:-0.404836 58:0.746780 59:-0.053472 60:-0.126301 61:0.061711 62:1.004042 63:0.038956 64:0.380444 65:0.778711
-1 1:-0.758148 2:0.427552 3:1.677340 4:-0.491726 5:-0.383940 6:0.272654 7:-0.431119 8:0.317811 9:0.329730 10:0.280053 11:-0.859769 12:-0.449283 13:1.192059 14:-0.758113 15:-0.670188 16:-1.823246 17:0.613627 18:-0.353304 19:0.983523 20:-0.126369 21:-0.666127 22:1.038178 23:0.020321 24:-1.275591 25:-0.085611 26:0.222522 27:1.743541 28:0.433656 29:-0.021371 30:0.807921 31:-0.783604 32:-0.454903 33:-1.760940 34:-0.586581 35:1.164226 36:0.346533 37:0.460570 38:-0.415765 39:-1.084644 40:1.363557 41:1.609014 42:-0.396790 43:-0.626449 44:-0.975923 45:-1.221603 46:1.507408 47:0.043117 48:-0.178977 49:-1.638988 50:-0.856295 51:-0.323903 52:-0.631090 53:-0.051587 54:-0.150334 55:0.354168 56:1.173767 57:-0.408378 58:-1.485365 59:-1.036193 60:0.142111 61:0.477284 62:1.086459 63:1.086226 64:0.945677 65:0.558703
-1 1:0.084736 2:0.824014 3:-0.442116 4:0.729925 5:0.115294 6:-0.425848 7:0.604525 8:0.006961 9:-0.898535 10:1.019241 11:-0.579772 12:0.343702 13:-1.525476 14:0.344113 15:0.234540 16:1.477049 17:1.092671 18:-0.622774 19:2.152642 20:0.079383 21:0.268660 22:0.398712 23:0.907835 24:-0.985090 25:-1.470781 26:-0.072126 27:-0.050102 28:0.575443 29:0.510994 30:2.656915 31:0.990321 32:0.334460 33:-1.073487 34:1.191411 35:1.072133 36:-0.922295 37:-0.813891 38:-1.571479 39:-0.510874 40:0.593174 41:0.404821 42:-0.354613 43:-0.916114 44:0.628355 45:0.086567 46:-0.281519 47:0.793819 48:-0.707846 49:-1.243504 50:-2.102722 51:1.081506 52:0.051097 53:-0.081780 54:0.627899 55:0.270952 56:0.353090 57:1.156598 58:-2.134011 59:-0.498899 60:-2.336505 61:2.382078 62:1.651221 63:0.419627 64:1.142432 65:0.034321
-1 1:0.970715 2:-1.237419 3:0.901973 4:-2.060977 5:-0.406147 6:-2.718028 7:-0.921757 8:0.099658 9:1.491795 10:-0.314747 11:1.221188 12:-0.403425 13:2.320149 14:0.221145 15:0.027022 16:1.925777 17:2.205904 18:-0.386335 19:1.102089 20:-2.380424 21:0.468837 22:-1.030958 23:-1.517607 24:-1.412299 25:0.753949 26:0.893455 27:-0.354609 28:-0.543947 29:-0.833081 30:1.336144 31:-1.199961 32:-0.772595 33:1.559581 34:0.880582 35:0.195222 36:0.713877 37:-1.023650 38:0.103681 39:-0.602557 40:-0.963852 41:0.517126 42:-0.479312 43:-1.537727 44:-1.614107 45:0.942840 46:1.234260 47:-1.018241 48:-0.462272 49:-0.193506 50:1.548730 51:0.166685 52:-0.542226 53:0.521516 54:1.401218 55:0.038192 56:-0.238611 57:0.824509 58:-0.731307 59:-0.769594 60:0.810740 61:-0.559778 62:-0.352777 63:-0.070124 64:-0.457772 65:-1.306503
-1 1:-0.718209 2:-1.316013 3:0.197626 4:-0.380010 5:-0.977461 6:1.046260 7:-1.285864 8:-2.186191 9:1.251187 10:0.417350 11:-1.796672 12:-0.415376 13:-0.613918 14:0.422287 15:-0.664226 16:-0.690787 17:0.794998 18:-0.356290 19:0.276520 20:1.610894 21:1.597512 22:-0.167079 23:-1.890816 24:1.229442 25:1.788595 26:1.106894 27:-0.619753 28:-0.682526 29:-0.665413 30:-0.808642 31:1.042857 32:0.647890 33:-1.500071 34:0.643901 35:0.315187 36:-0.387553 37:-0.821939 38:-0.449713 39:1.637680 40:-0.974796 41:1.798630 42:-1.913300 43:-0.890379 44:0.786155 45:1.013717 46:-0.397548 47:0.088161 48:0.773823 49:0.457808 50:1.451650 51:-0.293506 52:-0.601667 53:-1.340779 54:0.145701 55:0.829414 56:0.518458 57:-0.020961 58:0.877312 59:1.085494 60:0.291525 61:0.037261 62:-0.357798 63:0.410274 64:0.440320 65:0.321190
-1 1:-0.607741 2:-1.276080 3:-1.063848 4:-1.615446 5:2.148131 6:0.096443 7:-0.710919 8:-0.611948 9:-0.298660 10:-1.152575 11:-0.266790 12:0.369236 13:-0.079528 14:-0.850920 15:0.153878 16:1.799347 17:0.447539 18:0.584023 19:-0.721050 20:-1.228522 21:0.957569 22:0.088574 23:0.590518 24:2.018909 25:1.724546 26:-0.508790 27:1.126514 28:0.361817 29:0.299135 30:0.310567 31:-2.048977 32:-0.848679 33:-1.603085 34:-0.670808 35:-1.074772 36:-0.302347 37:0.427024 38:-0.556879 39:-1.246758 40:1.097640 41:-0.615962 42:2.069707 43:0.199008 44:-0.982886 45:0.592387 46:-0.384834 47:0.579499 48:-0.426774 49:-0.716874 50:1.412124 51:-1.385331 52:0.344988 53:-1.322556 54:-1.307781 55:-0.457562 56:-0.516084 57:-1.452207 58:-0.278582 59:0.241169 60:-0.575430 61:0.291968 62:0.105997 63:0.003831 64:-1.998935 65:0.281739
-1 1:1.153341 2:-0.081983 3:-0.332513 4:0.251038 5:-0.155922 6:-1.986187 7:0.428486 8:0.999175 9:0.665914 10:-1.805807 11:0.238980 12:0.964228 13:0.554655 14:-0.529304 15:-1.135592 16:1.670218 17:-0.342544 18:0.799220 19:-0.763687 20:-2.196202 21:0.555953 22:0.158642 23:1.811238 24:0.915340 25:-0.894589 26:-0.269345 27:-0.511668 28:-1.037231 29:-1.455032 30:-0.349675 31:-0.840798 32:-0.356298 33:-1.187855 34:-0.795801 35:-0.188658 36:1.391405 37:0.377836 38:-0.227039 39:0.333362 40:0.144724 41:0.515228 42:-0.202959 43:-0.581120 44:0.639501 45:0.622715 46:0.286391 47:-1.215626 48:0.505095 49:1.732783 50:-0.702634 51:1.304170 52:0.004664 53:-0.276039 54:-0.848884 55:0.500344 56:-1.662183 57:0.429268 58:-1.105076 59:-0.714557 60:0.214513 61:0.125214 62:1.868407 63:-1.173078 64:-0.395214 65:-0.051221
-1 1:0.324500 2:-0.809727 3:-0.518420 4:-0.723505 5:-0.710953 6:0.614428 7:-0.818736 8:0.445675 9:-1.022315 10:0.557912 11:1.173860 12:-0.307327 13:-1.737140 14:0.413968 15:1.127424 16:-0.800379 17:0.783805 18:-0.350958 19:-0.213380 20:1.033457 21:-1.154004 22:-0.480463 23:0.320620 24:1.855190 25:1.338141 26:1.210063 27:0.592063 28:1.364543 29:0.322400 30:0.029649 31:-0.328892 32:0.526942 33:-1.200423 34:-0.718778 35:0.005080 36:-0.340341 37:-0.774970 38:-1.171400 39:0.933833 40:-0.973282 41:0.417681 42:-1.334632 43:1.532607 44:0.942535 45:-0.659372 46:0.795824 47:0.305803 48:-1.725972 49:-1.258073 50:0.395358 51:-0.615946 52:1.231563 53:0.046377 54:0.366418 55:0.423222 56:-0.060713 57:-0.578371 58:0.417777 59:0.713556 60:-0.740469 61:0.932111 62:-1.019853 63:1.779691 64:0.618788 65:-0.096218
-1 1:-0.552845 2:0.055811 3:0.435413 4:-0.207638 5:-0.400932 6:-0.241994 7:2.609798 8:1.327097 9:0.368850 10:-0.326506 11:-0.074452 12:-0.749798 13:-0.123123 14:0.182801 15:-0.178131 16:0.402347 17:-0.667028 18:-0.713151 19:1.416141 20:1.037660 21:-0.203166 22:-1.346642 23:-2.013808 24:0.268917 25:0.655025 26:1.516876 27:1.403453 28:0.006081 29:0.460047 30:0.477905 31:0.139834 32:-1.115694 33:0.079521 34:-0.503290 35:0.862603 36:-1.690104 37:-1.608114 38:0.879064 39:-0.134996 40:-1.048200 41:-0.981331 42:-0.876006 43:0.044744 44:-0.075462 45:-1.011985 46:-1.072015 47:0.193559 48:-0.373439 49:-0.802615 50:-0.447900 51:0.670440 52:-0.992046 53:-0.471254 54:-0.652664 55:-0.015857 56:0.946822 57:-0.402712 58:0.570304 59:2.364681 60:0.457292 61:-1.110297 62:-0.300301 63:-0.945797 64:0.372112 65:-1.332209
-1 1:-1.371713 2:-0.831593 3:-0.233256 4:0.199370 5:-0.431940 6:0.999132 7:0.309191 8:-0.251023 9:0.115609 10:1.336619 11:0.619601 12:-1.404162 13:0.934787 14:-2.259900 15:-0.183510 16:-0.599898 17:-0.949583 18:-0.775062 19:0.683570 20:0.597803 21:-0.913843 22:1.112159 23:-0.623675 24:-0.153159 25:-1.387951 26:0.614171 27:-0.795351 28:-0.213297 29:0.505823 30:-2.787545 31:0.729531 32:-0.738313 33:2.535289 34:-1.309472 35:-0.599510 36:0.846534 37:0.331781 38:0.722991 39:0.891600 40:-1.100920 41:1.126298 42:0.219893 43:-1.397897 44:0.040491 45:-0.612951 46:0.400876 47:1.582028 48:0.046879 49:0.259389 50:-1.517967 51:0.537220 52:0.865165 53:0.417532 54:-0.323566 55:-1.703212 56:-0.756397 57:-1.375731 58:-0.215846 59:-0.515364 60:1.035873 61:0.495334 62:0.359844 63:-2.014890 64:-0.848729 65:-0.254381
-1 1:-0.552966 2:0.574187 3:-0.561238 4:-0.033757 5:1.087992 6:1.297661 7:0.588096 8:-1.736562 9:0.910725 10:0.200617 11:1.311111 12:0.034203 13:-1.059821 14:0.116081 15:1.052276 16:0.321275 17:1.841771 18:1.661199 19:0.464269 20:-0.487186 21:-1.245421 22:0.600478 23:-1.082043 24:-0.277159 25:-0.915750 26:-0.843524 27:-2.182388 28:-0.273730 29:0.433325 30:-3.259046 31:1.510292 32:-1.336862 33:-0.117134 34:-1.564776 35:0.277299 36:-1.137617 37:-0.290241 38:1.978859 39:0.453730 40:0.712993 41:0.482173 42:-0.421824 43:0.733989 44:-0.304420 45:0.933896 46:-1.319738 47:0.477074 48:-1.269919 49:-1.041934 50:-0.461104 51:0.171274 52:-0.286550 53:0.324862 54:0.287742 55:-0.056499 56:0.013938 57:-0.176717 58:-1.407895 59:-0.733821 60:-1.028677 61:0.544591 62:2.085895 63:1.058726 64:-1.501908 65:-1.604864
-1 1:-0.785714 2:0.261392 3:-0.538820 4:1.069180 5:0.834296 6:-1.268507 7:0.921049 8:0.177796 9:1.701648 10:-1.705089 11:-1.780322 12:-0.097567 13:-0.218388 14:0.867046 15:1.386886 16:0.359626 17:1.031508 18:-0.972218 19:-0.168392 20:0.084535 21:-0.809246 22:2.140597 23:1.185245 24:-1.199025 25:-0.572044 26:-0.502885 27:0.434098 28:0.931898 29:0.149949 30:-0.429076 31:1.534441 32:1.450385 33:-0.147401 34:0.950099 35:0.327277 36:0.213008 37:-0.161454 38:-0.468033 39:1.721437 40:0.826227 41:1.295025 42:-0.504842 43:1.338655 44:-0.391732 45:-0.528404 46:0.349306 47:-0.887098 48:0.619958 49:-0.085930 50:-0.173710 51:0.229439 52:2.313542 53:0.037168 54:0.936002 55:1.125999 56:-0.164287 57:0.936174 58:0.317356 59:-0.812386 60:-1.094129 61:0.448203 62:-0.825138 63:-0.140330 64:-0.654122 65:-0.068502
-1 1:0.027826 2:0.233933 3:-0.006065 4:1.378292 5:-1.469735 6:-1.611061 7:0.626305 8:0.124412 9:-1.178587 10:-0.913893 11:-0.753612 12:1.532040 13:-0.252047 14:1.152320 15:-0.222685 16:-1.209402 17:-1.479649 18:-0.346820 19:-0.892831 20:-1.354612 21:0.501533 22:-0.298710 23:2.001047 24:-0.298842 25:-0.328067 26:-0.865277 27:0.651536 28:-1.165930 29:-1.474440 30:0.150276 31:-1.154547 32:1.240479 33:-0.095113 34:-0.324543 35:1.504772 36:-0.446528 37:1.487235 38:-0.396591 39:-0.098161 40:0.004116 41:-0.515612 42:-0.475370 43:0.347693 44:-1.186006 45:1.635308 46:1.673364 47:-0.801691 48:0.302391 49:0.403250 50:2.688491 51:-0.657121 52:0.565210 53:1.310105 54:0.482342 55:-0.322077 56:0.448527 57:1.242063 58:-0.821273 59:-0.621268 60:0.130620 61:1.223385 62:0.519253 63:-1.907796 64:-0.380606 65:0.451860
-1 1:0.383401 2:-1.287447 3:0.486405 4:0.814458 5:0.499391 6:-0.803199 7:1.260896 8:0.357617 9:-0.352782 10:-0.980087 11:0.358369 12:1.821626 13:0.984436 14:-0.910393 15:1.832232 16:0.045048 17:-0.283724 18:1.523339 19:-0.696322 20:0.182556 21:0.922200 22:-0.703902 23:-0.237895 24:0.522166 25:0.217718 26:-0.811623 27:0.982674 28:-0.783008 29:0.239452 30:0.926201 31:-0.161799 32:1.938523 33:-0.328584 34:-0.057479 35:0.002373 36:0.103593 37:1.355182 38:0.446258 39:0.545576 40:-0.439267 41:-1.925813 42:-1.536421 43:-0.862770 44:-0.030669 45:1.207434 46:-0.593373 47:0.147204 48:-0.476174 49:-1.337775 50:-0.847169 51:2.408821 52:0.864037 53:-0.219918 54:0.061021 55:-0.148780 56:-0.870791 57:-1.995131 58:-2.137904 59:-1.284178 60:0.405104 61:-0.013162 62:-0.297861 63:-1.660907 64:1.636366 65:0.422772
-1 1:-0.387253 2:-0.146790 3:-0.151774 4:0.169460 5:1.078056 6:-0.269710 7:-0.670014 8:-1.484254 9:-0.684957 10:-1.339469 11:0.021378 12:0.757653 13:1.007267 14:-1.573932 15:-1.531248 16:0.660234 17:-2.023350 18:0.311587 19:-1.725863 20:0.223614 21:-0.733780 22:-0.331630 23:-0.058363 24:-0.927223 25:-0.729906 26:0.467324 27:0.440420 28:-1.190503 29:0.986303 30:-0.654926 31:0.239523 32:-0.843038 33:-0.195740 34:-1.195466 35:-0.626746 36:1.012050 37:-0.652287 38:-0.601581 39:-0.946213 40:0.153728 41:-0.242931 42:-1.174129 43:-0.293657 44:-0.593189 45:1.796302 46:-1.188725 47:1.329819 48:0.052389 49:-0.387867 50:1.403704 51:1.566389 52:0.250770 53:-0.130393 54:0.406342 55:1.039896 56:-0.372032 57:1.350212 58:-1.601363 59:0.771046 60:0.268629 61:1.099759 62:-1.034537 63:-1.932444 64:0.995305 65:-2.746505
-1 1:-0.898601 2:-0.856847 3:-0.195798 4:-1.238384 5:0.140589 6:-0.597941 7:-0.142536 8:-0.033471 9:0.667595 10:-0.981823 11:0.506829 12:-0.404630 13:2.675932 14:-1.505559 15:1.425004 16:-1.269211 17:0.064510 18:-0.396378 19:-0.060152 20:0.916684 21:-1.759302 22:1.812253 23:0.442262 24:0.636973 25:0.575131 26:1.000954 27:0.230989 28:-1.277623 29:0.393797 30:-1.323837 31:1.424728 32:-0.764619 33:0.419785 34:0.670387 35:0.312907 36:0.275347 37:0.292953 38:2.555387 39:1.402584 40:-0.674443 41:-0.340711 42:1.565407 43:-0.970574 44:0.522384 45:0.939310 46:-0.383913 47:0.441198 48:-0.426208 49:-0.469880 50:0.172488 51:-1.483294 52:-2.642303 53:1.275802 54:1.415563 55:-0.452396 56:1.111271 57:0.242595 58:-0.756068 59:0.200235 60:-0.398380 61:-1.162781 62:-1.151905 63:-0.452816 64:0.274741 65:-0.114498
-1 1:-0.323588 2:-0.143014 3:0.162314 4:-0.103396 5:-2.189730 6:-1.189956 7:-0.236296 8:0.458432 9:-1.465813 10:-0.810706 11:-0.669242 12:0.530517 13:1.472425 14:0.186478 15:-1.199693 16:-0.697678 17:1.204883 18:-0.872100 19:-0.154884 20:-0.278734 21:-0.804584 22:-1.015156 23:-1.223420 24:0.023061 25:0.088074 26:0.090420 27:-0.973005 28:0.868239 29:-0.441021 30:-0.231750 31:0.663486 32:1.626869 33:-2.041582 34:1.060911 35:-0.870660 36:-1.800460 37:-2.666694 38:-0.676136 39:0.637264 40:-0.297313 41:-1.468252 42:1.263816 43:-0.884525 44:0.920318 45:-1.135816 46:-0.906689 47:-0.250401 48:-0.020555 49:-0.570042 50:0.545466 51:1.317978 52:0.716704 53:-0.298720 54:-0.684296 55:-0.898929 56:-1.114147 57:-1.506269 58:-1.075318 59:-2.170006 60:0.744402 61:1.940755 62:-0.271267 63:-0.103905 64:-0.228061 65:-1.593139
-1 1:-1.417675 2:-0.257563 3:1.648641 4:-0.150244 5:0.631991 6:0.083678 7:0.062979 8:0.455208 9:0.912970 10:-1.563730 11:-0.306058 12:0.025779 13:-0.503867 14:-0.194818 15:0.314376 16:-0.063541 17:-0.509026 18:0.397428 19:1.122361 20:0.252297 21:-0.154045 22:-0.233040 23:1.591330 24:-0.585427 25:0.214875 26:-0.694901 27:-0.520022 28:-2.228138 29:0.685129 30:-0.186409 31:-1.387195 32:1.727841 33:-0.635896 34:-0.265316 35:0.414774 36:0.299580 37:0.148861 38:1.203324 39:-0.490112 40:-0.250160 41:-0.675058 42:-0.584068 43:-1.277143 44:-1.453135 45:-1.194810 46:0.430993 47:1.228304 48:0.760497 49:1.044764 50:-0.026284 51:1.751479 52:-0.464827 53:0.384619 54:-0.588325 55:-2.147133 56:0.793535 57:-0.968797 58:-0.661572 59:1.408887 60:-0.816071 61:-0.092333 62:-0.737917 63:-0.504448 64:-1.427808 65:0.289450
-1 1:0.019844 2:1.834700 3:0.934323 4:-0.010365 5:0.014392 6:0.576610 7:-0.532175 8:-0.512129 9:0.863089 10:0.565630 11:-1.321965 12:1.559638 13:-0.625415 14:0.311391 15:-0.006603 16:0.413681 17:-1.151778 18:-0.777175 19:-0.622523 20:0.041904 21:0.454919 22:-1.072366 23:0.989776 24:-0.138015 25:-0.493439 26:-1.708382 27:-0.132998 28:-0.429151 29:0.322889 30:-0.391332 31:-0.524407 32:0.958703 33:0.555859 34:-0.115475 35:-0.751882 36:-0.938935 37:1.486695 38:-0.124483 39:-1.706039 40:-0.616771 41:0.183566 42:1.383352 43:-1.183138 44:-1.673494 45:0.822095 46:0.163225 47:-0.119014 48:0.336179 49:0.102377 50:0.086682 51:0.833450 52:0.899977 53:0.314398 54:1.765467 55:0.284842 56:-0.442548 57:0.210156 58:0.609732 59:-0.758333 60:0.490624 61:-0.232756 62:2.346929 63:0.028562 64:-1.202480 65:-0.787915
-1 1:0.126956 2:-0.919563 3:0.458824 4:-2.163210 5:1.682273 6:-1.785813 7:0.402405 8:1.068243 9:0.296590 10:2.141875 11:-1.287290 12:0.638947 13:0.433240 14:0.227442 15:-1.285304 16:0.308645 17:0.451362 18:-0.786733 19:-0.486575 20:-0.674716 21:-1.859251 22:0.729339 23:0.195887 24:-1.101507 25:1.157433 26:0.240079 27:-0.480260 28:0.760727 29:1.055159 30:0.505196 31:-1.858263 32:0.606688 33:0.260521 34:-0.701220 35:-0.111420 36:0.425671 37:-0.653984 38:-1.161232 39:-0.182965 40:-0.131859 41:-1.373513 42:-0.778110 43:-1.993970 44:-1.058353 45:0.230893 46:-0.019589 47:-0.767940 48:-1.189521 49:0.004872 50:1.311098 51:-1.170348 52:0.603069 53:0.044440 54:-0.921868 55:1.055309 56:0.145258 57:1.263276 58:0.730324 59:0.876235 60:-0.431815 61:-1.252044 62:-0.107855 63:-0.368936 64:0.745111 65:0.344161
-1 1:0.099013 2:2.504901 3:-1.218217 4:1.002658 5:0.109782 6:-1.757235 7:-1.134151 8:0.583703 9:-1.993510 10:0.513684 11:0.749555 12:-0.346066 13:0.570250 14:1.188222 15:-1.694080 16:1.177031 17:1.051153 18:0.697463 19:0.496382 20:-0.296383 21:-0.595291 22:-0.883653 23:-0.538657 24:-0.241040 25:-0.431716 26:-0.470472 27:-0.144359 28:-0.289138 29:0.660108 30:-0.096627 31:0.169445 32:-0.720464 33:-0.440253 34:1.441545 35:0.087787 36:-0.626260 37:-0.221641 38:1.508274 39:-0.483019 40:0.357500 41:-1.171270 42:0.079504 43:-0.477692 44:-0.124560 45:0.482964 46:1.006794 47:-0.293066 48:0.386763 49:-0.425630 50:-0.797107 51:0.283327 52:-0.805745 53:0.707068 54:0.695171 55:-0.851751 56:0.366783 57:-0.794215 58:-0.550674 59:-0.229232 60:-1.586785 61:0.863694 62:0.001740 63:-1.700682 64:0.028774 65:-2.298373
-1 1:1.375484 2:-1.658606 3:0.086339 4:-0.330669 5:-0.069523 6:0.316091 7:0.354424 8:1.022370 9:-0.734468 10:0.796303 11:1.061600 12:0.917378 13:-1.882072 14:0.270362 15:-0.167951 16:-1.090959 17:0.956962 18:-0.423295 19:-0.998782 20:-1.457102 21:-0.132351 22:-0.736889 23:-1.616327 24:0.004830 25:1.646111 26:-0.204494 27:-1.484120 28:-0.506679 29:-0.870345 30:-0.164448 31:-0.738926 32:0.129976 33:-0.241429 34:1.442375 35:0.416274 36:-0.444701 37:-0.223944 38:-0.472476 39:-1.506488 40:0.367030 41:-0.342422 42:-0.155784 43:-0.697100 44:1.363055 45:0.404715 46:2.311900 47:0.612443 48:1.019877 49:-0.286125 50:0.789962 51:0.367691 52:-0.411642 53:-0.326816 54:-0.816877 55:0.160489 56:0.357375 57:1.486637 58:1.032933 59:-0.523116 60:-1.312965 61:0.568367 62:0.978081 63:0.514804 64:0.021731 65:-0.400148
-1 1:-1.026218 2:0.054324 3:0.000620 4:0.185100 5:-0.394689 6:0.096750 7:1.243598 8:-0.146684 9:1.031856 10:0.040685 11:0.992557 12:-0.623744 13:-0.719954 14:0.857199 15:1.527180 16:-4.093770 17:0.007431 18:0.467513 19:-1.550032 20:-0.497274 21:0.460419 22:0.451774 23:0.654478 24:0.874417 25:1.386064 26:-0.817648 27:-1.337957 28:1.279439 29:-0.489563 30:0.650185 31:1.840676 32:-0.774581 33:-0.199441 34:1.626713 35:-0.706064 36:-1.353776 37:-0.678289 38:-0.727601 39:0.397419 40:3.522505 41:-1.464714 42:0.204582 43:1.339673 44:0.963020 45:1.421964 46:0.846402 47:-0.792889 48:0.204756 49:-0.159293 50:-0.983218 51:0.449408 52:-0.993423 53:-0.259879 54:0.911816 55:-1.701507 56:-0.039243 57:1.032317 58:0.296259 59:0.778886 60:0.858829 61:0.341913 62:0.055607 63:-0.838625 64:0.262567 65:0.095237
-1 1:0.494684 2:-0.687209 3:0.320999 4:-0.104099 5:-0.827272 6:-0.653522 7:0.315126 8:-2.134258 9:0.993363 10:0.549918 11:1.487966 12:-1.501783 13:-0.997385 14:0.438149 15:0.147784 16:0.590191 17:1.025360 18:-0.310078 19:0.535835 20:0.148006 21:-0.409947 22:-0.676927 23:-0.401310 24:-2.442761 25:-1.438900 26:-2.595865 27:0.499268 28:1.116852 29:1.009817 30:1.283689 31:-0.525398 32:-1.166105 33:0.681841 34:-0.478985 35:0.868360 36:-1.350515 37:-0.805744 38:-1.247387 39:-1.353141 40:1.450056 41:-0.720738 42:0.430657 43:1.052129 44:-0.441128 45:2.139198 46:0.175186 47:0.399938 48:0.577134 49:0.652846 50:0.529143 51:0.985186 52:1.038880 53:-1.247358 54:-2.130478 55:1.530650 56:-0.918409 57:1.337724 58:0.226314 59:-1.733384 60:-0.002532 61:-0.321488 62:-0.062155 63:0.130101 64:0.949072 65:2.430092
-1 1:0.516747 2:-1.130249 3:-1.370538 4:0.181313 5:1.932763 6:0.368487 7:-0.467100 8:-0.225601 9:-0.200804 10:0.194107 11:1.705030 12:-1.692512 13:0.131836 14:0.982121 15:-0.358968 16:-0.900702 17:-0.707497 18:-0.575228 19:0.163358 20:0.328377 21:-0.036788 22:0.085634 23:0.930435 24:-2.082864 25:0.320803 26:-0.736753 27:-0.466604 28:2.904245 29:-1.494317 30:0.198403 31:0.549177 32:0.820175 33:0.284173 34:-0.082795 35:-0.340326 36:0.581280 37:0.978419 38:0.170795 39:-0.363741 40:-0.854105 41:0.077383 42:-0.520526 43:-0.977415 44:1.095256 45:-0.575916 46:0.760665 47:-1.330720 48:-0.923232 49:-0.041462 50:-0.888994 51:2.835248 52:0.201419 53:-2.642443 54:0.038171 55:-0.834160 56:-0.868103 57:0.414463 58:-1.053626 59:0.567056 60:3.041664 61:-1.128969 62:-0.566990 63:1.137557 64:1.200874 65:-0.282180
-1 1:-0.604317 2:0.865163 3:-0.581088 4:-1.233345 5:-2.919450 6:-0.292956 7:-0.950516 8:0.512143 9:-1.449433 10:1.288053 11:0.263000 12:-0.651261 13:-3.098541 14:-1.024057 15:-0.186797 16:0.634337 17:-1.930911 18:-0.578110 19:-1.201324 20:0.035917 21:0.014704 22:-1.372320 23:0.154557 24:1.104330 25:-0.176378 26:-0.798880 27:0.691403 28:-0.195127 29:-0.626216 30:0.239862 31:0.173155 32:0.058691 33:-0.789699 34:0.438867 35:-0.245065 36:-0.088560 37:-2.212779 38:-1.327251 39:-0.803388 40:0.793002 41:-0.034495 42:-0.055167 43:-0.708197 44:-0.143783 45:0.519921 46:0.429754 47:0.565173 48:-0.004893 49:-1.956229 50:-0.871891 51:-0.883438 52:1.278885 53:1.218998 54:1.354241 55:-0.535885 56:2.455038 57:-1.998521 58:0.269249 59:-1.542651 60:1.150389 61:1.945561 62:-2.066576 63:-0.823009 64:-1.078206 65:0.839879
-1 1:0.041545 2:-0.346027 3:0.006322 4:1.318779 5:0.477670 6:0.257166 7:0.052769 8:1.753620 9:1.757442 10:0.794461 11:-0.612014 12:-0.037648 13:0.564997 14:1.687999 15:0.921063 16:-0.006854 17:-0.358489 18:0.954226 19:-0.850336 20:-0.128276 21:-0.016363 22:1.650379 23:0.548345 24:0.750084 25:0.352882 26:0.418046 27:-1.364200 28:-1.433029 29:-0.907070 30:0.029623 31:-0.134338 32:0.486145 33:0.025582 34:-0.651030 35:0.960084 36:0.542590 37:0.287472 38:0.261963 39:-1.310384 40:-0.916623 41:-2.298275 42:0.755309 43:-0.691363 44:0.420105 45:0.027910 46:0.457176 47:1.090458 48:-0.643743 49:-1.352946 50:0.621792 51:-1.708012 52:-1.224881 53:-0.584128 54:0.588964 55:-0.399348 56:-0.955300 57:-0.868091 58:-0.638064 59:-0.721782 60:-1.845335 61:-1.584044 62:0.979778 63:0.114659 64:-0.422496 65:0.249807
-1 1:0.492322 2:0.956712 3:0.479714 4:-0.102756 5:0.544406 6:0.046974 7:0.965945 8:-0.299765 9:0.034256 10:1.246492 11:1.352569 12:-0.039128 13:-0.414032 14:-1.360536 15:1.590158 16:0.762930 17:0.463091 18:2.227737 19:0.283353 20:2.684332 21:0.521479 22:-0.767644 23:0.087563 24:-0.627860 25:1.023612 26:1.125787 27:0.493550 28:0.357393 29:-0.563235 30:0.545758 31:0.710608 32:-2.442515 33:-0.901293 34:1.825881 35:-0.892592 36:-1.237816 37:1.187402 38:2.065133 39:0.666128 40:0.623471 41:-0.683761 42:-0.829864 43:-0.055275 44:-0.101027 45:-1.164036 46:-0.718316 47:0.560353 48:-0.548673 49:-1.708325 50:-0.036073 51:1.135674 52:-1.433176 53:0.319144 54:-0.679251 55:0.337623 56:-1.331218 57:-0.794240 58:0.320023 59:-0.332413 60:-0.084392 61:0.425673 62:0.085876 63:-0.882512 64:-0.554492 65:0.073170
-1 1:-0.936556 2:1.814325 3:0.409021 4:-0.975055 5:-0.653776 6:-0.223235 7:-0.726471 8:1.263487 9:-1.120321 10:-0.716214 11:-2.549914 12:-0.030443 13:-1.778704 14:-0.173796 15:0.553001 16:-0.734341 17:-1.235080 18:-0.033857 19:-1.130994 20:-0.095560 21:-0.244339 22:0.440388 23:0.929910 24:-0.064881 25:-0.470784 26:-0.120947 27:0.656208 28:-0.016874 29:0.963533 30:1.026153 31:-0.551422 32:-1.654726 33:1.638148 34:0.621654 35:-0.083629 36:1.402266 37:-0.511624 38:1.513200 39:-0.002845 40:1.521013 41:-0.704313 42:-1.829633 43:0.189571 44:-0.074383 45:0.473063 46:0.088826 47:0.736312 48:-1.986914 49:0.650296 50:1.764390 51:0.693151 52:-0.813639 53:2.483989 54:1.022723 55:1.102637 56:0.751596 57:-0.795994 58:0.576754 59:1.701616 60:-1.449179 61:1.583765 62:0.953950 63:1.357557 64:-0.382556 65:1.401344
-1 1:-0.848026 2:-1.797710 3:0.755843 4:-0.460196 5:-0.208376 6:0.649592 7:-0.174096 8:1.330701 9:0.485764 10:1.045244 11:0.618560 12:1.019124 13:1.704625 14:-0.053041 15:-0.165973 16:0.869162 17:-0.226641 18:0.617996 19:-0.443652 20:2.307729 21:0.094757 22:0.333218 23:-0.227078 24:-0.678160 25:-0.313846 26:0.567273 27:-0.217046 28:-2.211627 29:1.179744 30:-0.827933 31:0.406530 32:0.047089 33:-0.102192 34:-0.324983 35:0.957375 36:-0.323314 37:-0.899590 38:-1.273695 39:-0.937339 40:1.293823 41:0.943510 42:-1.225767 43:0.578427 44:0.737270 45:0.653980 46:0.407263 47:0.864557 48:0.549844 49:1.452039 50:-0.148114 51:-0.026075 52:-0.466505 53:0.168821 54:-0.991393 55:0.028416 56:0.336476 57:1.362598 58:0.949241 59:2.236865 60:1.428214 61:1.114040 62:-1.230389 63:0.265676 64:-0.472355 65:-0.024179
-1 1:0.430256 2:-0.552317 3:-1.566227 4:2.379200 5:0.035030 6:0.803372 7:0.325898 8:-1.566324 9:-1.323389 10:-0.523124 11:2.056679 12:-0.156398 13:0.389334 14:1.466234 15:-0.446596 16:1.267889 17:0.322560 18:-0.117077 19:1.489983 20:1.851115 21:-0.202532 22:-0.274854 23:-0.758987 24:0.389052 25:-0.033445 26:-2.643988 27:1.869056 28:-1.103932 29:0.681813 30:0.213837 31:-0.157066 32:0.210482 33:-0.982239 34:-0.349981 35:-0.055299 36:1.227874 37:-1.689110 38:-0.803833 39:1.853110 40:2.713897 41:-1.072207 42:1.688038 43:0.903459 44:-0.015174 45:-0.957827 46:0.806097 47:1.755101 48:0.004231 49:1.656812 50:0.113721 51:-1.928544 52:-0.796973 53:-0.569270 54:-0.428917 55:-1.065776 56:-0.419018 57:0.218038 58:-0.746130 59:1.381518 60:-1.289560 61:0.439531 62:-1.590482 63:-1.343785 64:0.802643 65:0.508888
-1 1:0.171309 2:-0.824145 3:-0.213616 4:-0.453554 5:-0.730405 6:-0.131741 7:-0.289322 8:-0.826726 9:-2.224518 10:-0.778317 11:-0.429863 12:0.123913 13:-0.787194 14:0.032846 15:-0.268889 16:-0.715141 17:0.731778 18:2.515689 19:0.638307 20:-0.038837 21:0.953841 22:-0.754422 23:1.363368 24:-0.942756 25:-0.949809 26:0.299717 27:-0.460866 28:0.530115 29:-0.508010 30:-1.192776 31:-0.585710 32:0.051332 33:-0.129978 34:-0.179161 35:-1.593545 36:-1.156881 37:0.688607 38:0.106702 39:0.125843 40:-0.564680 41:1.233952 42:-0.576313 43:-0.939314 44:0.400633 45:-0.518988 46:-0.286628 47:-0.529221 48:-2.068487 49:0.821698 50:0.380273 51:-0.715610 52:-0.337602 53:-0.475343 54:0.050308 55:1.504280 56:-0.189729 57:1.422007 58:-0.927922 59:-0.961006 60:0.762985 61:-0.456876 62:-1.375803 63:-1.128829 64:0.589484 65:-0.554902
-1 1:0.937358 2:0.503421 3:-1.218583 4:1.353597 5:1.484030 6:-1.622282 7:-0.632554 8:1.454658 9:-0.819746 10:-0.272051 11:-1.480546 12:-0.405353 13:-0.767345 14:-0.233956 15:-2.875680 16:0.459918 17:0.434717 18:-0.095004 19:-0.673938 20:-0.597356 21:0.393218 22:0.695868 23:0.041410 24:1.152475 25:-1.946340 26:-0.371561 27:-1.849890 28:-1.184382 29:-0.817650 30:-0.974770 31:0.385226 32:-0.450436 33:0.811591 34:0.116368 35:1.230921 36:0.136283 37:-1.020994 38:0.851903 39:2.012157 40:-0.605643 41:0.212707 42:-0.040858 43:0.661253 44:0.336098 45:0.411821 46:1.593349 47:-0.784030 48:-0.693496 49:-0.031845 50:-1.097843 51:1.650818 52:0.781774 53:-0.212146 54:-0.170753 55:0.396242 56:-0.564226 57:0.427512 58:0.637410 59:1.394118 60:-0.647759 61:-1.794890 62:-0.037406 63:1.729863 64:0.172382 65:-0.056259
-1 1:1.234101 2:1.504902 3:0.683457 4:-2.183922 5:0.059089 6:0.883328 7:1.381845 8:0.374913 9:0.535999 10:-0.446157 11:-1.458844 12:-0.739342 13:0.604481 14:0.688835 15:0.994101 16:0.210029 17:-0.538721 18:-1.010499 19:0.451710 20:0.857871 21:0.896775 22:-0.155011 23:0.101410 24:-0.783489 25:0.896170 26:-1.026192 27:-0.013203 28:0.162734 29:-0.270789 30:0.665042 31:0.065808 32:-0.132869 33:0.305432 34:0.072499 35:-0.307130 36:-0.015750 37:-1.279174 38:0.335606 39:0.498566 40:-0.029194 41:0.515539 42:-1.001181 43:0.330444 44:0.254549 45:-0.361362 46:1.224599 47:-0.617658 48:0.269137 49:0.378035 50:0.050256 51:-0.144124 52:-0.210429 53:-0.278485 54:0.312664 55:-1.542943 56:-1.389580 57:-1.670724 58:-2.883803 59:-2.251830 60:-1.226610 61:1.015063 62:0.018826 63:-1.422712 64:-0.276848 65:-1.610269
-1 1:0.311612 2:0.835377 3:0.105688 4:0.158677 5:0.040302 6:0.458555 7:-1.108158 8:-0.212112 9:0.250485 10:1.233091 11:-1.423469 12:-1.214801 13:1.448834 14:-0.706697 15:-1.015031 16:-1.541014 17:0.811202 18:-0.270495 19:0.488148 20:1.123759 21:-1.167126 22:-0.906468 23:0.488215 24:0.883971 25:-1.551669 26:0.199586 27:-2.057533 28:-1.294552 29:0.201372 30:-1.041318 31:1.707616 32:-0.020112 33:-1.007775 34:-0.993992 35:0.140152 36:-0.676781 37:-0.663012 38:-0.691617 39:-0.326402 40:1.151466 41:0.009294 42:0.455410 43:0.529098 44:0.473999 45:0.811503 46:-0.759685 47:-0.548888 48:1.376642 49:1.111298 50:-0.332464 51:0.539682 52:-0.419901 53:0.449414 54:-0.809723 55:-0.649254 56:-0.500504 57:0.428463 58:-0.863521 59:1.749715 60:1.441704 61:-1.200539 62:0.535367 63:0.668761 64:0.886091 65:-1.898548
-1 1:0.482484 2:1.461123 3:0.188241 4:0.733596 5:-0.157723 6:-0.558355 7:-0.796719 8:-0.018796 9:-0.084148 10:-0.623770 11:-0.050625 12:-0.683199 13:-0.608071 14:-0.452032 15:-1.762246 16:2.950199 17:0.069123 18:-0.328806 19:2.356080 20:0.333559 21:-0.007254 22:-2.490793 23:-1.046003 24:0.162567 25:-0.636339 26:2.010284 27:-0.094535 28:0.597148 29:0.220173 30:1.833594 31:0.386052 32:0.793267 33:-1.027182 34:0.271682 35:0.310461 36:0.745502 37:0.467296 38:-0.512336 39:1.434008 40:-1.484210 41:0.276788 42:1.851503 43:-0.629076 44:-0.165215 45:-0.066075 46:-1.976173 47:1.304132 48:-0.989874 49:1.194072 50:-0.441361 51:1.468788 52:1.745161 53:0.431692 54:0.638137 55:0.729694 56:-1.302105 57:-0.015539 58:0.204233 59:-0.799457 60:0.860699 61:-0.254459 62:-0.826674 63:1.367016 64:0.245711 65:1.617243
-1 1:-0.562235 2:-0.913851 3:-1.685230 4:-0.271113 5:0.299272 6:1.257904 7:-1.706029 8:0.855932 9:-1.454904 10:0.739611 11:-0.837747 12:-0.423474 13:0.774543 14:0.133990 15:0.617157 16:1.318841 17:-1.175585 18:-0.890264 19:-0.146835 20:-0.872904 21:0.453579 22:-0.726571 23:1.068828 24:0.697080 25:-0.284287 26:-0.704957 27:0.479711 28:-0.105827 29:-1.154278 30:-0.176748 31:0.810003 32:0.271373 33:0.482816 34:1.693532 35:-0.717879 36:1.010993 37:0.947114 38:-0.942660 39:-0.006431 40:-0.718058 41:0.578134 42:-1.469182 43:-0.206498 44:1.878835 45:-0.844723 46:-0.457573 47:-2.126470 48:0.462228 49:-0.069475 50:1.502282 51:0.089545 52:0.953160 53:0.865931 54:1.131044 55:0.229579 56:-2.179204 57:-0.074911 58:0.751675 59:0.968084 60:-0.221227 61:0.924235 62:1.435978 63:-0.411301 64:2.487187 65:1.992887
-1 1:-0.726973 2:1.605282 3:1.299964 4:-0.136934 5:0.481382 6:-1.356623 7:0.028638 8:-0.807862 9:1.491859 10:0.158487 11:1.647344 12:0.543559 13:-0.097092 14:1.713536 15:-1.938797 16:-0.259040 17:-1.825191 18:2.158635 19:-0.199037 20:0.461486 21:0.563860 22:-0.159479 23:0.235656 24:0.350821 25:1.508849 26:0.879150 27:-0.809443 28:-1.441442 29:0.038975 30:0.135426 31:-1.397191 32:-0.800530 33:0.196792 34:0.518581 35:-0.016276 36:1.525147 37:-1.556974 38:-1.026758 39:-1.985648 40:-0.891721 41:-0.452692 42:1.411793 43:0.733522 44:0.416703 45:-0.053701 46:-1.859708 47:0.912773 48:1.090674 49:-0.245780 50:2.447378 51:-1.792015 52:1.384776 53:0.506635 54:-0.045288 55:1.306160 56:0.130038 57:-0.179800 58:1.102664 59:1.581679 60:-0.629560 61:0.803664 62:1.603704 63:0.010977 64:0.071131 65:-0.435460
-1 1:-0.457334 2:-0.376591 3:0.718199 4:-0.004877 5:0.559225 6:0.192747 7:-0.029709 8:-0.585513 9:-1.236775 10:0.469847 11:1.368197 12:-0.016607 13:-1.527181 14:-0.263275 15:-0.933128 16:-0.018581 17:-1.474099 18:-0.460744 19:-1.128471 20:-0.276457 21:-0.560497 22:0.373987 23:1.342913 24:-0.923257 25:1.410391 26:-0.046242 27:0.238370 28:0.188754 29:-0.331383 30:0.284626 31:-0.400766 32:-0.415384 33:-1.747248 34:-0.282104 35:-0.660165 36:0.568257 37:0.911713 38:-0.055795 39:0.695376 40:1.348269 41:-1.376522 42:0.897198 43:0.970051 44:1.244134 45:0.048867 46:0.778540 47:-0.546928 48:1.351750 49:0.383917 50:-0.784698 51:0.940876 52:-1.632743 53:-0.110417 54:1.145122 55:-1.110617 56:-1.334343 57:-1.579367 58:-1.132723 59:-0.980287 60:-1.188563 61:2.472649 62:-0.144505 63:-0.017756 64:-1.237006 65:1.092638
-1 1:-0.811205 2:-0.471685 3:0.402760 4:-0.558819 5:-0.254954 6:0.779492 7:-0.915655 8:-0.926569 9:0.228250 10:-0.003730 11:-0.364378 12:1.740114 13:-0.128345 14:-0.685478 15:-0.042593 16:-0.589008 17:0.653162 18:-0.484633 19:1.202275 20:-0.421935 21:-0.272859 22:0.475961 23:-0.578401 24:-1.305959 25:0.525414 26:0.405695 27:1.244326 28:1.185167 29:-0.710174 30:0.789275 31:-0.879465 32:0.568957 33:0.603637 34:0.350306 35:-1.116069 36:0.840197 37:1.009249 38:1.126427 39:-0.334821 40:-1.211438 41:1.394269 42:1.675614 43:-1.530836 44:-2.516983 45:0.075761 46:-0.262122 47:0.658040 48:-0.801201 49:0.552957 50:0.122590 51:0.063695 52:-0.376220 53:0.876456 54:-2.377305 55:0.658914 56:0.542455 57:-0.587115 58:0.038240 59:0.432716 60:-0.034108 61:-1.474567 62:-0.090803 63:-0.342204 64:-1.515818 65:-1.367931
-1 1:1.381753 2:0.240587 3:1.386361 4:0.353420 5:-0.284441 6:-1.200417 7:0.084204 8:2.766436 9:-1.272361 10:-2.128686 11:0.798768 12:-1.147123 13:0.424361 14:0.167077 15:0.339993 16:0.899465 17:0.105343 18:1.227301 19:-2.250145 20:1.067639 21:0.992679 22:1.056972 23:0.683642 24:2.418137 25:-0.053817 26:-0.014475 27:0.133799 28:-0.591606 29:-1.069980 30:1.251524 31:0.660961 32:-0.423894 33:-0.660515 34:0.863340 35:2.006003 36:-1.567783 37:0.258024 38:-0.896096 39:-1.247047 40:1.577421 41:0.528298 42:-1.181332 43:-2.139757 44:0.997319 45:-0.482858 46:-0.010632 47:0.897279 48:0.377916 49:-0.588883 50:0.108028 51:-1.566469 52:0.431927 53:0.134980 54:-1.673196 55:1.057398 56:-0.589980 57:0.194373 58:-0.185296 59:-0.531330 60:-0.636245 61:-0.314242 62:-1.193479 63:-0.450235 64:-0.737175 65:0.281042
-1 1:0.294888 2:-1.079880 3:0.932333 4:-1.548659 5:-1.533589 6:0.105797 7:0.520280 8:0.333518 9:0.438398 10:0.651631 11:0.171341 12:-1.395702 13:0.433619 14:0.082077 15:0.738804 16:-0.809196 17:0.776798 18:-0.982791 19:-1.441466 20:0.596236 21:-1.854908 22:-0.772131 23:-0.553613 24:1.419759 25:-0.497987 26:-0.049567 27:0.107013 28:-0.928850 29:0.514959 30:0.462739 31:-0.677711 32:1.797651 33:0.476288 34:1.122678 35:-0.930697 36:0.873630 37:0.836065 38:-0.219342 39:0.094327 40:-0.288642 41:-1.306096 42:0.523291 43:-0.368291 44:1.536538 45:-0.159114 46:-0.609380 47:-0.085751 48:-1.520058 49:-0.125493 50:-0.299333 51:-1.221914 52:-0.125493 53:1.422868 54:-0.513049 55:-0.010829 56:-0.894849 57:-0.577741 58:0.211672 59:-0.021222 60:-0.787604 61:0.757063 62:0.198213 63:-0.508900 64:-1.404981 65:-0.127874
-1 1:-0.833287 2:-0.395151 3:0.669142 4:0.039127 5:-0.123062 6:-0.444628 7:-0.604842 8:1.010685 9:-0.638002 10:1.906449 11:-0.937654 12:0.747332 13:0.631753 14:0.894224 15:-1.081191 16:0.053200 17:-0.978769 18:-0.257824 19:1.268830 20:1.315667 21:-0.080613 22:0.368123 23:0.813471 24:1.194459 25:0.064189 26:1.941228 27:-1.000828 28:0.970754 29:0.252167 30:1.192996 31:0.362259 32:0.033967 33:-0.350249 34:-2.752514 35:-1.566116 36:0.253477 37:-0.907248 38:-2.003320 39:0.717758 40:1.058686 41:1.589781 42:0.057114 43:0.063442 44:-0.980665 45:-0.780883 46:0.632394 47:0.364067 48:-0.062002 49:-0.843229 50:0.075682 51:-0.234626 52:-0.621447 53:-0.415383 54:0.472404 55:-0.198513 56:-0.243696 57:0.735851 58:0.387517 59:0.277801 60:0.772775 61:-0.947041 62:-1.181936 63:2.073986 64:0.322217 65:-1.269424
-1 1:0.510749 2:0.701868 3:2.404243 4:1.050115 5:-0.488836 6:-1.166401 7:0.937285 8:-1.095097 9:-1.050245 10:-1.144859 11:-0.403079 12:0.004205 13:-1.007605 14:1.712380 15:1.208564 16:0.639659 17:0.535402 18:-0.618231 19:-0.419676 20:0.284136 21:1.571290 22:0.006418 23:1.522104 24:-0.314834 25:-0.692603 26:1.568715 27:-1.443994 28:-0.991842 29:0.141264 30:1.252717 31:-0.759072 32:1.478336 33:-0.187829 34:2.253433 35:1.057813 36:0.524133 37:0.032335 38:0.843756 39:1.322156 40:2.244920 41:-0.291895 42:1.468236 43:0.026359 44:1.223711 45:-0.053762 46:-1.941201 47:-0.169656 48:0.681744 49:-2.347284 50:0.226403 51:0.158097 52:0.868179 53:0.381145 54:-0.376643 55:0.679730 56:0.436139 57:0.238610 58:-0.431783 59:0.003197 60:0.970508 61:-0.808037 62:0.057521 63:-2.236837 64:-0.848263 65:0.137118
-1 1:0.223228 2:0.336834 3:0.148583 4:1.593572 5:0.940823 6:0.637121 7:-0.495957 8:-0.447846 9:-0.492192 10:-1.247542 11:1.604716 12:-0.372237 13:-0.679480 14:0.457581 15:-0.199849 16:1.073948 17:0.993036 18:-0.021205 19:-0.632738 20:1.207486 21:-1.515862 22:0.744856 23:-0.734978 24:0.316843 25:-2.090929 26:-0.040920 27:-0.898105 28:-0.227907 29:0.250993 30:0.675586 31:0.811903 32:0.616143 33:-0.787177 34:2.352530 35:0.990167 36:-1.067664 37:-1.084879 38:0.322527 39:1.086137 40:-0.469409 41:-0.939122 42:1.033069 43:-0.729388 44:1.679500 45:-1.147435 46:0.702641 47:0.517212 48:1.028931 49:-0.476238 50:0.109321 51:-0.112184 52:-0.081593 53:0.918336 54:0.807315 55:-0.057393 56:0.855591 57:0.563454 58:-0.270809 59:0.486479 60:-0.128004 61:-0.061035 62:-1.032346 63:-1.299323 64:-0.805541 65:-0.677434
-1 1:0.395122 2:-0.238852 3:-0.871547 4:-1.075099 5:1.467105 6:-0.931087 7:1.041796 8:2.229307 9:-1.101850 10:-0.203959 11:-0.870333 12:0.801147 13:0.844615 14:-1.483198 15:0.536732 16:-0.691442 17:0.006604 18:0.620110 19:0.692493 20:0.335829 21:-1.405500 22:-0.978492 23:0.322921 24:0.630583 25:1.414803 26:-0.032360 27:-1.352179 28:0.621784 29:0.579679 30:2.210824 31:-1.072754 32:1.084979 33:0.610253 34:0.231983 35:-0.254758 36:-2.109648 37:-0.123422 38:3.010110 39:0.737218 40:0.920857 41:-0.793117 42:0.296365 43:-0.952340 44:0.142625 45:-0.793731 46:1.904781 47:0.144052 48:-0.228302 49:-0.676477 50:1.244377 51:0.565859 52:-1.326814 53:-0.117102 54:-0.951713 55:1.745946 56:-0.750707 57:1.735877 58:-0.432791 59:0.874692 60:-1.485091 61:-0.128380 62:-0.368204 63:0.755987 64:1.282803 65:-0.018199
-1 1:0.279228 2:0.949061 3:0.216103 4:-0.557698 5:0.297589 6:-1.416814 7:-0.482631 8:-1.441889 9:-0.701011 10:-0.059659 11:1.470813 12:-0.520321 13:-1.060139 14:0.815993 15:-0.134433 16:-0.631318 17:0.126041 18:-0.886567 19:1.298815 20:1.411257 21:0.261733 22:0.346620 23:0.366242 24:-0.865645 25:0.072977 26:-1.760944 27:1.482601 28:-0.665646 29:-0.072253 30:0.445740 31:0.425487 32:0.907362 33:-0.153196 34:-1.388062 35:-1.302604 36:1.756394 37:0.986944 38:-1.376107 39:-1.526113 40:0.760342 41:-1.577172 42:1.179065 43:-0.100686 44:1.130212 45:-2.159455 46:0.149148 47:-0.035432 48:0.866435 49:0.446933 50:1.100180 51:0.474984 52:-1.619256 53:-0.019665 54:1.076037 55:-0.314233 56:-0.249416 57:-0.477499 58:0.219402 59:-0.166732 60:1.073383 61:0.256112 62:0.932471 63:0.234499 64:2.140535 65:0.579443
-1 1:0.513462 2:-1.202355 3:2.209864 4:-0.574376 5:0.653427 6:-0.567223 7:0.589438 8:0.061571 9:-0.076144 10:-0.859858 11:-1.246754 12:-0.719330 13:1.007071 14:-0.868563 15:-0.324046 16:0.309160 17:0.957213 18:-0.089585 19:0.211451 20:0.921224 21:-0.167778 22:0.241169 23:0.310779 24:-0.161614 25:1.489097 26:0.847155 27:0.679785 28:0.030778 29:-1.325266 30:0.267636 31:0.179235 32:0.366554 33:-0.196708 34:-0.474482 35:-0.563623 36:2.073612 37:0.281426 38:0.895068 39:0.270392 40:-0.437163 41:-0.879090 42:-0.008618 43:-0.395165 44:-0.047722 45:0.545017 46:-0.713168 47:-1.128324 48:-0.759688 49:1.036930 50:-1.157034 51:1.465184 52:0.411654 53:-1.577054 54:1.185109 55:-0.182442 56:0.289526 57:1.571958 58:-0.847690 59:0.112040 60:1.477947 61:-1.570528 62:0.843885 63:-0.070756 64:-0.941324 65:-0.017660
-1 1:-1.309000 2:-0.159113 3:-0.567786 4:0.725306 5:0.082210 6:0.842371 7:1.219666 8:-0.883904 9:0.011460 10:0.393896 11:-0.815254 12:-0.254844 13:-0.955866 14:-1.163256 15:0.754658 16:-0.993133 17:-0.526350 18:1.801018 19:-0.155727 20:-1.728935 21:0.697309 22:0.543973 23:1.085731 24:-1.039924 25:1.738717 26:0.232656 27:1.160712 28:-0.419158 29:1.804611 30:-0.149747 31:0.001876 32:1.235772 33:-0.882914 34:-0.815779 35:-0.699195 36:0.257811 37:-1.453541 38:-0.665652 39:0.061743 40:-1.199635 41:0.675890 42:1.319860 43:0.313731 44:0.292999 45:-1.995468 46:-0.412279 47:-0.548371 48:0.094871 49:-0.773953 50:1.169862 51:-0.525908 52:-0.616202 53:-0.084175 54:-0.034939 55:0.630875 56:-0.072104 57:-1.181095 58:0.444411 59:0.946066 60:0.046908 61:-1.466817 62:-0.790266 63:-0.006157 64:0.785973 65:0.300291
-1 1:0.535280 2:2.003748 3:-0.122194 4:-0.517868 5:0.908173 6:0.204193 7:0.010900 8:-0.060283 9:0.674302 10:-0.613555 11:-0.008860 12:-0.451334 13:0.604719 14:-0.586762 15:0.693057 16:-0.894761 17:-1.283087 18:-0.637059 19:-0.486223 20:1.066465 21:-0.760609 22:-1.424452 23:2.052205 24:0.233911 25:0.056897 26:0.542710 27:-0.314357 28:1.523776 29:2.383462 30:-0.192485 31:-0.032156 32:1.168721 33:1.228841 34:0.460557 35:0.120024 36:0.539531 37:0.813391 38:1.227818 39:-0.785481 40:-2.913705 41:0.862029 42:0.609900 43:1.403008 44:-1.389619 45:0.597459 46:1.326519 47:-0.300820 48:-2.147440 49:1.072839 50:-1.136602 51:-0.018883 52:0.287882 53:1.196949 54:0.273331 55:-1.721769 56:0.132328 57:-0.925262 58:0.151321 59:0.953374 60:0.425617 61:3.166235 62:-0.004093 63:-0.994008 64:-0.734254 65:-1.421249
-1 1:1.242816 2:1.980230 3:-1.247657 4:-0.489016 5:0.887990 6:-1.262082 7:0.600279 8:-0.879220 9:0.126404 10:2.185681 11:0.879285 12:1.170363 13:0.583380 14:1.221880 15:0.370478 16:-0.309622 17:-0.930611 18:-1.258674 19:-0.838988 20:-1.013053 21:-0.750266 22:-1.992795 23:-0.648322 24:-0.230678 25:0.823251 26:-0.323949 27:0.742587 28:0.274856 29:-0.179426 30:1.570496 31:-1.460882 32:-3.152166 33:-1.488849 34:-0.011499 35:0.606432 36:-0.305191 37:-1.175258 38:-0.735345 39:0.783631 40:-1.625748 41:1.139066 42:1.357647 43:-0.085422 44:0.835988 45:0.385918 46:-0.020000 47:-1.491873 48:0.620094 49:-0.626756 50:0.716499 51:0.752047 52:-1.515258 53:-1.491055 54:-0.746305 55:1.432459 56:0.684106 57:1.469702 58:0.259431 59:0.349682 60:0.508337 61:0.573279 62:1.071059 63:-1.325354 64:-1.962313 65:-2.070499
-1 1:-0.349265 2:0.413560 3:1.006877 4:1.511657 5:-1.206565 6:0.718026 7:0.543443 8:0.030916 9:-0.355505 10:-0.478277 11:-0.910902 12:0.831734 13:-0.023873 14:0.846454 15:-0.368477 16:1.031996 17:-0.899335 18:-0.915823 19:-0.061287 20:1.053863 21:-0.316880 22:0.851075 23:0.517685 24:0.175392 25:0.139965 26:-0.571473 27:0.433892 28:0.663429 29:-1.034901 30:-0.512334 31:-0.089547 32:0.475789 33:-1.109374 34:0.702183 35:0.104878 36:-0.793587 37:1.194190 38:1.024088 39:-1.393512 40:-0.490408 41:-0.129776 42:0.670706 43:0.363407 44:0.829169 45:-0.272553 46:-0.058104 47:0.720665 48:0.298125 49:0.121828 50:-0.999990 51:-0.084255 52:0.423349 53:-0.574099 54:0.608429 55:0.356691 56:0.373693 57:1.693299 58:0.654123 59:-2.242202 60:-0.885793 61:-1.213029 62:0.322886 63:0.938837 64:-1.589931 65:0.069796
-1 1:1.441912 2:-0.472687 3:0.503319 4:0.037450 5:-1.849913 6:-0.115619 7:-0.014232 8:1.364299 9:1.795337 10:0.416027 11:-0.329571 12:-1.958748 13:0.834767 14:-2.282077 15:-1.361290 16:1.021522 17:0.839420 18:0.609511 19:-0.167461 20:1.143437 21:-0.144369 22:1.376121 23:-0.803954 24:-0.933414 25:-1.126392 26:0.534709 27:-0.440666 28:-0.998564 29:1.434970 30:0.414831 31:-1.270751 32:-1.502830 33:1.350372 34:1.190753 35:-2.424120 36:1.978522 37:1.807923 38:-0.141264 39:-0.897465 40:1.695655 41:-0.428113 42:0.150151 43:0.271106 44:-0.194588 45:-0.749018 46:0.334272 47:0.720845 48:-1.079444 49:-1.416112 50:0.757832 51:-0.766012 52:-1.172607 53:-0.159968 54:0.748457 55:0.472014 56:0.160339 57:-1.635935 58:1.936823 59:-1.689379 60:0.227227 61:-0.231269 62:-2.963703 63:-0.570293 64:-0.230408 65:-0.203252
-1 1:0.669276 2:-0.997801 3:0.041149 4:0.762170 5:-0.129720 6:1.482345 7:0.045549 8:1.355415 9:0.093822 10:0.556381 11:1.234863 12:-0.584555 13:1.476142 14:1.147483 15:-2.486906 16:0.271812 17:-0.485835 18:-0.015063 19:1.423020 20:-0.678869 21:1.418722 22:0.328333 23:-1.294564 24:1.595198 25:0.147435 26:1.219291 27:-0.552808 28:1.284118 29:0.211866 30:-1.897379 31:-0.897855 32:-0.338279 33:0.614755 34:-0.298218 35:-0.270895 36:1.439127 37:-0.379865 38:0.434218 39:-0.427458 40:-0.525264 41:-0.396078 42:-0.364531 43:0.980925 44:-0.430959 45:-0.424190 46:1.498157 47:-0.770847 48:0.601797 49:-2.722775 50:-0.112269 51:-0.956710 52:-0.476938 53:1.513144 54:-2.062461 55:1.288231 56:-1.402979 57:1.166325 58:1.134368 59:-0.457916 60:0.503375 61:-0.184406 62:-0.161099 63:0.194620 64:0.812137 65:0.495445
-1 1:0.452062 2:-1.380303 3:-1.693071 4:1.649174 5:-0.240457 6:-1.099546 7:-0.220325 8:-1.922129 9:0.717128 10:-2.456057 11:-0.483596 12:0.059779 13:-0.046564 14:-1.505241 15:1.521652 16:0.627038 17:-1.071597 18:2.578269 19:-0.742352 20:-0.363061 21:0.731609 22:-0.092045 23:0.708766 24:-1.077540 25:0.724102 26:-2.345211 27:-0.919871 28:0.855741 29:0.458679 30:-0.757094 31:0.550342 32:-0.744485 33:0.382662 34:-0.954027 35:0.159997 36:-0.875730 37:0.657153 38:-0.494484 39:-0.313294 40:-2.007027 41:0.869944 42:0.815486 43:0.796227 44:1.202072 45:0.918314 46:0.151311 47:0.522633 48:-1.449766 49:1.896803 50:-0.468992 51:-0.150545 52:-0.504150 53:0.606269 54:1.069410 55:-1.319364 56:1.202691 57:-0.898620 58:-1.019936 59:-0.289925 60:-0.586064 61:-0.787581 62:1.296687 63:0.335089 64:-0.439283 65:0.505645
-1 1:-1.236319 2:0.173414 3:1.145758 4:-1.350887 5:1.424694 6:0.246886 7:0.061747 8:0.533653 9:-0.634968 10:0.477049 11:0.293289 12:0.799718 13:-0.834938 14:-0.282341 15:0.056952 16:-0.411844 17:0.171210 18:0.416523 19:-1.356820 20:-1.378126 21:-0.025520 22:-1.140062 23:-0.132937 24:-1.218955 25:0.227990 26:1.773466 27:0.363004 28:0.859931 29:0.828911 30:-0.032175 31:-0.285807 32:0.212719 33:-0.315969 34:0.910322 35:0.836528 36:-1.575675 37:0.081170 38:1.789401 39:-0.694842 40:-1.925024 41:1.115618 42:-0.899233 43:-0.929713 44:-0.263661 45:-0.817426 46:0.662243 47:-0.695627 48:-0.725475 49:-1.990286 50:-0.422776 51:0.113203 52:-0.305356 53:-0.718411 54:-1.328221 55:-1.461823 56:-0.884453 57:0.070408 58:-0.282685 59:1.872759 60:-0.624828 61:-0.976241 62:0.764246 63:-2.724025 64:2.072424 65:0.942249
-1 1:1.922798 2:0.607409 3:-0.911347 4:-0.388457 5:-1.241808 6:-2.192174 7:-0.509753 8:0.693935 9:-0.290457 10:0.813988 11:1.255094 12:0.691500 13:-1.597512 14:0.121276 15:-1.569348 16:0.687926 17:-0.323944 18:1.670280 19:-0.215318 20:-0.404224 21:0.009924 22:2.412841 23:1.035222 24:-1.231645 25:-0.002968 26:0.427501 27:1.178886 28:-0.575301 29:1.782843 30:-0.334793 31:-0.185550 32:0.760568 33:-0.706784 34:0.604313 35:1.598171 36:0.863173 37:-1.184057 38:0.277390 39:0.750931 40:1.259723 41:-1.295794 42:-0.003688 43:-0.092443 44:-0.155643 45:1.424597 46:-0.338021 47:-0.810542 48:-0.754902 49:0.179492 50:0.900128 51:-1.547062 52:0.642571 53:1.902657 54:1.450785 55:2.092252 56:0.079009 57:-1.338547 58:1.483990 59:1.203037 60:0.844669 61:-1.717773 62:0.553566 63:1.274130 64:0.228191 65:-1.530901
-1 1:-0.252792 2:-0.480249 3:-0.092385 4:0.004528 5:0.561222 6:-1.303636 7:-1.829844 8:1.118337 9:0.426515 10:1.071578 11:-0.056179 12:2.078320 13:-0.868885 14:0.432961 15:1.152844 16:1.945858 17:0.153827 18:2.121106 19:0.477501 20:-0.982185 21:0.159531 22:-0.288414 23:0.337570 24:0.749369 25:-0.741939 26:-0.655053 27:-0.850712 28:0.160854 29:-0.534078 30:-1.365000 31:0.123475 32:1.010720 33:0.005665 34:0.273496 35:-0.071064 36:-1.381356 37:-1.546034 38:1.607261 39:-0.133684 40:1.321683 41:0.153472 42:-1.524045 43:-2.032047 44:0.334043 45:-0.932562 46:0.185727 47:-0.428045 48:-0.685417 49:0.714788 50:0.012610 51:-2.361634 52:2.797319 53:-0.867881 54:-0.536849 55:0.203621 56:-0.018670 57:-0.916218 58:1.782383 59:0.618475 60:-1.536661 61:0.202977 62:2.177571 63:-0.445226 64:-0.823688 65:0.537899
-1 1:1.444185 2:-0.617790 3:0.474292 4:-0.026960 5:0.628606 6:0.103174 7:-0.113330 8:1.377202 9:1.410576 10:0.840593 11:0.565219 12:0.481260 13:0.684266 14:0.647698 15:1.641150 16:0.626398 17:-1.204775 18:-0.002207 19:-0.513115 20:0.001562 21:0.255383 22:0.630294 23:0.378088 24:0.783053 25:-0.139239 26:-0.044285 27:-0.673406 28:-0.084595 29:0.174039 30:-1.304699 31:0.270132 32:-1.037235 33:-0.067492 34:-0.392855 35:1.400378 36:-0.752266 37:0.416953 38:1.459775 39:2.668450 40:0.876693 41:-1.168215 42:-1.729515 43:0.434679 44:-1.090673 45:0.673036 46:0.380832 47:0.871756 48:-0.498781 49:0.891736 50:0.344340 51:1.365232 52:1.110074 53:1.119019 54:0.521674 55:-0.305019 56:0.634030 57:-1.934877 58:0.195294 59:-0.158348 60:-1.530101 61:-0.969519 62:1.128624 63:1.942796 64:-0.300654 65:0.034830
-1 1:-0.200562 2:-0.425699 3:0.773322 4:-0.729822 5:0.568493 6:-0.347235 7:1.251874 8:-0.928647 9:1.144192 10:0.501479 11:-0.177709 12:-0.222825 13:-0.283533 14:1.751896 15:0.525321 16:-2.865545 17:-1.063196 18:-1.416845 19:0.027377 20:-1.094952 21:0.213547 22:-0.445425 23:-0.994117 24:3.791303 25:0.507757 26:-0.204881 27:0.520527 28:-0.580281 29:-0.571719 30:-0.047953 31:1.158125 32:0.243018 33:0.393609 34:0.324668 35:-0.393868 36:-2.321577 37:-0.093688 38:0.806995 39:0.685297 40:-0.377279 41:-0.335762 42:0.692565 43:-0.470592 44:-0.971672 45:-0.822537 46:0.656824 47:0.171268 48:-0.714969 49:-0.188995 50:-0.957366 51:-1.341225 52:-1.304279 53:-0.709298 54:-1.444561 55:1.463252 56:-1.110628 57:-0.122929 58:-2.472777 59:1.369725 60:-1.107254 61:-0.195977 62:-1.739429 63:-0.306583 64:-0.214512 65:0.485625
-1 1:-1.142664 2:-0.244677 3:-0.282020 4:1.174763 5:0.892051 6:0.777473 7:0.441859 8:-0.480425 9:-0.112980 10:1.781326 11:-0.883618 12:-0.521845 13:0.780626 14:1.842917 15:0.172734 16:0.861636 17:0.515455 18:0.028246 19:-3.282131 20:0.629413 21:-0.863743 22:0.295333 23:-0.143170 24:-0.597583 25:1.050924 26:0.859598 27:-0.275822 28:0.875057 29:-0.896802 30:1.407263 31:0.161781 32:-0.083651 33:0.121310 34:-2.503013 35:1.952579 36:-0.015547 37:0.049800 38:-1.500028 39:0.622127 40:0.258454 41:-0.433609 42:1.011413 43:0.449049 44:0.373444 45:-3.041922 46:-1.023967 47:0.764561 48:-1.989213 49:0.424311 50:-0.276553 51:1.407400 52:-1.779754 53:0.134469 54:0.339131 55:1.189391 56:-0.771288 57:-1.952134 58:0.039043 59:-0.343241 60:-0.337702 61:1.564328 62:-0.013272 63:-0.048349 64:-1.299287 65:-0.471981
-1 1:-0.373825 2:0.942173 3:1.420643 4:-0.590992 5:0.517031 6:-0.642848 7:0.745230 8:0.680032 9:-0.106665 10:0.829854 11:0.097829 12:1.276000 13:0.392214 14:-0.083356 15:1.083959 16:-0.398876 17:-3.181204 18:-0.477072 19:-0.228993 20:-0.051224 21:-2.198501 22:0.005722 23:1.186882 24:1.064931 25:0.789725 26:0.475246 27:0.836363 28:0.228667 29:-1.684527 30:0.627275 31:1.374496 32:-0.860773 33:-0.649989 34:-0.606688 35:-0.235117 36:-0.795681 37:-0.077447 38:-0.126208 39:-0.890452 40:-0.507538 41:0.752436 42:1.312003 43:-1.035971 44:0.173624 45:-0.298251 46:0.585555 47:-0.832682 48:1.402641 49:0.294094 50:1.641476 51:0.205093 52:1.292514 53:0.511089 54:-0.231881 55:-1.309373 56:0.056843 57:-0.705391 58:-0.728940 59:0.514517 60:0.569346 61:1.403971 62:-2.601454 63:-1.269017 64:0.195470 65:0.405304
-1 1:0.830108 2:-0.281635 3:-0.924181 4:-0.860701 5:0.935599 6:1.391968 7:-0.801604 8:-0.117366 9:0.669475 10:0.857307 11:1.423166 12:1.019031 13:0.034522 14:0.487298 15:0.310900 16:-0.112380 17:-0.502026 18:0.235274 19:0.891841 20:-2.191934 21:1.070105 22:-0.385724 23:1.657192 24:-0.425479 25:0.697173 26:0.363056 27:0.119122 28:-0.409840 29:1.375309 30:-1.492314 31:1.055159 32:2.114940 33:-1.431520 34:0.515293 35:-1.465300 36:1.997113 37:-1.969103 38:0.268036 39:0.597228 40:-0.022224 41:2.047201 42:-0.466903 43:0.909969 44:-0.570724 45:0.053546 46:1.022109 47:-0.030304 48:0.722571 49:1.849189 50:-0.332439 51:-0.086373 52:-1.182755 53:0.010398 54:1.479753 55:-0.455574 56:-0.394990 57:1.349541 58:-1.525721 59:0.030124 60:-0.180442 61:-1.860766 62:-0.200603 63:0.294529 64:0.313180 65:-0.790378
-1 1:-0.266728 2:0.151520 3:-1.961845 4:0.732183 5:0.202380 6:0.062499 7:-0.090983 8:-1.350018 9:2.436553 10:-1.353099 11:1.329519 12:-0.155819 13:-0.740457 14:0.001484 15:1.544448 16:0.061760 17:-0.502492 18:-1.248738 19:1.807453 20:-0.730850 21:0.108598 22:0.568081 23:0.356609 24:0.716236 25:1.195002 26:0.140659 27:-0.715292 28:1.421792 29:-1.162297 30:0.891777 31:-1.978524 32:-1.118496 33:-0.502484 34:-0.085626 35:0.239260 36:1.420648 37:0.230088 38:-0.146514 39:-0.677715 40:0.290069 41:-0.718409 42:-0.617256 43:-1.001731 44:-0.427097 45:-0.062865 46:-0.950316 47:-0.021310 48:1.163623 49:-0.961953 50:1.259712 51:-0.004304 52:-0.764076 53:0.612492 54:0.004709 55:1.617726 56:-1.295566 57:-1.782844 58:-0.120517 59:1.071171 60:-0.807202 61:-1.145359 62:-0.681185 63:-1.875176 64:0.751801 65:1.359482
-1 1:0.427410 2:-0.112056 3:-1.212199 4:-0.121887 5:-0.212100 6:0.975060 7:0.131699 8:0.564286 9:0.604355 10:-0.242686 11:0.436786 12:-0.032001 13:-1.812724 14:-0.220768 15:0.647158 16:-0.763425 17:1.245846 18:1.247215 19:-0.025871 20:-0.951419 21:-1.912578 22:-0.442007 23:-1.228694 24:0.620984 25:0.221440 26:0.860342 27:1.117405 28:-0.764196 29:-0.245733 30:-0.245527 31:0.041529 32:-2.596513 33:1.220986 34:0.065311 35:0.855066 36:-0.124097 37:0.394891 38:0.539738 39:0.736427 40:-0.711647 41:-0.242126 42:-0.000566 43:-1.197736 44:1.103140 45:0.746520 46:0.564322 47:0.938112 48:0.048490 49:-1.376090 50:0.033937 51:-0.185672 52:0.133224 53:0.459610 54:2.031385 55:-1.066471 56:-0.160113 57:-0.416672 58:1.218399 59:0.228789 60:-1.534281 61:-0.368638 62:0.077722 63:-0.084557 64:1.225065 65:-0.322654
-1 1:-0.922765 2:1.459527 3:0.593679 4:0.226713 5:-0.300044 6:0.568114 7:-0.886545 8:0.622052 9:0.387667 10:-0.765074 11:0.350476 12:-1.519283 13:-0.038805 14:-1.428805 15:-1.790640 16:1.608335 17:-1.587905 18:-1.505044 19:-0.240209 20:-0.588736 21:-0.495409 22:0.200839 23:-0.139828 24:1.041523 25:0.045084 26:0.794597 27:-0.547941 28:0.545363 29:0.844292 30:-1.534298 31:-0.992809 32:0.444586 33:-0.230019 34:-0.273257 35:1.136350 36:-1.173261 37:-0.155333 38:1.801796 39:-0.433258 40:-0.280695 41:-0.126156 42:-1.673490 43:-0.490494 44:0.585528 45:-1.372321 46:-1.052701 47:1.026532 48:-0.599244 49:-0.388567 50:-1.697158 51:-1.659884 52:-0.076956 53:0.027319 54:2.386118 55:-0.748130 56:-0.635838 57:0.499709 58:-0.914368 59:2.018147 60:-2.137117 61:0.487179 62:-1.112573 63:-0.321947 64:-0.190840 65:0.104178
-1 1:1.802061 2:0.562210 3:0.217695 4:0.009398 5:-0.132591 6:-1.392089 7:1.983215 8:-0.274609 9:-1.263057 10:1.494976 11:0.137726 12:0.682422 13:1.480529 14:1.019368 15:0.466827 16:0.663226 17:-2.552033 18:-0.637192 19:-1.860536 20:1.910825 21:-0.172309 22:-0.173004 23:-1.321488 24:1.561825 25:0.077408 26:0.461881 27:0.562632 28:-0.893585 29:-1.687262 30:-0.705652 31:-1.133479 32:-1.011187 33:-0.466187 34:-0.089499 35:-0.908286 36:2.261033 37:-0.168934 38:0.281099 39:-0.827651 40:1.908251 41:-0.711360 42:-0.453325 43:-0.595505 44:-1.290880 45:-0.277233 46:0.309917 47:-0.883181 48:0.855752 49:0.111570 50:-0.280279 51:0.570894 52:-0.289380 53:-0.217987 54:0.108634 55:-0.623655 56:-0.478186 57:0.828757 58:-0.392852 59:-0.720864 60:0.322270 61:-1.881302 62:1.991148 63:1.268113 64:1.331038 65:1.165657
-1 1:-1.652810 2:-0.041716 3:0.783137 4:-1.124780 5:-0.988213 6:0.606803 7:1.550138 8:-0.940184 9:-1.092710 10:-0.791167 11:-0.283038 12:1.479608 13:0.867767 14:-0.070791 15:0.242576 16:0.244537 17:-1.994108 18:0.273223 19:-0.462373 20:-0.395002 21:-1.309868 22:-0.426774 23:-0.311272 24:1.734265 25:-0.564120 26:-0.936081 27:-0.309976 28:1.115182 29:-0.933679 30:0.272456 31:1.286981 32:0.501203 33:0.489364 34:0.750004 35:-1.962551 36:0.711021 37:-1.036548 38:2.279937 39:0.446894 40:0.622767 41:0.922883 42:-0.923015 43:0.458920 44:2.073451 45:-0.484726 46:1.721510 47:0.943235 48:-1.210822 49:1.483526 50:-0.741071 51:-0.777732 52:-0.218377 53:0.783982 54:-0.706661 55:-0.526068 56:0.082553 57:0.128159 58:0.458787 59:0.030975 60:1.027061 61:-0.502935 62:0.880607 63:-0.691102 64:-1.165418 65:-1.449480
-1 1:0.110694 2:0.796981 3:-0.420531 4:0.385085 5:-0.052830 6:-0.036880 7:-1.362697 8:0.128464 9:-1.967385 10:1.292358 11:-0.850271 12:1.399200 13:0.605135 14:0.032697 15:-1.203028 16:-0.954705 17:0.701382 18:1.241492 19:0.259384 20:-0.733841 21:-0.847822 22:0.294579 23:0.193862 24:-0.532162 25:-0.544250 26:0.950326 27:-2.409487 28:0.598287 29:-0.151373 30:0.365601 31:0.540585 32:1.128640 33:-2.514252 34:-1.180154 35:-2.103816 36:0.051471 37:1.156782 38:-0.296603 39:-0.350536 40:-0.835117 41:-0.712530 42:-1.603106 43:0.210618 44:0.907465 45:-0.659569 46:2.413003 47:-0.505136 48:-2.063539 49:0.926060 50:1.736495 51:0.964601 52:0.437368 53:-0.292299 54:1.662300 55:-0.561922 56:-1.778372 57:0.996259 58:0.961452 59:0.447649 60:-0.555588 61:0.123764 62:-0.254334 63:-0.315480 64:-2.328998 65:-0.516361
-1 1:-0.442181 2:0.186950 3:-0.913630 4:-2.238857 5:-0.355430 6:0.041462 7:0.188816 8:-1.052729 9:1.671851 10:-1.463268 11:0.178532 12:-0.925178 13:-0.471796 14:0.496577 15:-0.518599 16:0.929340 17:0.990613 18:0.364653 19:-0.586224 20:-0.604024 21:0.525748 22:-1.467591 23:-0.629476 24:0.001745 25:1.209668 26:-0.230478 27:1.218788 28:0.919190 29:-0.187209 30:0.037031 31:-1.116172 32:-1.123701 33:1.287430 34:1.080500 35:-0.883355 36:-0.002963 37:0.134024 38:-1.567243 39:-0.214470 40:0.715550 41:-0.772913 42:0.913224 43:-1.044720 44:0.579679 45:-0.763079 46:0.291470 47:0.129704 48:-0.961660 49:1.733283 50:-0.450426 51:-1.161789 52:-0.806536 53:-0.781885 54:0.375958 55:0.625057 56:-0.926419 57:1.077133 58:0.713500 59:-1.618658 60:0.256037 61:-0.703156 62:0.735279 63:1.822777 64:1.298062 65:-2.400834
-1 1:-1.302328 2:0.290879 3:-0.487306 4:-0.018268 5:1.347767 6:-0.721692 7:1.183812 8:-0.476435 9:0.663699 10:0.885234 11:1.567116 12:-0.686493 13:-0.011942 14:0.421023 15:2.498043 16:-2.665524 17:-0.241184 18:1.843119 19:1.012843 20:-1.689011 21:0.692469 22:-0.525661 23:-0.748828 24:0.995147 25:0.818628 26:0.309401 27:0.428165 28:0.859252 29:1.835245 30:-0.073056 31:-0.084305 32:0.583593 33:0.683073 34:-0.880526 35:-0.877739 36:-1.421874 37:0.458167 38:1.854532 39:1.185105 40:0.326400 41:1.012701 42:0.581428 43:0.202856 44:-0.052201 45:0.960030 46:0.105651 47:0.316759 48:1.397623 49:-1.059764 50:0.182458 51:-0.156607 52:-0.680525 53:1.661939 54:1.469232 55:0.030255 56:2.574002 57:0.325707 58:1.715196 59:0.454608 60:0.035916 61:0.390632 62:0.217437 63:-0.741495 64:-0.228034 65:0.644959
-1 1:-1.362328 2:0.000757 3:0.356344 4:-0.359679 5:0.087420 6:0.679841 7:-0.488424 8:0.459045 9:0.644875 10:-0.171494 11:-0.766138 12:0.931760 13:0.408530 14:-0.288042 15:-1.910820 16:0.268990 17:0.365520 18:-0.272918 19:0.105832 20:-0.403944 21:-0.358015 22:-0.021967 23:-1.610806 24:0.287143 25:-1.560763 26:-0.440029 27:-1.207638 28:0.127565 29:-0.977715 30:0.068427 31:-0.973686 32:-0.802227 33:-0.931500 34:-1.162338 35:-0.168446 36:2.425247 37:-1.075924 38:0.062948 39:-1.682729 40:0.666091 41:0.807568 42:0.545726 43:-0.972983 44:-0.499917 45:1.138980 46:0.122238 47:-0.457118 48:1.844842 49:-0.032643 50:-0.889512 51:-0.746430 52:1.056644 53:0.387036 54:-2.190858 55:-0.102140 56:-0.125762 57:0.714158 58:1.021683 59:0.883185 60:-0.650029 61:0.118033 62:1.331375 63:0.806726 64:-1.249859 65:-0.678439
-1 1:-1.812612 2:-0.710141 3:-0.913705 4:1.588508 5:-0.632993 6:-0.222898 7:-1.719993 8:1.405823 9:-0.640729 10:-0.050870 11:-0.872985 12:-0.439357 13:-1.946205 14:2.492087 15:-1.423894 16:-0.419797 17:-0.005610 18:0.263912 19:0.135138 20:0.380564 21:-1.262973 22:0.311683 23:-1.105936 24:-2.753187 25:-1.413054 26:-1.725179 27:-0.209180 28:-0.366237 29:-1.409140 30:-1.718976 31:-0.865160 32:-0.460930 33:0.226346 34:0.027290 35:-1.102089 36:2.005178 37:-0.498760 38:1.005103 39:0.184301 40:-0.599970 41:0.327778 42:-0.535692 43:0.770397 44:0.717319 45:1.471976 46:-0.868802 47:0.359954 48:1.436185 49:0.210871 50:-0.163681 51:0.271352 52:-2.363873 53:-0.788247 54:-0.991305 55:0.754914 56:0.318496 57:-0.217720 58:-1.176087 59:2.231481 60:1.439015 61:0.332765 62:-0.111199 63:-0.725419 64:0.348926 65:2.512679
-1 1:-0.726296 2:-1.863194 3:-0.071182 4:-1.062944 5:-0.732526 6:0.990160 7:0.876400 8:-0.846732 9:1.423012 10:-1.454552 11:0.052698 12:-0.442448 13:-0.880848 14:-1.790483 15:0.643104 16:-0.659246 17:-0.889094 18:-2.015628 19:0.944714 20:-0.809890 21:-0.413937 22:0.050363 23:0.677001 24:0.798860 25:-0.059093 26:-0.109165 27:0.091964 28:-0.110644 29:0.231530 30:1.828280 31:-0.359153 32:2.513842 33:1.421561 34:0.846229 35:-1.407611 36:-0.291884 37:1.925128 38:-1.294255 39:1.683631 40:0.854819 41:1.950588 42:-0.898292 43:-0.587961 44:-0.987961 45:-0.804776 46:-0.024180 47:0.536963 48:0.300044 49:1.682836 50:0.302171 51:0.269492 52:-0.066997 53:0.167653 54:-1.921464 55:0.900750 56:-2.012973 57:-1.306260 58:0.528397 59:-0.129522 60:-1.473985 61:2.476049 62:0.841289 63:0.006664 64:-0.189957 65:-0.404770
-1 1:-0.001511 2:-0.101931 3:0.230689 4:0.316604 5:1.178240 6:-0.781168 7:0.630263 8:0.658903 9:-1.306153 10:-0.909492 11:0.817376 12:0.345101 13:-1.067656 14:0.666016 15:0.054758 16:-0.782977 17:-0.701884 18:-0.234337 19:0.462892 20:-0.531784 21:1.446187 22:-0.694685 23:0.031345 24:0.331930 25:0.238297 26:-0.577506 27:1.632658 28:-0.123192 29:1.084567 30:-0.700859 31:0.474209 32:-0.210730 33:1.746826 34:0.350231 35:1.837538 36:1.001908 37:-1.434072 38:-0.435330 39:0.972202 40:-0.659761 41:0.402056 42:-2.800032 43:-0.754559 44:0.092399 45:0.435100 46:-1.135352 47:0.024173 48:0.818440 49:0.458417 50:0.372252 51:0.734491 52:-0.576485 53:3.112585 54:0.274319 55:-0.154929 56:3.018888 57:1.062692 58:1.453420 59:-0.578509 60:-0.667938 61:-0.584379 62:-0.468011 63:-0.259481 64:-1.416655 65:0.099775
-1 1:-1.489689 2:-1.260479 3:0.750501 4:-0.560679 5:2.065373 6:-0.159716 7:1.167300 8:0.958272 9:-0.039391 10:0.666064 11:1.091599 12:1.110766 13:-0.044248 14:1.622050 15:2.670829 16:0.288402 17:0.670753 18:0.912894 19:0.840160 20:-0.494563 21:0.320959 22:-0.117429 23:0.058158 24:-0.409181 25:1.194699 26:-1.007154 27:-0.758777 28:-0.491216 29:-1.211367 30:-0.819364 31:1.074810 32:-0.174123 33:-3.660589 34:-1.226073 35:1.632122 36:0.614664 37:-0.738429 38:0.435700 39:-1.344993 40:1.275972 41:-0.042992 42:0.327487 43:-1.165496 44:0.194561 45:0.256678 46:-2.226478 47:-1.657276 48:1.258515 49:-0.991915 50:1.585381 51:0.262046 52:-0.523968 53:-0.240806 54:1.258852 55:-0.139778 56:0.665052 57:-0.111206 58:0.795997 59:0.300367 60:-0.799279 61:0.859774 62:-0.866166 63:-1.328914 64:-0.498110 65:-0.676768
-1 1:-0.312634 2:-1.237984 3:-0.017400 4:0.884961 5:-1.096665 6:-0.537040 7:-0.698906 8:-0.754557 9:0.368783 10:-0.120964 11:-1.665643 12:-0.427864 13:0.376901 14:-0.093573 15:0.032860 16:-1.424340 17:0.664312 18:-0.922313 19:1.343189 20:1.745059 21:-0.456141 22:0.649508 23:0.038211 24:-0.889379 25:0.345626 26:-1.387237 27:-0.290188 28:1.794910 29:0.636814 30:0.133472 31:-0.438387 32:0.199549 33:-1.261507 34:-0.026285 35:-0.498776 36:-0.329691 37:1.361690 38:-0.154002 39:0.568093 40:1.200047 41:-0.039008 42:-0.936490 43:1.729451 44:0.676576 45:-0.517674 46:0.274957 47:0.349448 48:1.887553 49:-0.103715 50:-0.564737 51:0.545676 52:-1.709062 53:0.191899 54:-0.086891 55:0.173121 56:-0.089734 57:-0.047895 58:-0.965046 59:0.890964 60:0.603512 61:0.091040 62:-0.756174 63:-0.414809 64:1.943960 65:-1.075629
-1 1:-0.866656 2:-0.499553 3:0.409498 4:-0.988300 5:0.117985 6:-1.104151 7:-0.866120 8:-1.030812 9:0.189028 10:1.639739 11:1.424973 12:1.021308 13:0.586414 14:0.478986 15:-1.459561 16:-0.917192 17:0.726492 18:1.500603 19:0.330297 20:-1.309407 21:-0.909293 22:0.098370 23:1.455460 24:0.423802 25:0.090284 26:-0.454402 27:0.004414 28:0.612500 29:-1.019857 30:0.062442 31:-1.710341 32:0.195280 33:0.978010 34:-2.066543 35:1.138499 36:-0.458039 37:-0.033402 38:0.122250 39:-0.889732 40:-1.366108 41:1.652329 42:0.192518 43:-0.051729 44:1.788690 45:-1.745248 46:0.417268 47:1.077807 48:-0.311022 49:-1.069027 50:-0.620992 51:0.719394 52:1.177485 53:0.056332 54:0.060412 55:-0.208289 56:1.149559 57:0.667724 58:0.346604 59:-2.166739 60:1.300030 61:0.277572 62:0.262319 63:-1.354818 64:2.216576 65:-0.999091
-1 1:-0.134602 2:-0.378139 3:-1.093052 4:0.266420 5:1.015901 6:0.054998 7:-0.750955 8:-0.252768 9:-0.211119 10:1.008030 11:0.162534 12:-0.324541 13:-2.538624 14:-0.053190 15:-1.162525 16:1.420300 17:-0.035406 18:-0.628718 19:-0.282501 20:-0.956959 21:0.753765 22:-0.275110 23:-1.224084 24:0.301471 25:-0.474984 26:0.372435 27:1.344346 28:0.048937 29:0.582871 30:-2.470332 31:1.010321 32:0.722146 33:-0.228045 34:-0.707618 35:0.017124 36:1.079078 37:0.574045 38:-0.024619 39:-0.653694 40:0.563846 41:0.374004 42:0.894326 43:0.282595 44:-1.341452 45:-0.437456 46:0.224920 47:-1.433551 48:-0.277807 49:-0.473352 50:0.197457 51:0.342181 52:2.375633 53:-0.051952 54:-2.314078 55:1.053511 56:0.374384 57:-0.448350 58:-0.947189 59:1.994913 60:0.953696 61:-0.652022 62:-0.146489 63:-0.010487 64:0.658151 65:-0.048493
-1 1:1.663306 2:1.293295 3:-0.410320 4:-0.429369 5:0.023449 6:0.772328 7:0.978381 8:-0.036020 9:2.875175 10:-3.134109 11:-0.904895 12:0.010884 13:1.717026 14:-1.216370 15:0.599140 16:0.464291 17:-0.606775 18:-1.353308 19:-0.546914 20:-0.867979 21:0.496241 22:0.474049 23:-1.023545 24:-0.323735 25:-1.902355 26:-1.360470 27:1.675962 28:0.035774 29:-0.573791 30:-1.332272 31:2.500096 32:-2.234398 33:-0.810177 34:0.842190 35:1.077899 36:0.713292 37:-0.831287 38:-0.362556 39:-1.325236 40:-0.879108 41:1.053849 42:0.773043 43:0.421626 44:-0.542612 45:0.905500 46:1.565486 47:-0.658819 48:0.501700 49:-1.062724 50:-0.843711 51:0.874137 52:-1.232814 53:0.308049 54:-1.387117 55:-0.186564 56:0.004153 57:0.179988 58:1.671225 59:0.387763 60:-0.901529 61:0.445954 62:-0.285356 63:0.666351 64:-1.045534 65:0.549592
-1 1:-0.584498 2:1.612537 3:-0.682287 4:-0.808313 5:0.163096 6:-0.306741 7:-2.581479 8:-2.271509 9:1.108402 10:0.567642 11:-0.128228 12:1.605672 13:-0.317973 14:0.626216 15:-0.244383 16:-0.397876 17:2.358116 18:-2.592965 19:-1.760022 20:-1.476162 21:-0.243120 22:-1.333243 23:1.612038 24:0.786615 25:-0.307492 26:-0.593924 27:0.006332 28:1.194158 29:-0.600001 30:-2.000372 31:-0.932907 32:0.668370 33:0.596101 34:-0.913283 35:0.468379 36:-0.999821 37:0.885889 38:-0.983694 39:0.003290 40:-0.934873 41:-0.568383 42:0.181275 43:-0.936461 44:-1.343327 45:0.212344 46:-0.038547 47:1.122120 48:-0.744770 49:-1.789965 50:-1.657763 51:0.678824 52:0.025011 53:1.335003 54:0.214972 55:0.447179 56:-1.453186 57:-0.649051 58:-0.210631 59:-1.174262 60:-1.975471 61:-0.790001 62:0.907384 63:0.176641 64:0.364293 65:1.131840
-1 1:0.020142 2:0.035541 3:-0.244655 4:1.145831 5:-0.621521 6:-0.153200 7:0.800809 8:0.670679 9:-0.829365 10:-0.221165 11:1.174869 12:-0.665110 13:-0.364466 14:-1.292269 15:-1.005706 16:-0.256482 17:-1.077730 18:2.676092 19:-0.940715 20:-1.371242 21:0.246985 22:-0.037605 23:1.810482 24:0.423385 25:0.327392 26:-1.708694 27:-0.478275 28:-2.755271 29:-0.019717 30:-0.547095 31:1.708756 32:-0.162486 33:1.196340 34:-0.268853 35:1.470367 36:0.409741 37:-0.476179 38:-0.480088 39:0.306337 40:0.308382 41:0.342426 42:0.599334 43:0.019985 44:-0.163121 45:2.219182 46:0.371226 47:1.760826 48:1.827095 49:0.081406 50:0.515802 51:-0.298904 52:-0.996202 53:0.377382 54:2.168015 55:-1.482822 56:1.933401 57:-2.384316 58:0.412341 59:0.849680 60:0.938211 61:-0.573374 62:-1.001926 63:-1.454321 64:2.013672 65:-0.855771
-1 1:0.144413 2:0.159332 3:1.820946 4:0.298341 5:0.490508 6:1.743392 7:-0.859879 8:-1.172987 9:-1.037055 10:-0.310909 11:-0.029034 12:-1.232112 13:-0.455266 14:0.312346 15:1.298416 16:-0.587734 17:0.376247 18:-0.364702 19:-0.023362 20:1.133665 21:0.735285 22:-0.990758 23:1.189469 24:0.665643 25:0.391620 26:0.745229 27:1.282736 28:0.938409 29:1.562962 30:0.347946 31:-0.342248 32:0.457612 33:-0.188567 34:-1.660665 35:-0.338790 36:-0.831720 37:-1.320996 38:0.823315 39:1.400889 40:0.925598 41:3.511038 42:1.163870 43:-0.129038 44:-0.359330 45:-2.058758 46:-0.362967 47:-0.524696 48:-0.732015 49:1.095704 50:-0.012115 51:-0.443045 52:0.735919 53:1.600758 54:-0.615114 55:-1.191442 56:0.748391 57:-1.165169 58:-0.753975 59:-0.612276 60:-0.361636 61:-0.243569 62:1.002643 63:0.102072 64:-0.915065 65:1.442094
-1 1:0.945626 2:-1.397116 3:-0.001460 4:-0.429193 5:-1.507286 6:0.226349 7:-0.664453 8:2.431531 9:-0.464105 10:0.787821 11:0.224623 12:-0.334427 13:-1.610241 14:-1.313227 15:2.543221 16:0.546882 17:0.261677 18:0.926160 19:1.903657 20:-0.525054 21:2.066880 22:-0.624877 23:-1.167343 24:0.497485 25:0.073246 26:0.039422 27:-0.782785 28:-1.743274 29:-2.187871 30:0.252257 31:1.553039 32:1.183123 33:-0.047717 34:-1.311464 35:-0.886916 36:1.155852 37:0.654724 38:0.736080 39:0.003848 40:1.141324 41:-0.455308 42:-1.233082 43:-0.299697 44:-0.358407 45:0.124683 46:1.541213 47:-0.935495 48:-0.077199 49:-0.366724 50:0.174143 51:1.050330 52:-0.743327 53:1.753449 54:-1.209891 55:-0.167985 56:-2.066388 57:0.991226 58:-0.627721 59:0.614275 60:-0.413213 61:-1.592591 62:0.837863 63:0.270528 64:1.602752 65:0.491704
-1 1:1.761772 2:0.969029 3:-2.017674 4:-1.537321 5:0.518561 6:0.532058 7:-0.187234 8:-0.652085 9:-0.090169 10:-0.165567 11:-0.905185 12:0.924716 13:2.052729 14:-1.628822 15:0.496410 16:-0.018111 17:-0.488454 18:0.583084 19:0.176391 20:-0.494930 21:1.030221 22:-0.717481 23:0.157797 24:0.362627 25:-1.362280 26:0.770637 27:0.628211 28:-1.165743 29:1.069030 30:-1.091417 31:0.014437 32:-1.463809 33:0.261025 34:0.081553 35:1.221290 36:0.235461 37:-2.221201 38:-0.453811 39:-1.949892 40:0.054597 41:-0.830097 42:-0.972775 43:-0.287170 44:-0.816378 45:-1.513400 46:-0.245070 47:-0.310767 48:-0.484127 49:-0.344423 50:-0.807869 51:-0.053267 52:-0.126373 53:0.577499 54:1.442801 55:0.205437 56:1.119065 57:-0.756933 58:0.900648 59:-1.612357 60:0.358580 61:-1.294129 62:0.254347 63:-0.690101 64:0.043270 65:-1.130653
-1 1:-0.914663 2:0.626974 3:-0.724833 4:-1.908908 5:1.053461 6:-0.781474 7:0.447308 8:-1.638368 9:-0.778764 10:0.310694 11:0.102499 12:-1.491820 13:-0.347332 14:-0.165818 15:-0.123213 16:1.409189 17:0.457468 18:0.733251 19:0.133511 20:-0.363560 21:-0.027579 22:1.223753 23:2.463039 24:-1.516416 25:0.410189 26:1.971800 27:-0.524390 28:0.402884 29:0.354762 30:0.283605 31:-0.540820 32:-1.172208 33:2.338332 34:-0.843058 35:0.079179 36:-0.713500 37:0.781682 38:-1.837851 39:-0.984672 40:2.472665 41:-1.246211 42:0.458779 43:1.566423 44:1.206158 45:-0.340227 46:-1.388049 47:-0.420095 48:0.028537 49:-0.877792 50:-0.640894 51:-0.693905 52:-0.504367 53:1.155374 54:0.295536 55:-0.531638 56:2.118595 57:0.183686 58:0.926500 59:0.332096 60:-0.747012 61:0.815215 62:-0.970259 63:0.808244 64:0.833099 65:1.234594
-1 1:0.402301 2:0.311943 3:1.345194 4:0.652303 5:2.413137 6:-0.167832 7:0.853449 8:0.693148 9:-0.695926 10:-0.962607 11:-0.558566 12:0.811767 13:-0.610877 14:2.293569 15:-0.832702 16:-0.453594 17:2.602340 18:-0.878683 19:-0.084024 20:-0.277291 21:-1.152426 22:-1.459997 23:0.227108 24:0.892883 25:-0.912567 26:-0.771430 27:0.249639 28:-0.950509 29:-0.424889 30:-0.380110 31:-0.782008 32:-1.376082 33:-1.754833 34:-1.358822 35:-1.130326 36:0.791438 37:-0.058353 38:-1.699723 39:-0.108270 40:-0.330540 41:-1.131839 42:0.657291 43:-0.509936 44:-0.717137 45:-0.671743 46:-0.051279 47:1.227280 48:1.233895 49:0.253774 50:1.850128 51:-0.067301 52:-1.078642 53:2.713849 54:-0.041138 55:-0.806367 56:0.123145 57:-0.024564 58:-0.547338 59:-2.686044 60:0.328073 61:0.190054 62:-0.149814 63:0.784231 64:-0.128823 65:-0.444551
-1 1:1.846451 2:-0.334434 3:1.329583 4:-0.417923 5:-0.691715 6:-0.158463 7:-1.013267 8:-0.285884 9:0.102934 10:0.159485 11:1.880804 12:-0.907242 13:0.685225 14:-1.635994 15:1.605510 16:0.757729 17:-0.392201 18:-0.115922 19:0.422370 20:0.263290 21:0.787275 22:1.926922 23:0.709559 24:0.159292 25:-0.014456 26:-0.460416 27:0.931212 28:-0.844387 29:0.454576 30:1.223053 31:1.155054 32:-0.548895 33:0.888706 34:0.348966 35:-1.737345 36:-0.765061 37:-0.750490 38:1.574079 39:0.473644 40:-0.986312 41:-0.436085 42:-0.493649 43:-1.042106 44:-1.360704 45:2.215980 46:0.979313 47:-0.935928 48:-0.516127 49:2.705357 50:-0.806569 51:-0.639402 52:2.414277 53:-0.730192 54:-0.098113 55:-0.700352 56:-0.006836 57:-0.152635 58:0.148204 59:2.269578 60:1.366360 61:0.351757 62:0.443348 63:0.127677 64:-0.819978 65:0.251945
-1 1:0.314432 2:-0.812430 3:-0.546763 4:1.348756 5:-1.299320 6:-1.842912 7:0.198388 8:-0.904681 9:-0.829724 10:0.278200 11:0.738193 12:-2.722120 13:0.423016 14:-1.189750 15:1.873043 16:1.227223 17:-0.331699 18:0.721011 19:0.531953 20:-2.189864 21:-0.912307 22:-0.835194 23:0.832858 24:-0.515010 25:0.894416 26:0.257412 27:0.252654 28:0.247971 29:0.004248 30:-0.399203 31:-2.078099 32:-0.051545 33:-1.124215 34:0.043998 35:0.389663 36:-0.841464 37:1.551815 38:-1.019782 39:0.843477 40:-0.674537 41:0.109312 42:-0.908688 43:-0.668983 44:1.067305 45:0.486021 46:0.049232 47:1.292738 48:-1.786728 49:-0.267872 50:0.108668 51:1.125496 52:-1.267517 53:0.201985 54:0.484431 55:1.447762 56:-0.319317 57:-0.226876 58:-0.433536 59:0.719257 60:0.903900 61:0.189161 62:0.283600 63:1.545224 64:0.428378 65:-0.565804
-1 1:0.362105 2:-1.364139 3:-0.855519 4:-0.699125 5:0.373005 6:0.538957 7:0.107011 8:-0.610504 9:0.308697 10:-0.443741 11:0.293455 12:-0.085672 13:-0.764872 14:-0.016926 15:-0.800121 16:-1.190448 17:0.599152 18:0.384514 19:-0.581593 20:-0.020464 21:0.869606 22:0.013601 23:0.769684 24:0.564527 25:-0.529046 26:0.721216 27:0.729437 28:1.510586 29:0.762323 30:1.636883 31:-0.139584 32:0.991809 33:1.290742 34:-0.013453 35:-0.397239 36:-0.066723 37:-0.358645 38:-1.113341 39:0.663705 40:-0.850632 41:0.122372 42:-2.150857 43:0.020943 44:-0.999713 45:1.277661 46:0.031223 47:0.500051 48:0.706281 49:-0.114931 50:-1.139566 51:0.194995 52:-0.108144 53:-0.584813 54:-0.847363 55:-0.299354 56:0.225041 57:1.766296 58:-0.220821 59:-0.846390 60:0.047712 61:0.238051 62:0.628699 63:-0.624462 64:0.428477 65:0.356435
-1 1:0.062822 2:-0.229681 3:-0.289069 4:-0.043479 5:-1.985344 6:1.460164 7:-0.688177 8:1.263038 9:0.381699 10:-1.319706 11:-0.462713 12:0.013953 13:0.688291 14:0.753782 15:-0.668836 16:-0.237179 17:-1.099019 18:0.546188 19:1.842081 20:-1.438471 21:-0.400855 22:-1.687406 23:-0.984510 24:-0.069712 25:1.130134 26:-2.515975 27:-0.118614 28:1.304996 29:-0.663723 30:0.354750 31:1.121077 32:0.720257 33:0.388760 34:-0.059824 35:0.224442 36:-0.461747 37:0.205284 38:-1.272332 39:-0.052684 40:1.372085 41:-0.964025 42:-0.385227 43:0.033662 44:-0.729284 45:-0.820830 46:-0.628472 47:2.350946 48:-1.820296 49:0.388154 50:0.268335 51:0.634184 52:-0.582548 53:0.258987 54:-0.660473 55:-0.940658 56:0.930380 57:-0.539091 58:0.531378 59:-1.445327 60:0.691497 61:-0.934903 62:-1.056897 63:0.366805 64:-0.192841 65:0.313526
-1 1:1.502634 2:0.860329 3:-0.373422 4:0.109114 5:-0.026980 6:-0.958295 7:0.251501 8:0.173086 9:-0.472888 10:1.671858 11:-1.562051 12:-0.281768 13:-0.519862 14:0.132738 15:0.465319 16:-0.429154 17:0.125348 18:1.913113 19:0.204766 20:0.459317 21:-1.121141 22:0.889331 23:-2.031472 24:1.719517 25:0.142791 26:1.076069 27:0.572010 28:0.018984 29:0.822037 30:1.348391 31:0.867530 32:0.433989 33:-0.379508 34:0.541512 35:-1.975600 36:1.506138 37:0.378403 38:-0.981420 39:0.971312 40:-1.853568 41:-1.472494 42:-1.124726 43:0.722839 44:-0.961888 45:0.734358 46:-0.412273 47:1.431589 48:0.220727 49:0.740390 50:-0.096039 51:0.968594 52:0.366734 53:-0.525944 54:2.466968 55:1.857368 56:0.042990 57:-0.289498 58:-0.522283 59:-0.682525 60:0.432420 61:0.368423 62:0.255688 63:-2.002728 64:0.480842 65:-0.753911
-1 1:-0.422853 2:0.098794 3:0.321294 4:-0.554541 5:0.810170 6:0.213340 7:0.992091 8:0.019801 9:0.457910 10:-0.934697 11:-1.186078 12:-0.027594 13:-0.451526 14:-1.718443 15:-0.685995 16:-0.765974 17:-1.072751 18:1.087874 19:-1.016398 20:-0.571993 21:0.969761 22:-0.321967 23:0.200939 24:-1.649796 25:1.024992 26:-1.402192 27:-1.414124 28:2.168083 29:0.359004 30:0.012448 31:1.366082 32:1.235906 33:-1.840610 34:-0.527474 35:0.532591 36:-1.572650 37:1.823263 38:-0.710343 39:1.138331 40:1.357561 41:0.008153 42:0.548626 43:0.869719 44:-2.161699 45:-0.472940 46:1.245504 47:0.860535 48:-0.275537 49:0.739878 50:-0.768447 51:1.628044 52:-1.046328 53:0.210512 54:0.963055 55:1.627988 56:1.883822 57:-0.361677 58:-0.016396 59:-0.294679 60:0.387373 61:-1.326461 62:-0.679199 63:-1.118267 64:-0.667359 65:-0.351742
-1 1:0.026410 2:1.394021 3:-0.847846 4:0.636247 5:-2.718987 6:0.195368 7:-0.169743 8:0.538216 9:0.011947 10:0.001928 11:1.708672 12:0.067862 13:-0.643976 14:0.415643 15:-0.209383 16:1.424225 17:-1.453344 18:-0.071819 19:-0.221182 20:-0.611258 21:-1.507331 22:0.798758 23:0.408871 24:2.398708 25:-1.312035 26:1.280341 27:-0.810402 28:1.003658 29:-0.401099 30:1.981681 31:0.913196 32:0.334204 33:0.157239 34:-0.119977 35:1.108816 36:-1.505299 37:1.044939 38:1.071021 39:-0.509647 40:0.015387 41:-0.025526 42:-0.533224 43:-0.823801 44:0.238257 45:-1.486332 46:0.643475 47:-0.727686 48:-0.478825 49:-1.089666 50:0.349157 51:1.753935 52:2.214412 53:0.409070 54:0.729388 55:-0.956002 56:0.250998 57:1.400576 58:0.435493 59:-0.305245 60:0.454665 61:1.932871 62:1.173327 63:0.995512 64:1.529446 65:-0.042748
-1 1:2.113210 2:-0.313695 3:-1.399444 4:2.147371 5:1.847018 6:-0.771219 7:-0.076136 8:0.192686 9:-0.248577 10:-0.658116 11:0.200262 12:-0.027702 13:0.692702 14:0.712279 15:0.664228 16:-0.899615 17:0.230219 18:1.532652 19:-1.916871 20:-0.493254 21:0.552978 22:-0.231151 23:-0.363709 24:-0.907813 25:1.170139 26:1.370976 27:0.212963 28:0.279402 29:0.543868 30:0.700550 31:-0.657457 32:-1.977156 33:-0.495452 34:-1.237704 35:-2.515254 36:0.353957 37:-1.119934 38:-1.338035 39:1.451479 40:-0.068217 41:-1.014194 42:-0.846172 43:0.411803 44:0.333381 45:-0.179851 46:-0.086117 47:-0.510019 48:-0.374893 49:0.244520 50:0.246417 51:-0.427625 52:-1.679941 53:0.489167 54:-2.049848 55:-0.713671 56:1.286947 57:1.721099 58:-0.799655 59:-0.918215 60:-0.601983 61:-0.738299 62:-1.878530 63:0.960673 64:-1.281405 65:2.107653
-1 1:0.915598 2:-2.084807 3:2.831954 4:-1.142625 5:-0.170914 6:0.346201 7:-1.411689 8:0.610569 9:0.687651 10:1.238006 11:0.383384 12:-0.037681 13:-0.475625 14:-0.585809 15:1.266124 16:1.336232 17:1.029345 18:0.473905 19:1.151143 20:-0.223314 21:-0.227772 22:-1.995663 23:0.031431 24:-1.600443 25:-0.001500 26:-1.078777 27:1.361891 28:-1.923393 29:-0.720287 30:0.360919 31:0.931368 32:0.891776 33:0.218240 34:0.485647 35:0.081655 36:-0.352491 37:-0.462889 38:-0.091573 39:-0.522521 40:-0.696587 41:1.079703 42:-0.116544 43:0.699572 44:-0.201478 45:0.827015 46:0.103312 47:0.570303 48:0.881265 49:-1.581946 50:-0.405077 51:0.527874 52:-0.043901 53:1.416890 54:1.294602 55:-0.177483 56:1.393189 57:-0.916788 58:1.276643 59:0.016441 60:-1.065216 61:-0.118452 62:0.370383 63:0.230368 64:1.047603 65:-0.510158
-1 1:0.134347 2:-1.194549 3:0.385117 4:-1.079126 5:1.100376 6:1.268151 7:-0.284831 8:0.661852 9:0.352507 10:-0.140288 11:-1.045235 12:0.326954 13:-0.318259 14:-1.105166 15:0.168442 16:0.398449 17:0.908594 18:0.798181 19:-0.711942 20:0.989097 21:-0.139817 22:-0.861109 23:-0.038529 24:0.940830 25:-0.588239 26:0.491893 27:1.019949 28:0.833758 29:0.628529 30:2.012852 31:0.133264 32:-0.018221 33:-1.222161 34:0.160451 35:-0.275963 36:0.459164 37:-0.094787 38:0.394952 39:-0.398960 40:1.352226 41:1.087929 42:-1.333441 43:-1.457828 44:0.718200 45:-1.315529 46:0.960063 47:2.204864 48:-1.025242 49:-0.069963 50:-1.139448 51:0.109027 52:0.727492 53:0.809174 54:0.767317 55:0.896634 56:0.671084 57:0.526662 58:0.038295 59:-1.251816 60:1.721336 61:-1.019349 62:0.077960 63:-0.246920 64:-1.056216 65:-1.278083
-1 1:-0.239927 2:-1.815004 3:0.110383 4:-0.250456 5:1.199717 6:0.035392 7:-1.749575 8:0.069858 9:-0.266729 10:-0.215191 11:-0.451324 12:-0.973534 13:0.844131 14:-0.882722 15:0.178017 16:-1.556690 17:-2.551962 18:0.315168 19:1.337462 20:0.315491 21:0.619241 22:0.165393 23:-0.954118 24:-0.017194 25:-0.194822 26:-0.344888 27:0.583324 28:0.165681 29:-0.056092 30:0.440343 31:0.388276 32:-1.687654 33:-0.702123 34:-0.631283 35:-1.174331 36:0.431003 37:0.711220 38:-0.935781 39:-0.799641 40:2.461448 41:-1.967943 42:-2.690141 43:0.190748 44:0.369201 45:-0.155320 46:-1.030928 47:-1.352305 48:-0.501982 49:0.465094 50:0.719043 51:1.018656 52:0.664607 53:0.346627 54:1.033768 55:0.150526 56:1.790776 57:-0.140530 58:-0.438377 59:1.209488 60:0.012254 61:0.683950 62:-0.702573 63:-0.384593 64:-0.313089 65:-1.355788
-1 1:-1.679321 2:0.541912 3:-1.201350 4:0.024530 5:-0.363015 6:-0.839873 7:0.464719 8:-3.195629 9:-0.570240 10:0.708554 11:-0.914213 12:0.819076 13:0.133315 14:1.911738 15:-0.298165 16:1.874236 17:0.224546 18:-0.987125 19:-2.599357 20:2.353394 21:-0.664233 22:0.164087 23:-0.097520 24:1.386555 25:0.384395 26:0.122398 27:0.763537 28:-0.055421 29:0.905285 30:-0.207446 31:-0.169270 32:1.162857 33:1.337083 34:1.268365 35:-1.029356 36:-0.574788 37:0.736762 38:0.552335 39:0.254483 40:-0.787898 41:1.788107 42:0.108882 43:-0.341027 44:-0.727401 45:0.205370 46:2.142050 47:0.270972 48:-1.011301 49:1.332777 50:-0.366896 51:0.401392 52:-0.302169 53:-0.528188 54:-0.348044 55:0.866479 56:0.275280 57:0.929133 58:-1.175681 59:-0.512789 60:-0.749180 61:-1.716307 62:0.403987 63:-0.695761 64:0.016989 65:0.537880
-1 1:-1.660382 2:-0.774901 3:0.189600 4:-0.009710 5:0.890079 6:-1.807938 7:-1.537103 8:0.162901 9:1.695773 10:-1.944424 11:-1.202737 12:-0.315014 13:-0.095095 14:-2.105258 15:0.415989 16:-1.131229 17:-1.167748 18:-0.298236 19:0.508654 20:-0.612362 21:-0.162966 22:-2.231630 23:0.750104 24:-1.037054 25:-1.833226 26:2.082946 27:0.352380 28:0.501247 29:-0.607249 30:-2.156721 31:-0.801862 32:0.742492 33:0.982910 34:-1.244789 35:0.924998 36:1.916639 37:-0.567403 38:0.917044 39:0.238117 40:0.951690 41:-0.024647 42:1.050505 43:0.744624 44:-0.487777 45:0.207704 46:0.072823 47:-0.142161 48:-1.351666 49:-1.094803 50:-0.413274 51:0.900529 52:0.248620 53:0.642835 54:0.947350 55:0.954864 56:0.189483 57:0.849865 58:-0.782197 59:-0.929289 60:-0.447142 61:-0.852253 62:0.741970 63:0.610115 64:1.483197 65:-0.223892
-1 1:1.182129 2:-0.650024 3:0.098289 4:-1.008040 5:-1.436016 6:0.473580 7:-0.431998 8:0.464660 9:-0.870089 10:1.203521 11:1.274812 12:0.208068 13:1.356023 14:0.037729 15:0.761504 16:2.634460 17:0.177465 18:-0.128721 19:-1.162555 20:-1.100222 21:-0.330915 22:-0.813338 23:0.140465 24:-0.197696 25:0.369656 26:-0.702824 27:0.199807 28:0.210560 29:-2.204030 30:1.035740 31:0.816887 32:-0.739486 33:-1.050068 34:-1.292477 35:-1.067136 36:0.070193 37:0.893733 38:0.773215 39:0.163929 40:1.615584 41:-0.155913 42:-0.475828 43:-0.161980 44:0.398562 45:-2.065379 46:0.649200 47:0.398615 48:0.489443 49:0.142344 50:1.571813 51:0.529165 52:1.737089 53:-0.131129 54:-1.187841 55:1.683721 56:2.119979 57:1.692934 58:-0.462034 59:0.132968 60:-1.078862 61:-0.754346 62:-0.463658 63:0.583744 64:0.011255 65:-1.056494
-1 1:-0.201953 2:-1.149939 3:0.085610 4:-0.812255 5:1.138699 6:0.784677 7:-0.372989 8:0.133833 9:1.095167 10:-0.485028 11:-1.462724 12:0.082625 13:2.143662 14:-0.839568 15:-1.097599 16:0.898391 17:-1.665247 18:-1.421253 19:0.890730 20:-0.098719 21:-2.328053 22:1.408364 23:1.405943 24:-0.193814 25:0.046170 26:0.015782 27:0.717465 28:0.014724 29:0.488901 30:0.237228 31:-1.650529 32:-0.258764 33:1.191893 34:-0.813123 35:0.755096 36:-1.331163 37:-0.385347 38:-1.150296 39:-1.040486 40:2.103656 41:0.307018 42:0.676382 43:1.216368 44:-1.545593 45:0.938390 46:-0.481048 47:-0.939662 48:0.469065 49:1.024245 50:1.037759 51:-0.199596 52:0.534561 53:0.148658 54:-1.011695 55:2.953609 56:0.562666 57:0.155021 58:-1.146142 59:0.627017 60:-0.390225 61:-0.433630 62:-1.824903 63:-0.740317 64:0.199538 65:0.182008
-1 1:-1.349124 2:-0.124848 3:-1.083599 4:0.723190 5:0.411289 6:0.908734 7:-1.058411 8:1.590432 9:-0.970744 10:0.933731 11:3.225394 12:0.319317 13:0.807737 14:0.078294 15:-0.649608 16:-0.930422 17:1.068934 18:0.264227 19:1.835907 20:0.513699 21:-0.756856 22:1.561789 23:-0.354168 24:-0.393373 25:-0.392142 26:-1.394857 27:-0.377003 28:0.706574 29:0.930071 30:0.393927 31:-1.510527 32:1.897069 33:-0.868908 34:-0.090071 35:-0.514940 36:1.107946 37:0.398364 38:0.795817 39:0.847820 40:0.431891 41:-1.864384 42:1.528094 43:-0.539285 44:1.206362 45:-0.286615 46:-0.425628 47:-0.395089 48:0.263535 49:3.134257 50:-0.286810 51:0.689822 52:-0.390963 53:1.132082 54:0.864286 55:1.895547 56:1.914294 57:0.754098 58:-0.485739 59:0.223340 60:0.580788 61:-1.352466 62:0.138650 63:-1.345435 64:-0.955518 65:0.005928
-1 1:-0.389724 2:-1.042875 3:-1.580816 4:1.657047 5:-0.215167 6:0.396025 7:1.420804 8:2.225070 9:0.729599 10:1.420673 11:-1.273063 12:0.097427 13:-1.086304 14:0.049856 15:0.537174 16:-0.245295 17:-0.772199 18:-1.104359 19:-1.010564 20:0.052385 21:-1.132895 22:0.785673 23:-0.201737 24:0.042760 25:0.270530 26:-1.316333 27:1.341688 28:1.157785 29:0.013918 30:0.716532 31:-0.921291 32:-0.041994 33:1.313724 34:-0.999298 35:1.052249 36:0.076544 37:0.036009 38:-0.184428 39:-1.609856 40:1.704399 41:-1.078176 42:-0.473906 43:1.304340 44:0.292619 45:-0.119759 46:0.245758 47:-0.422425 48:-0.403255 49:1.338071 50:0.271917 51:-0.121409 52:0.466986 53:-0.575636 54:-1.816044 55:-2.266929 56:0.372695 57:-0.038383 58:-1.820144 59:1.055543 60:0.004224 61:1.424455 62:-2.021602 63:0.219878 64:-0.356799 65:-0.727543
-1 1:-0.249851 2:-0.048880 3:-2.067104 4:-1.345193 5:0.758664 6:-0.513107 7:-0.791327 8:0.984506 9:1.725861 10:0.184923 11:-1.222476 12:-0.701700 13:-0.225269 14:0.424566 15:0.063925 16:0.073935 17:0.596754 18:-1.077649 19:1.161543 20:-0.137430 21:0.107699 22:0.481754 23:0.247008 24:0.964849 25:0.639592 26:1.276462 27:1.121333 28:-0.931477 29:-1.215112 30:0.808085 31:0.335060 32:-0.722622 33:-0.120997 34:-1.690967 35:1.234552 36:0.711626 37:1.008439 38:-1.136343 39:-0.255043 40:1.207488 41:-0.416392 42:0.925270 43:0.536873 44:-0.902218 45:1.274759 46:0.606727 47:-1.708726 48:-2.140609 49:1.578781 50:1.085977 51:2.558374 52:-0.601766 53:0.639702 54:-0.406758 55:0.675796 56:-0.571149 57:-2.920233 58:0.105883 59:1.283521 60:0.768392 61:-0.202593 62:-0.597425 63:-0.394934 64:0.502384 65:-0.826184
-1 1:0.303511 2:-1.479529 3:0.926207 4:0.144150 5:1.417425 6:-0.647909 7:1.029015 8:-0.949657 9:-0.230992 10:1.107725 11:0.485189 12:-0.628248 13:1.493511 14:0.869729 15:0.068331 16:-1.155097 17:1.125144 18:0.735146 19:-1.581047 20:0.143088 21:-0.883306 22:-0.379175 23:0.722362 24:-1.084597 25:-0.589063 26:0.282662 27:1.091783 28:-0.203252 29:0.097429 30:-0.525844 31:1.103029 32:1.100401 33:-0.038509 34:-0.578020 35:-0.987897 36:-0.147069 37:-1.120882 38:1.343927 39:-1.505628 40:-1.413440 41:-0.059550 42:-1.425395 43:0.749881 44:-0.582733 45:0.012913 46:-2.769117 47:0.310999 48:0.748559 49:1.484143 50:-1.234656 51:0.605283 52:0.569506 53:-0.960006 54:0.794627 55:-1.508108 56:0.113626 57:1.996278 58:0.635550 59:-0.552559 60:2.143263 61:1.106335 62:-0.205240 63:-0.503628 64:-0.218876 65:2.413639
-1 1:0.617777 2:-0.091755 3:1.163445 4:-1.117965 5:-0.686767 6:0.002726 7:-0.029972 8:-1.049820 9:0.966663 10:0.160684 11:-0.982047 12:0.388591 13:0.657779 14:-0.003002 15:-0.395439 16:-0.005906 17:0.276818 18:-1.577087 19:-0.297443 20:-1.042372 21:-1.415504 22:0.387191 23:0.000525 24:0.073950 25:0.996947 26:-1.148239 27:-0.340297 28:1.836583 29:0.420546 30:1.351788 31:0.883629 32:0.853933 33:0.349804 34:1.266924 35:-0.255625 36:-1.465141 37:0.963470 38:-2.054239 39:0.764524 40:-0.556876 41:-0.826267 42:-2.588388 43:0.456847 44:0.740662 45:-0.295407 46:0.234649 47:0.633852 48:0.021815 49:-1.935866 50:1.171897 51:1.300074 52:1.610082 53:0.333020 54:0.302765 55:0.219165 56:1.099236 57:-1.675023 58:0.642147 59:-1.160041 60:-0.156579 61:0.726803 62:-0.231749 63:0.520382 64:0.045292 65:1.941744
-1 1:-1.945293 2:-1.405111 3:-0.729557 4:0.236181 5:2.139851 6:0.408596 7:1.256538 8:-1.481101 9:0.791153 10:-0.635618 11:-2.215022 12:-0.738631 13:-1.335539 14:-0.186196 15:0.901057 16:-1.208082 17:-0.811351 18:1.446985 19:-0.056312 20:1.973291 21:0.691512 22:0.918116 23:1.382341 24:3.018722 25:1.124040 26:0.518554 27:0.501222 28:-0.305281 29:-0.100520 30:0.310957 31:0.533264 32:-0.983803 33:-0.587351 34:0.348252 35:-0.682137 36:-0.987346 37:1.418618 38:-1.351312 39:0.618244 40:1.145916 41:1.678061 42:-0.344452 43:-1.324364 44:-0.388929 45:-1.651206 46:0.090772 47:-0.984887 48:-2.055206 49:0.859520 50:-0.349722 51:-0.217433 52:0.523340 53:2.348480 54:-0.466019 55:2.744883 56:-0.044282 57:-0.601122 58:0.917063 59:0.215029 60:1.043105 61:-0.513226 62:-0.289805 63:0.445882 64:0.967645 65:1.012229
-1 1:-0.429308 2:0.067213 3:-1.119783 4:-0.047252 5:0.835830 6:0.430963 7:-2.202474 8:0.354722 9:-0.243087 10:-0.843169 11:1.249228 12:0.577027 13:0.381822 14:0.551437 15:-1.484476 16:-0.289903 17:0.654596 18:-1.102574 19:1.092256 20:-0.118781 21:1.072100 22:-0.201412 23:0.678459 24:-0.406467 25:-2.635361 26:-1.771041 27:0.248533 28:-0.322431 29:-1.468715 30:-0.244819 31:-0.528290 32:0.845918 33:-1.730505 34:-0.681690 35:0.249142 36:0.197290 37:-0.840971 38:-0.658086 39:-0.790949 40:-0.137692 41:-0.194682 42:0.187348 43:-1.723001 44:1.659962 45:0.965675 46:-0.072881 47:-0.438926 48:1.692924 49:-0.057701 50:0.653249 51:-0.530801 52:1.020599 53:0.568596 54:0.601814 55:0.224906 56:-1.144891 57:0.549552 58:0.649386 59:1.475928 60:0.009527 61:-0.345098 62:-1.208331 63:1.389115 64:-0.061781 65:-1.596001
-1 1:-0.038618 2:-1.094236 3:-0.516709 4:-1.088943 5:-0.759892 6:0.211375 7:-0.100251 8:0.898368 9:0.320636 10:-0.041082 11:0.952771 12:-0.683893 13:1.038739 14:0.573219 15:-0.420330 16:0.552965 17:-0.036573 18:-0.046755 19:0.560069 20:-0.734736 21:2.680509 22:-0.923459 23:0.587117 24:0.217432 25:-1.245226 26:0.077987 27:0.297344 28:-0.944331 29:1.029986 30:0.809768 31:-1.470979 32:2.994476 33:0.304449 34:0.332110 35:1.462513 36:-0.615652 37:1.516121 38:-0.342310 39:-1.097471 40:-0.509619 41:1.026267 42:0.912915 43:2.037759 44:-2.145510 45:0.566385 46:0.226560 47:0.211960 48:-1.025642 49:-1.801397 50:-0.489182 51:1.063329 52:1.456792 53:3.137255 54:0.682963 55:1.011242 56:-0.328112 57:1.050289 58:0.989108 59:-0.289744 60:-1.101983 61:0.073179 62:0.372672 63:-0.613518 64:-0.815126 65:1.528672
-1 1:0.824875 2:2.438212 3:0.272631 4:-2.560812 5:1.292927 6:-1.344498 7:-0.196273 8:0.345741 9:-0.071768 10:1.180463 11:1.534356 12:-2.162805 13:1.196644 14:-0.995973 15:-0.569881 16:-0.565489 17:-0.192748 18:-1.801978 19:-0.223092 20:-0.027292 21:0.070884 22:0.562977 23:-1.406208 24:-0.362822 25:0.691173 26:-1.346314 27:-0.850681 28:0.288171 29:1.158962 30:-0.401127 31:-0.006630 32:-0.799874 33:0.190310 34:1.848798 35:0.203690 36:-1.389266 37:1.129030 38:1.350626 39:0.035204 40:0.500857 41:-2.028649 42:-0.500624 43:0.949877 44:0.381013 45:-1.101043 46:-0.138877 47:-0.346077 48:-0.455021 49:-2.120598 50:-1.265002 51:-0.053497 52:1.294002 53:-1.279092 54:2.351011 55:1.179791 56:1.610767 57:0.072055 58:1.912463 59:-0.158977 60:1.941134 61:1.026165 62:-2.194289 63:-0.243483 64:-0.504028 65:0.505368
-1 1:1.124859 2:-0.835347 3:-2.889297 4:2.065784 5:1.533492 6:-0.959847 7:0.298768 8:-0.714585 9:-0.034988 10:-1.304587 11:-0.127165 12:-1.529207 13:-1.894695 14:-1.015676 15:0.805888 16:-1.267144 17:0.611891 18:-0.196375 19:-1.560162 20:0.814627 21:1.283011 22:-1.836366 23:0.108331 24:-1.020478 25:1.008397 26:0.862996 27:-0.178243 28:0.021207 29:1.117058 30:0.120157 31:0.029317 32:-2.514952 33:1.319466 34:1.801805 35:1.431370 36:0.059681 37:-0.501197 38:-0.833955 39:1.860944 40:0.178766 41:-2.033308 42:0.648302 43:1.315804 44:0.127446 45:-0.761234 46:2.076589 47:-0.454838 48:0.052346 49:-1.120176 50:0.122988 51:-0.835303 52:-0.111054 53:-0.010925 54:-0.433157 55:-0.168882 56:-0.548907 57:-0.083480 58:-0.961356 59:0.892265 60:0.959436 61:-2.190435 62:0.969125 63:1.147833 64:0.272442 65:0.242498
-1 1:1.882053 2:-0.030098 3:0.061193 4:-1.682453 5:-0.593015 6:-1.045762 7:0.251302 8:-0.011296 9:0.362635 10:-1.593832 11:0.723160 12:-0.196649 13:-1.339052 14:1.328074 15:1.280463 16:0.015735 17:2.532711 18:-0.390787 19:0.059227 20:1.264989 21:-0.704428 22:-0.324547 23:-0.230554 24:-0.077416 25:1.225891 26:-1.155252 27:0.058962 28:-0.759639 29:-0.278677 30:-1.511547 31:1.087128 32:-1.645967 33:0.819202 34:0.461997 35:-0.521688 36:-0.916249 37:-1.151556 38:-0.177616 39:0.042741 40:1.757767 41:-1.644370 42:-0.042482 43:0.872774 44:-1.094480 45:0.390751 46:0.467622 47:0.580417 48:-0.133111 49:1.627413 50:-0.895620 51:1.592991 52:-1.208829 53:-0.572811 54:-0.009964 55:0.605420 56:0.225244 57:-0.045031 58:1.625463 59:0.334386 60:-2.239027 61:1.717944 62:0.093073 63:1.049028 64:-0.191125 65:-0.370030
-1 1:0.879663 2:-0.268144 3:0.234038 4:-1.902480 5:0.572903 6:1.459999 7:-1.493311 8:0.251265 9:1.009251 10:0.319982 11:-1.433076 12:0.239555 13:0.996585 14:0.258145 15:-0.262270 16:-1.083706 17:0.677153 18:0.160945 19:-1.415056 20:0.790993 21:0.895699 22:0.372426 23:2.502003 24:1.694763 25:0.952342 26:-0.474392 27:1.225756 28:0.056584 29:-0.104262 30:-1.494841 31:0.573785 32:0.529689 33:-0.472188 34:1.936207 35:1.346783 36:0.329480 37:-2.163034 38:2.917475 39:-0.884539 40:-1.151834 41:-0.050454 42:0.069525 43:0.319167 44:0.939740 45:-1.525188 46:0.025988 47:-1.106485 48:0.451407 49:-0.646280 50:0.145385 51:-0.819126 52:2.093871 53:-0.282462 54:0.567550 55:-0.772136 56:0.107465 57:-0.781639 58:1.713574 59:0.269166 60:0.070498 61:-0.299352 62:-0.429727 63:0.955921 64:1.160367 65:-0.240379
-1 1:-0.984215 2:0.990044 3:1.953686 4:-0.691683 5:0.294038 6:-0.144548 7:1.000232 8:0.862166 9:1.409084 10:0.061009 11:-0.840114 12:-0.699371 13:0.470123 14:1.119047 15:0.773635 16:-1.960066 17:-2.267044 18:-0.470986 19:0.462756 20:-1.335851 21:-0.197692 22:-2.194578 23:-3.041582 24:0.106344 25:0.659454 26:1.126834 27:-1.201881 28:0.433000 29:-0.890852 30:0.948212 31:1.514784 32:0.215794 33:0.544987 34:-0.547814 35:-1.590599 36:0.819352 37:1.002735 38:0.771230 39:-0.676958 40:0.413075 41:0.446449 42:-1.472103 43:-1.353493 44:-0.620058 45:-0.735789 46:0.742344 47:-1.001464 48:0.195797 49:0.262157 50:-1.178860 51:0.375023 52:-0.813161 53:0.264891 54:1.616327 55:-0.096577 56:-1.377266 57:-0.620301 58:0.971976 59:-0.671334 60:-0.756869 61:-0.338825 62:0.029046 63:0.098550 64:0.017034 65:-0.524375
-1 1:0.037749 2:-2.445538 3:1.253414 4:0.989237 5:1.327332 6:-0.538781 7:-0.075408 8:-1.479430 9:-0.192586 10:1.757154 11:0.980537 12:-0.331577 13:0.260701 14:0.947513 15:1.622277 16:0.401680 17:0.403975 18:-0.003181 19:-0.594981 20:-0.313082 21:-1.365387 22:1.792620 23:0.293325 24:2.086918 25:1.023837 26:1.414311 27:-1.533237 28:-0.699605 29:1.635304 30:1.205544 31:-0.339264 32:1.132107 33:1.627913 34:-0.940331 35:1.596014 36:0.520652 37:0.290270 38:0.129117 39:-1.213016 40:-0.387213 41:1.431771 42:-0.577016 43:-0.936520 44:-1.252761 45:-1.273962 46:-0.880637 47:0.151543 48:-0.435972 49:-1.951982 50:-1.632024 51:-0.188603 52:-0.689842 53:-1.128717 54:0.165408 55:-1.625711 56:-0.812878 57:-0.717392 58:-0.309241 59:-0.820341 60:0.642109 61:1.643039 62:0.825099 63:-0.424776 64:-0.964954 65:0.049499
-1 1:0.038158 2:-0.208253 3:0.530224 4:-0.377155 5:1.549531 6:-0.316556 7:0.337606 8:0.258948 9:-0.196812 10:1.156979 11:1.406531 12:0.565051 13:-1.732169 14:2.427654 15:-2.486962 16:-2.143584 17:-1.069232 18:1.170209 19:-0.766138 20:0.867606 21:-0.599688 22:0.758635 23:-0.297190 24:-0.202563 25:-0.074579 26:1.614912 27:-0.760054 28:1.691813 29:1.965389 30:0.800492 31:0.001935 32:-0.031470 33:-0.306432 34:0.132029 35:-3.168950 36:-1.502424 37:-0.665341 38:0.775370 39:1.719881 40:-0.880405 41:0.941090 42:-0.381153 43:-0.520479 44:0.426667 45:-1.278418 46:-0.675287 47:-2.666383 48:1.350531 49:-0.339024 50:-0.252222 51:-1.237712 52:-0.886493 53:0.305799 54:-1.317511 55:0.208462 56:0.650624 57:-0.407563 58:0.670623 59:-0.600491 60:-0.531895 61:-0.376835 62:-1.096405 63:-0.399288 64:-0.082289 65:1.141286
-1 1:-0.328350 2:0.912820 3:0.965595 4:0.355300 5:-0.166826 6:-0.787390 7:0.889198 8:1.154851 9:0.796816 10:0.471700 11:1.715222 12:0.089297 13:0.013630 14:-0.213652 15:0.225788 16:0.223978 17:1.306673 18:-0.432649 19:0.597115 20:-0.249140 21:0.783313 22:-1.294802 23:0.156036 24:1.294785 25:1.497063 26:-0.141235 27:-0.126173 28:-0.222336 29:-0.088906 30:-0.726062 31:-0.332042 32:0.726745 33:-0.315585 34:-0.069346 35:-0.106231 36:0.628296 37:0.610065 38:0.826043 39:-0.657673 40:-0.409529 41:0.288603 42:1.246677 43:-0.592305 44:0.485318 45:1.719145 46:1.907202 47:0.269341 48:-0.238690 49:1.647583 50:-0.036071 51:-2.004507 52:-1.592532 53:-1.284535 54:-1.840141 55:-2.248941 56:-1.109392 57:-2.594165 58:0.000937 59:-1.540912 60:-0.501919 61:0.304897 62:1.383033 63:0.684587 64:0.121971 65:-0.324828
-1 1:-1.846945 2:0.538123 3:-0.199252 4:-0.253026 5:0.820833 6:-0.945195 7:1.484806 8:-0.900142 9:-1.372560 10:1.198288 11:-1.061308 12:0.148719 13:0.904245 14:0.228856 15:0.114496 16:0.198958 17:0.122945 18:-0.646306 19:0.979529 20:0.552778 21:-0.445922 22:-1.048913 23:0.294591 24:-2.376640 25:-1.749184 26:-0.268704 27:0.245472 28:-2.589410 29:-1.154169 30:-3.246446 31:-0.249968 32:-0.421696 33:0.004823 34:1.487151 35:-1.088078 36:-1.276554 37:-0.586696 38:0.750147 39:0.009967 40:0.266956 41:1.597079 42:0.114771 43:0.736137 44:1.586778 45:-1.088137 46:-0.398186 47:0.382257 48:-0.180300 49:0.248295 50:-0.807880 51:-0.647704 52:0.270876 53:-0.385484 54:-0.438578 55:-0.581517 56:0.001301 57:0.350394 58:0.274956 59:-0.413333 60:0.184322 61:0.325522 62:1.186707 63:0.628717 64:0.736403 65:1.090568
-1 1:-0.919763 2:-0.418750 3:-0.254404 4:1.200096 5:-0.106334 6:1.296750 7:0.141201 8:0.255710 9:1.511816 10:0.739511 11:-0.674138 12:-1.828320 13:-0.014983 14:0.591881 15:0.675883 16:-1.835923 17:0.005730 18:0.215046 19:0.650846 20:0.195513 21:-0.867361 22:-0.974250 23:0.579643 24:0.413610 25:0.761187 26:-1.076562 27:1.021115 28:0.694612 29:-1.208084 30:1.008638 31:2.383955 32:1.550537 33:0.512315 34:-0.830238 35:0.090257 36:-0.769615 37:-1.216088 38:-0.626125 39:0.091457 40:1.925622 41:-0.300418 42:1.201361 43:-1.834221 44:-1.250118 45:-1.390272 46:0.216391 47:1.219435 48:1.615809 49:-0.249710 50:-2.326997 51:-0.391693 52:-0.387537 53:-0.588603 54:1.060449 55:0.242581 56:0.398092 57:-0.165414 58:0.438034 59:1.075080 60:1.151520 61:0.510872 62:1.483811 63:-0.303387 64:-0.520074 65:-1.662689
-1 1:0.192105 2:0.996976 3:-0.148793 4:-1.707094 5:0.890717 6:-0.049632 7:0.849946 8:0.627612 9:-0.481697 10:0.923454 11:0.110727 12:0.498424 13:0.497071 14:-0.106466 15:0.639885 16:0.934198 17:1.522423 18:-2.733443 19:-2.061529 20:-0.217436 21:1.685403 22:1.396586 23:-1.532429 24:-0.683296 25:-0.311388 26:-1.031944 27:0.165211 28:0.004977 29:-0.409001 30:1.028672 31:-0.009407 32:-1.488260 33:-0.774454 34:-0.800035 35:0.010995 36:0.266218 37:-0.365376 38:0.681623 39:0.634837 40:-0.285021 41:1.551276 42:1.154239 43:-0.326948 44:-0.219326 45:1.302547 46:-0.575750 47:-1.326995 48:-0.988049 49:0.687708 50:-0.514400 51:-0.413628 52:-0.143755 53:-1.207882 54:-0.480824 55:-1.105795 56:0.906978 57:1.401441 58:0.545197 59:-0.236179 60:0.315458 61:-0.669993 62:1.102381 63:0.483033 64:-0.492846 65:0.328197
-1 1:0.490714 2:0.499239 3:1.278240 4:-0.159428 5:0.480016 6:0.065616 7:-1.828900 8:-1.825315 9:-0.172212 10:-0.674180 11:0.946603 12:-1.289854 13:0.483744 14:-0.145037 15:0.848214 16:-0.148005 17:0.185021 18:-0.365566 19:-1.726806 20:-0.013777 21:2.431190 22:1.789583 23:-1.459064 24:0.680261 25:-0.601733 26:-1.270953 27:-0.690319 28:1.359612 29:-0.413822 30:1.048944 31:-0.993379 32:-1.712635 33:-0.267417 34:-0.161764 35:-0.729076 36:-0.312346 37:1.339864 38:0.561454 39:1.064052 40:-0.961399 41:1.146817 42:-1.238150 43:0.459832 44:-0.416534 45:-0.547807 46:1.411516 47:0.532408 48:-0.274982 49:1.015033 50:-1.483159 51:-0.578034 52:0.243872 53:-0.267955 54:1.000566 55:-0.560178 56:-0.198111 57:0.511854 58:-1.157165 59:-0.206117 60:0.439512 61:-1.338884 62:-0.631331 63:-0.967810 64:-0.109246 65:0.307141
-1 1:0.902639 2:0.332639 3:1.250683 4:2.224159 5:0.451954 6:-1.723294 7:0.024093 8:-0.731640 9:-0.356133 10:0.807377 11:0.550199 12:-0.236481 13:0.717238 14:-0.109499 15:1.642573 16:-0.579442 17:0.424491 18:-0.017046 19:0.024250 20:-0.493821 21:0.094311 22:-0.062094 23:1.649374 24:1.499822 25:1.374582 26:-0.424660 27:-1.761310 28:-0.632888 29:-0.294605 30:-1.549210 31:-2.004321 32:-1.363290 33:-0.152887 34:1.566914 35:1.116075 36:0.421820 37:-1.598172 38:-0.924992 39:2.262412 40:-0.225692 41:-0.818436 42:-0.319707 43:0.187941 44:-0.864834 45:0.675296 46:1.001890 47:-0.568059 48:-0.912740 49:1.443391 50:-0.092283 51:0.730483 52:1.538655 53:0.128455 54:2.529972 55:0.966236 56:-0.964833 57:-2.358570 58:0.167906 59:-0.432051 60:0.498174 61:-0.379865 62:-0.813589 63:-0.499617 64:0.354025 65:-0.063979
-1 1:-1.052658 2:-0.559964 3:-0.656797 4:1.049082 5:1.522007 6:1.073877 7:0.561547 8:0.707329 9:1.323006 10:-0.821123 11:0.530271 12:1.651593 13:-0.163841 14:1.044969 15:-0.051031 16:-0.113983 17:-1.383040 18:-0.230404 19:1.017582 20:-0.000341 21:-1.490558 22:-0.839610 23:1.678873 24:0.974432 25:1.028728 26:1.658368 27:0.707122 28:-0.495309 29:0.581854 30:-0.055728 31:-0.282023 32:-0.567239 33:-0.256611 34:-1.323732 35:-2.378439 36:3.126525 37:-1.007590 38:-0.466680 39:-0.653426 40:1.065906 41:-0.183703 42:0.864230 43:-0.486361 44:0.413517 45:-0.081218 46:0.189479 47:1.790176 48:-0.394373 49:-1.386044 50:-1.421898 51:-0.179654 52:1.215424 53:-0.502059 54:0.253301 55:-0.134888 56:-0.953184 57:1.418988 58:0.135304 59:-1.406243 60:1.459448 61:-0.338694 62:0.629583 63:-0.095161 64:0.550971 65:-0.964405
-1 1:0.689948 2:-0.476756 3:0.998449 4:0.797037 5:-0.314638 6:1.156921 7:-0.189177 8:1.194531 9:1.555184 10:-0.198497 11:0.489135 12:-1.145131 13:2.440275 14:-0.592283 15:-1.298579 16:0.096829 17:-0.751869 18:0.075134 19:0.267410 20:-0.518648 21:0.423436 22:-0.362023 23:-0.923326 24:1.362054 25:0.944009 26:0.420126 27:-1.394996 28:1.256185 29:-1.179867 30:2.609678 31:0.839378 32:-0.175581 33:0.898414 34:0.014476 35:0.492290 36:0.872405 37:0.194292 38:1.507558 39:0.199104 40:-0.070001 41:1.665470 42:-0.782908 43:-0.179368 44:-0.614601 45:-0.364958 46:-0.919017 47:0.953267 48:0.976371 49:-0.234511 50:-0.411000 51:-0.685994 52:-0.272182 53:1.836410 54:-1.302460 55:0.706177 56:0.035234 57:-0.538110 58:2.269975 59:1.166541 60:-0.292098 61:-0.468263 62:1.369299 63:0.633880 64:-1.704682 65:-0.746526
-1 1:1.187683 2:-0.741022 3:-0.781085 4:-1.096160 5:-1.153158 6:0.415297 7:-0.342875 8:0.554033 9:1.041013 10:0.922748 11:-0.347935 12:-0.370389 13:-1.517980 14:0.960108 15:-0.868915 16:-1.544251 17:0.562421 18:-2.023676 19:0.469960 20:-0.742246 21:0.039367 22:1.704902 23:0.180617 24:1.530518 25:0.226869 26:0.039224 27:-0.353723 28:1.966568 29:0.152114 30:0.778283 31:-0.350614 32:-0.457731 33:-0.838852 34:-0.820691 35:1.149563 36:-1.160970 37:0.914704 38:0.292669 39:-0.577289 40:-1.820175 41:0.626360 42:-0.644848 43:0.086979 44:-0.093938 45:1.019249 46:-1.329380 47:1.234656 48:-2.159960 49:-0.402254 50:1.079002 51:-1.241832 52:1.496176 53:0.048341 54:-0.744311 55:-0.317312 56:0.710909 57:0.675697 58:0.083830 59:0.146689 60:-0.943971 61:-1.115304 62:-1.000149 63:0.114523 64:0.309397 65:0.309077
-1 1:-0.120008 2:-1.441303 3:0.270358 4:-0.503866 5:-0.955488 6:-0.519739 7:0.886259 8:0.410939 9:-0.744281 10:-0.044866 11:0.663565 12:0.120372 13:2.269318 14:1.971522 15:-0.583187 16:0.687195 17:0.673053 18:2.550977 19:-0.692745 20:-1.201033 21:0.989374 22:0.714259 23:0.957828 24:-0.104431 25:0.158766 26:0.408030 27:1.903645 28:1.277282 29:0.150663 30:-0.718283 31:1.757804 32:0.739293 33:-0.292432 34:-0.081133 35:-1.491049 36:-0.196828 37:-1.464604 38:0.427729 39:-0.752791 40:0.982288 41:-2.303605 42:-0.940343 43:-1.205059 44:-0.060357 45:0.395880 46:0.771015 47:-0.860972 48:-1.903735 49:-0.482954 50:0.239636 51:-0.500999 52:-0.563646 53:-0.015027 54:-0.915592 55:-0.049945 56:0.266289 57:-0.567394 58:-0.099361 59:0.462722 60:-0.588989 61:-0.423612 62:2.955467 63:-0.852856 64:-0.570134 65:0.589827
-1 1:-0.937011 2:0.941630 3:0.231655 4:0.076621 5:0.288975 6:-0.227379 7:1.087869 8:1.535496 9:-0.288455 10:-0.134545 11:0.771427 12:1.205566 13:0.239998 14:-1.099975 15:-1.172650 16:2.020102 17:-1.076269 18:-0.467127 19:-0.253278 20:-0.919557 21:-1.827558 22:0.404560 23:0.048676 24:0.822274 25:1.189449 26:0.500906 27:-0.635152 28:-1.611990 29:-0.469374 30:2.375102 31:1.094322 32:-0.177855 33:0.241993 34:-1.895490 35:-0.940288 36:0.130346 37:0.013038 38:-0.598215 39:-1.367921 40:-0.939701 41:1.406542 42:0.696581 43:0.626641 44:-1.215199 45:0.928775 46:-1.341534 47:-1.364898 48:-0.112864 49:-0.123992 50:-1.448978 51:-1.189074 52:0.401029 53:-1.310610 54:-1.735990 55:0.840186 56:-0.310469 57:1.849502 58:-1.169113 59:0.208118 60:-0.449946 61:-0.803290 62:-1.631683 63:0.673556 64:1.112920 65:-0.626067
-1 1:0.238162 2:-1.614890 3:-0.175369 4:-0.867905 5:-0.197162 6:1.521719 7:1.840933 8:1.767959 9:0.756985 10:0.283993 11:-0.341055 12:-0.184866 13:0.961116 14:-0.672985 15:-1.410339 16:0.244788 17:0.292068 18:0.149008 19:2.469440 20:-0.116726 21:-1.757136 22:-0.806739 23:2.166190 24:-0.440248 25:0.321610 26:-1.280887 27:0.947077 28:0.888722 29:-0.608143 30:-0.434590 31:-0.876760 32:-0.692287 33:-2.725550 34:1.001818 35:0.832935 36:-0.619799 37:-1.712039 38:0.200596 39:-1.258181 40:-1.034800 41:-1.291144 42:0.043338 43:-1.098108 44:0.501735 45:-0.592483 46:-0.303346 47:1.932663 48:0.003639 49:0.751370 50:-0.009759 51:0.147987 52:-1.985131 53:-0.317473 54:1.835164 55:0.417890 56:-0.893655 57:-0.894641 58:-0.319699 59:0.051235 60:-1.323228 61:-1.206486 62:-0.700412 63:-0.509189 64:0.548424 65:1.828774
-1 1:0.965130 2:1.515571 3:-2.121196 4:-0.031033 5:-0.931667 6:0.051163 7:0.211306 8:0.192088 9:0.845195 10:-2.401521 11:-1.171680 12:-0.216735 13:-0.527982 14:0.122130 15:-0.096081 16:-1.516355 17:-1.717820 18:-0.026140 19:0.922733 20:1.275687 21:-0.546934 22:-0.022650 23:-2.382507 24:1.044360 25:-1.315633 26:0.604151 27:-1.128131 28:-0.214898 29:-0.562188 30:1.150590 31:0.464260 32:-2.107714 33:0.320617 34:-0.948070 35:0.389843 36:-0.600507 37:-0.452446 38:-1.571952 39:0.285701 40:0.648620 41:1.062035 42:-0.738195 43:-0.295423 44:0.441761 45:0.322993 46:-1.700874 47:0.307549 48:1.354798 49:0.592164 50:-2.287083 51:-0.599706 52:-0.721962 53:0.202944 54:0.500121 55:-0.814661 56:0.250362 57:-0.250985 58:-0.468135 59:-0.611049 60:-1.106568 61:-2.769019 62:1.414388 63:0.648072 64:-0.507148 65:-1.257780
-1 1:1.130798 2:1.144178 3:-1.058433 4:-0.801792 5:-0.562151 6:0.715541 7:-1.622423 8:0.655502 9:2.463758 10:-2.157713 11:-1.088108 12:1.259621 13:-0.734279 14:0.276535 15:1.106408 16:0.985751 17:-1.109666 18:0.667007 19:-0.698368 20:1.036824 21:-1.704552 22:-1.673895 23:0.944593 24:0.192130 25:-0.199778 26:-0.728882 27:0.352070 28:-1.104311 29:-2.192541 30:-1.090310 31:-0.862305 32:1.981607 33:-0.820547 34:2.511502 35:-0.121409 36:1.707895 37:-0.235704 38:2.161969 39:1.783735 40:0.429299 41:-0.263507 42:0.230650 43:1.034032 44:0.941118 45:-0.291375 46:1.205606 47:-0.682186 48:-0.210029 49:-0.689412 50:-0.073142 51:0.229128 52:0.461934 53:1.036515 54:0.427952 55:0.320907 56:-1.427459 57:1.800189 58:0.688308 59:-0.582712 60:-1.317934 61:0.511074 62:0.955875 63:0.358227 64:0.694052 65:1.544699
-1 1:0.752388 2:-0.517576 3:-0.222473 4:-0.164887 5:-1.270403 6:0.489608 7:-0.116554 8:-0.144479 9:0.270256 10:-2.121028 11:-1.413956 12:-0.785516 13:-0.489810 14:-0.629302 15:1.670492 16:-0.915811 17:-0.703974 18:0.952476 19:-1.220554 20:-1.001992 21:0.040633 22:0.200890 23:-1.611398 24:0.251855 25:-0.086341 26:1.499606 27:-0.756761 28:2.601722 29:0.853489 30:0.118048 31:1.276883 32:0.557280 33:-1.022197 34:1.807349 35:0.184642 36:-0.080769 37:-0.933240 38:0.445832 39:1.044087 40:-2.118647 41:-0.395055 42:0.919679 43:0.478870 44:1.084288 45:0.495386 46:-0.705291 47:-0.171965 48:-0.653887 49:1.309284 50:-1.382048 51:0.870799 52:0.486307 53:0.982131 54:1.482272 55:-1.241434 56:0.618712 57:0.646552 58:0.604012 59:0.013871 60:0.302115 61:-0.892877 62:0.823793 63:-0.086430 64:-0.971377 65:-0.680395
-1 1:-2.709791 2:-0.653175 3:-0.439031 4:-1.881756 5:0.460683 6:-1.605594 7:0.059158 8:0.692405 9:1.353307 10:0.639350 11:0.006691 12:0.263920 13:-0.003546 14:-0.657997 15:-0.051447 16:-0.408746 17:-0.578655 18:0.071703 19:-2.017419 20:0.242574 21:0.162049 22:0.404871 23:-1.450560 24:0.188531 25:0.401196 26:1.742221 27:-0.745688 28:0.315397 29:0.333458 30:-1.222111 31:-0.597492 32:-0.933014 33:-1.190948 34:-1.779806 35:0.126615 36:-0.350637 37:-0.375232 38:-0.075274 39:-1.581660 40:0.371966 41:-0.180095 42:-0.795774 43:0.619910 44:1.656429 45:0.419282 46:-0.420504 47:0.166626 48:-0.118811 49:-0.127155 50:0.192362 51:-1.102027 52:-0.585439 53:0.437129 54:-2.502642 55:0.589972 56:0.701833 57:-0.032976 58:0.770005 59:-1.090167 60:0.309171 61:-1.520914 62:-0.815055 63:0.034133 64:-0.470260 65:1.430593
-1 1:0.276229 2:-0.712842 3:-0.111114 4:1.638273 5:1.480038 6:1.055460 7:-0.046168 8:-0.063326 9:1.771657 10:-0.136505 11:0.113445 12:-1.801020 13:-2.584843 14:0.035322 15:-0.754029 16:0.984217 17:-1.020642 18:-1.421265 19:0.545053 20:1.613646 21:-0.070925 22:-0.895311 23:1.655984 24:-0.262386 25:-0.028539 26:0.313788 27:1.349666 28:0.505178 29:0.683136 30:0.598332 31:-1.509817 32:-0.714789 33:-1.085577 34:-0.193606 35:1.413113 36:-1.312051 37:-1.743112 38:0.723308 39:0.938706 40:-0.866618 41:-0.635247 42:1.686503 43:-0.088616 44:0.661101 45:0.578579 46:-0.146151 47:0.806420 48:-0.563132 49:-0.142472 50:-1.471585 51:-1.450467 52:1.914781 53:1.127407 54:0.250469 55:-0.115250 56:0.369663 57:-0.285701 58:-0.787205 59:0.754056 60:-2.497032 61:-0.324101 62:-1.107623 63:-0.248563 64:1.601438 65:-1.381410
-1 1:2.715863 2:-0.172334 3:-0.736876 4:-0.501122 5:0.163586 6:0.072185 7:-0.203581 8:1.085287 9:-0.078865 10:-0.254702 11:-0.649331 12:0.932569 13:-1.295082 14:1.326819 15:1.332804 16:0.680210 17:0.201595 18:-0.046860 19:2.342498 20:-0.876187 21:-0.385901 22:-1.279598 23:1.184593 24:-1.285526 25:-0.082074 26:-1.558487 27:-1.427646 28:1.261103 29:0.839682 30:-0.669442 31:-1.863576 32:-0.412332 33:-1.596759 34:-0.734174 35:0.099452 36:0.639935 37:-0.173298 38:0.348956 39:-0.126569 40:-0.247260 41:1.861041 42:0.633609 43:0.751382 44:0.654096 45:-0.218377 46:0.135780 47:-0.415704 48:-1.338649 49:0.202593 50:-0.127956 51:0.199148 52:0.284582 53:-0.033320 54:-1.669711 55:-0.296513 56:-2.160385 57:-0.914980 58:0.223003 59:0.956787 60:1.491621 61:-2.343495 62:-0.647494 63:-1.686401 64:1.898718 65:0.820105
-1 1:0.424114 2:-1.137977 3:-0.442829 4:-0.452274 5:0.755268 6:-1.845787 7:-0.619568 8:1.041715 9:0.235397 10:-0.556869 11:0.391887 12:-0.645271 13:-0.837200 14:0.195882 15:0.018606 16:1.222305 17:1.668562 18:-0.709913 19:-0.081851 20:0.334110 21:0.326325 22:-0.524870 23:-0.125733 24:-0.501047 25:0.468756 26:-1.531745 27:-1.129607 28:1.617298 29:0.720339 30:0.272824 31:2.007749 32:-0.735526 33:0.999791 34:0.168751 35:-1.288788 36:-0.162786 37:1.231737 38:-0.883578 39:0.411141 40:0.481590 41:-1.286080 42:-0.373558 43:0.168877 44:-0.842628 45:-1.372025 46:-0.699553 47:1.026058 48:-0.317533 49:-0.526125 50:0.248593 51:-0.461141 52:1.305500 53:0.966822 54:0.051660 55:-1.344887 56:1.995313 57:2.077077 58:2.471517 59:0.437717 60:-0.038443 61:-0.377502 62:0.030711 63:0.086612 64:2.102440 65:0.143901
-1 1:1.346727 2:0.180267 3:1.330109 4:-0.045935 5:-0.456022 6:0.544017 7:0.221230 8:0.400597 9:-0.990986 10:0.233781 11:0.598757 12:-1.783004 13:-0.599044 14:1.838713 15:-0.568525 16:1.870103 17:1.297818 18:-0.091019 19:1.449641 20:-0.680324 21:1.281267 22:0.770835 23:-0.313916 24:-1.408081 25:-0.674626 26:2.167911 27:0.118796 28:-1.056996 29:-1.626665 30:0.680941 31:0.847216 32:-0.543855 33:-0.241028 34:1.255117 35:-0.072962 36:-0.499243 37:1.159569 38:1.545792 39:0.223191 40:-0.547017 41:0.857317 42:0.309491 43:-0.924909 44:-0.353876 45:-0.104388 46:-2.168147 47:2.023750 48:-0.144549 49:2.168895 50:-0.341478 51:-0.083009 52:0.825427 53:-0.073325 54:-0.114672 55:-1.266487 56:0.082631 57:-2.179151 58:0.129519 59:-1.925196 60:-0.090858 61:0.289766 62:-0.722331 63:-0.000019 64:1.006286 65:0.259676
-1 1:-1.831433 2:-2.533909 3:-0.693464 4:-0.101946 5:0.733897 6:-0.802293 7:0.653199 8:-0.397872 9:-1.052972 10:-0.733782 11:0.491274 12:-0.215248 13:-0.278525 14:1.034955 15:0.274924 16:0.178120 17:1.283491 18:0.265974 19:0.643996 20:0.662845 21:0.207108 22:0.546241 23:0.558992 24:0.618094 25:-0.579631 26:0.427721 27:0.745834 28:-1.394516 29:-0.083109 30:-1.081658 31:-0.842847 32:-0.656613 33:0.034547 34:-1.282872 35:-0.288714 36:1.191294 37:-0.678908 38:-1.173101 39:-1.218902 40:-0.220835 41:0.628779 42:0.991155 43:0.998458 44:0.580309 45:0.136938 46:-0.683506 47:-1.046529 48:0.417992 49:-0.374375 50:-1.183866 51:0.458752 52:0.296479 53:0.272729 54:1.593140 55:1.021382 56:-0.643020 57:-0.115086 58:0.553989 59:-0.011906 60:-2.043203 61:-0.944634 62:1.026189 63:-1.211079 64:0.966539 65:-0.663667
-1 1:-1.014939 2:0.170026 3:-1.807743 4:-0.070271 5:-0.318942 6:-2.727819 7:-0.521428 8:0.789111 9:-0.194179 10:0.928222 11:-0.800087 12:0.834341 13:-1.153482 14:-1.685060 15:-0.340387 16:-2.266601 17:0.528690 18:-0.956792 19:-0.974133 20:0.093939 21:-0.277638 22:0.382034 23:-0.714831 24:-1.401157 25:-0.292344 26:0.328979 27:-1.085231 28:-0.200714 29:-1.572546 30:1.724579 31:-2.652317 32:0.274353 33:1.308081 34:0.991718 35:-0.528909 36:0.418734 37:-1.388671 38:-0.948957 39:1.030390 40:0.815494 41:-1.560699 42:2.252205 43:2.046812 44:-1.820730 45:-0.744357 46:1.443914 47:1.259193 48:-0.320413 49:-0.502223 50:-0.870243 51:-0.717300 52:-1.890960 53:0.128379 54:1.630481 55:1.148636 56:-0.529450 57:-0.961144 58:0.349658 59:-2.301791 60:-1.208575 61:0.562596 62:1.616047 63:1.185198 64:0.006865 65:1.667410
-1 1:-1.214166 2:2.010363 3:-0.110579 4:-0.239799 5:-0.425210 6:-0.336056 7:0.169993 8:-0.120846 9:-0.973057 10:1.758621 11:-0.151453 12:-0.662646 13:0.442596 14:0.187640 15:-0.686086 16:0.091251 17:1.982956 18:1.213111 19:-0.095926 20:-0.673268 21:-1.417770 22:-1.297366 23:-0.865082 24:0.626207 25:-0.100821 26:-0.080135 27:1.633048 28:0.893095 29:0.185468 30:0.459577 31:0.012353 32:0.367601 33:0.215103 34:-0.695067 35:-1.557957 36:-0.330961 37:1.793639 38:-0.835630 39:-0.379029 40:-2.859631 41:-1.047187 42:-1.106565 43:-1.093263 44:1.109102 45:-0.031206 46:0.669899 47:0.977820 48:0.727132 49:0.700988 50:-0.316587 51:0.370486 52:0.409440 53:-0.140435 54:1.093274 55:-3.889796 56:0.320818 57:1.170193 58:1.034339 59:-1.444377 60:-0.657098 61:-0.725817 62:-0.162891 63:-0.418568 64:-0.354911 65:2.614331
-1 1:-1.025462 2:0.023621 3:-0.458871 4:2.357554 5:0.553507 6:0.137112 7:-1.289952 8:-0.042427 9:-0.040572 10:-0.268898 11:-1.044223 12:-1.190185 13:0.175063 14:0.937219 15:-0.858375 16:-1.219296 17:-0.168753 18:-0.167876 19:-0.858288 20:-0.741210 21:-0.476541 22:1.608138 23:-0.893176 24:-1.188535 25:0.200855 26:-0.115742 27:-0.754105 28:-0.017544 29:-0.172087 30:-0.928264 31:0.177359 32:-2.143429 33:2.325762 34:-0.619486 35:2.570451 36:-2.833411 37:0.996360 38:-1.070644 39:0.111919 40:-1.422211 41:-0.212062 42:1.442385 43:0.135340 44:1.783824 45:-0.467820 46:-0.416097 47:0.831265 48:-0.294185 49:-0.576490 50:0.087579 51:1.701496 52:0.536900 53:0.330745 54:-0.312856 55:-0.038916 56:-2.350908 57:-0.836763 58:-0.110756 59:-1.248482 60:0.860252 61:-0.057718 62:0.958536 63:-0.703205 64:0.205757 65:1.152453
-1 1:-1.388660 2:1.518450 3:0.480439 4:-1.161980 5:-1.311583 6:0.988225 7:-1.734743 8:-0.141537 9:-1.203281 10:-1.289106 11:-1.469208 12:0.398132 13:0.087094 14:0.107607 15:1.863895 16:0.006643 17:0.796073 18:1.842189 19:-1.712326 20:0.475791 21:-0.447747 22:-0.001059 23:1.412113 24:-0.889954 25:-0.740676 26:-0.366451 27:1.059260 28:-0.566497 29:-0.873861 30:0.357252 31:-0.524696 32:0.910770 33:0.081486 34:0.808092 35:1.511774 36:-1.106756 37:0.532510 38:0.329457 39:-0.147471 40:-0.252447 41:-0.106224 42:0.375813 43:0.542819 44:0.085706 45:-0.129401 46:0.537893 47:-1.649132 48:-0.998419 49:0.099109 50:-0.533538 51:0.667094 52:1.255009 53:-0.545668 54:-2.106477 55:0.322975 56:-1.413394 57:0.437408 58:1.816499 59:1.951341 60:0.895911 61:-0.613302 62:0.562989 63:1.129071 64:0.840767 65:2.058221
-1 1:0.243243 2:-0.782192 3:-0.885331 4:2.362406 5:0.147708 6:-0.485697 7:1.325643 8:-0.505666 9:-0.174159 10:0.108280 11:-0.879065 12:3.041421 13:-0.724763 14:0.620007 15:-0.555997 16:1.243543 17:-1.269432 18:-1.056468 19:-0.343589 20:-1.443143 21:0.000196 22:-0.229953 23:1.683308 24:0.899342 25:-0.853883 26:2.158779 27:-0.582122 28:0.073549 29:0.001084 30:-0.323991 31:-1.305464 32:-0.490153 33:1.212394 34:0.512535 35:0.825179 36:1.051938 37:1.415111 38:1.046024 39:-1.064167 40:-1.921481 41:-0.467143 42:-0.825081 43:-1.000416 44:0.190443 45:-1.186608 46:0.018959 47:0.553858 48:-0.475998 49:-0.111537 50:-1.174596 51:0.095544 52:1.210064 53:-1.212554 54:1.166668 55:0.987704 56:-2.531292 57:-1.942055 58:-0.254778 59:0.226625 60:-1.790990 61:-0.881770 62:-1.268755 63:-0.268644 64:-0.280858 65:-1.301877
-1 1:1.257107 2:1.757269 3:0.207944 4:-0.013210 5:1.657452 6:-0.324739 7:-0.423936 8:-0.464551 9:1.233511 10:0.205179 11:2.101812 12:-0.482957 13:2.201638 14:-0.353433 15:1.450586 16:-0.956931 17:-0.950623 18:-0.501984 19:-1.226072 20:-1.636953 21:-1.094694 22:-0.149859 23:0.345040 24:-0.796688 25:-2.375749 26:0.255157 27:0.634808 28:-2.371165 29:1.202035 30:-0.018575 31:-2.421177 32:0.183386 33:0.512599 34:0.173479 35:-0.138932 36:0.023725 37:3.685613 38:3.861635 39:-1.168323 40:0.763376 41:-0.672521 42:-0.162781 43:0.577955 44:-0.187247 45:1.726599 46:-0.994457 47:-1.087571 48:-0.834293 49:-1.577554 50:0.906080 51:0.348444 52:0.919089 53:-0.579825 54:0.401608 55:0.081711 56:0.180415 57:0.620752 58:-1.168000 59:0.658554 60:-0.235217 61:-1.235666 62:-0.788922 63:-1.101799 64:0.107008 65:0.882939
-1 1:-0.540686 2:-0.242981 3:1.217338 4:-0.327825 5:0.340396 6:-0.775005 7:-0.619867 8:0.731399 9:1.193489 10:2.157029 11:0.285852 12:-0.097400 13:0.082966 14:0.653957 15:0.700986 16:-0.065430 17:-0.126265 18:-1.343014 19:-1.417579 20:-0.056120 21:0.028893 22:-0.087097 23:1.113871 24:-0.167918 25:0.671295 26:0.621665 27:-0.567522 28:0.431608 29:-0.911806 30:0.978707 31:-0.138746 32:0.210954 33:-0.217230 34:0.432495 35:-0.654635 36:-1.710633 37:-1.052167 38:-0.600615 39:-0.261116 40:-0.399565 41:0.611842 42:0.288254 43:-1.026999 44:-2.016801 45:-0.783718 46:1.144522 47:1.066857 48:0.157172 49:-0.087096 50:0.842498 51:-0.436891 52:0.619758 53:-0.323021 54:-1.194161 55:-1.532492 56:0.265114 57:0.348391 58:-0.255351 59:-1.530209 60:0.588386 61:-0.047600 62:0.547478 63:0.485530 64:-0.598202 65:-0.152022
-1 1:0.172004 2:-0.787810 3:-1.013467 4:1.244681 5:0.349874 6:-0.484187 7:-0.575475 8:0.069000 9:0.807908 10:0.196396 11:0.859265 12:0.273801 13:-1.161903 14:-0.743767 15:-0.097486 16:-0.857583 17:1.090503 18:1.634240 19:0.810988 20:-0.428095 21:-0.961100 22:-0.330613 23:-1.235941 24:1.304674 25:0.563702 26:-1.192475 27:0.616981 28:-0.109591 29:-1.617355 30:0.739061 31:0.145834 32:1.044437 33:0.294063 34:-1.567616 35:0.795462 36:-0.825922 37:-0.102239 38:0.140245 39:-1.200921 40:-0.870040 41:0.250800 42:-0.600741 43:-0.268548 44:0.310798 45:0.246182 46:0.861839 47:-1.118211 48:0.706628 49:0.095328 50:1.809727 51:0.142094 52:-0.485535 53:-0.734780 54:2.021951 55:-0.417825 56:-0.019655 57:0.422248 58:-1.035784 59:0.895858 60:-1.076903 61:-0.260651 62:0.970463 63:-0.084351 64:0.186705 65:-0.341151
-1 1:0.401415 2:-0.401746 3:-0.767499 4:-1.255684 5:2.155526 6:1.513546 7:-1.716314 8:-0.456442 9:-0.907625 10:-0.772001 11:1.371303 12:-1.824547 13:-0.266714 14:0.591555 15:2.004291 16:-0.580205 17:-0.331815 18:1.498068 19:0.382920 20:-0.597718 21:-0.684875 22:-0.231786 23:-1.103459 24:0.180509 25:0.596811 26:-0.490716 27:0.933802 28:-1.354453 29:-0.063782 30:0.437350 31:-0.704000 32:-1.033476 33:-1.494568 34:0.250609 35:3.345466 36:1.124112 37:1.708308 38:-2.354732 39:1.041980 40:2.003001 41:-0.694658 42:0.180760 43:-1.412764 44:-2.213525 45:0.854966 46:1.064843 47:-0.929794 48:1.757370 49:-1.221951 50:0.642016 51:1.248164 52:-0.506882 53:0.566125 54:-0.482391 55:1.797561 56:-0.202559 57:0.112990 58:0.421104 59:-1.050539 60:1.412208 61:-0.699235 62:-0.476952 63:0.906721 64:-0.642847 65:-0.089601
-1 1:-0.167986 2:0.617068 3:0.361147 4:-1.293813 5:0.653276 6:-0.529585 7:0.092040 8:-0.503301 9:0.206557 10:-0.851122 11:1.605194 12:-0.671832 13:0.340661 14:-0.088847 15:-2.669878 16:-0.054225 17:1.158084 18:0.407866 19:-0.410948 20:-0.232920 21:-0.473686 22:0.956621 23:0.077168 24:-0.044383 25:-0.139910 26:0.882650 27:-0.141663 28:-0.220691 29:1.129028 30:0.522140 31:-1.686838 32:0.564436 33:-1.671148 34:-0.528602 35:0.509636 36:-1.312167 37:1.116774 38:0.688057 39:-0.961217 40:-1.144240 41:-0.578072 42:-0.764518 43:0.296289 44:-1.029316 45:0.231366 46:0.773152 47:0.021688 48:0.510690 49:-0.911447 50:-0.705271 51:0.271587 52:-1.043557 53:1.412887 54:1.064984 55:-1.330692 56:-1.610531 57:0.043687 58:-1.564815 59:1.477431 60:-0.043631 61:1.188767 62:0.468217 63:1.298100 64:0.317516 65:-0.482737
-1 1:0.569068 2:-1.631556 3:-1.048893 4:-0.080073 5:0.107144 6:0.647744 7:1.042241 8:1.293453 9:0.522160 10:0.753487 11:-1.036218 12:0.111558 13:-0.355900 14:1.731816 15:1.681535 16:0.609892 17:0.256389 18:-0.296615 19:1.513750 20:0.112571 21:-0.130892 22:-0.065614 23:0.554796 24:0.309790 25:-0.678646 26:-0.791943 27:-0.411134 28:0.925256 29:1.126724 30:-0.551817 31:0.394820 32:-0.501621 33:0.204335 34:0.083630 35:-0.934202 36:-0.441413 37:0.610970 38:-0.035869 39:-1.079047 40:-0.114516 41:0.583599 42:-0.139936 43:0.240663 44:-0.746743 45:1.377482 46:-0.316472 47:-0.206993 48:-0.633038 49:-0.156955 50:2.206380 51:1.274063 52:0.978997 53:-0.827469 54:-0.853206 55:-0.416309 56:-1.065175 57:-2.246527 58:-0.162433 59:0.564142 60:-0.358600 61:-0.627848 62:-0.561276 63:0.142737 64:-0.566539 65:0.774888
-1 1:-0.548006 2:0.850672 3:-1.522220 4:-0.647661 5:0.149280 6:0.304124 7:-0.050126 8:1.416918 9:1.739089 10:0.397332 11:0.517139 12:-0.212391 13:0.306079 14:1.578714 15:0.648480 16:-0.483327 17:-1.562841 18:-0.823328 19:-0.554164 20:-0.103154 21:1.037145 22:0.205700 23:-0.783839 24:2.016191 25:0.547966 26:-1.037856 27:1.357322 28:-0.240393 29:-0.569319 30:1.906964 31:1.344479 32:-0.809808 33:0.762590 34:-1.074045 35:1.642485 36:0.110536 37:-1.771763 38:0.724260 39:0.472918 40:0.186916 41:0.077353 42:-1.541729 43:0.619625 44:-1.072734 45:0.132522 46:-0.091685 47:-0.360052 48:-0.999589 49:1.091184 50:1.532355 51:0.632546 52:1.030963 53:-0.399089 54:0.200590 55:1.695004 56:-0.844533 57:0.274561 58:0.127291 59:0.085598 60:-0.376391 61:-0.167606 62:0.205358 63:2.379852 64:-0.886184 65:0.407159
-1 1:-0.836560 2:-0.434408 3:-0.742604 4:1.012348 5:1.437667 6:-0.879827 7:0.499595 8:0.986165 9:0.978066 10:-1.400622 11:1.001325 12:-0.683760 13:-1.422801 14:0.269462 15:0.500993 16:1.043131 17:-0.438379 18:0.419946 19:-0.332840 20:0.203752 21:-0.212658 22:0.424178 23:-1.272686 24:-0.859583 25:0.200571 26:-1.699891 27:-1.323447 28:0.420179 29:1.409913 30:1.144597 31:-0.970938 32:-0.562934 33:-0.871630 34:-0.883396 35:-0.675084 36:-1.152561 37:0.282482 38:0.731603 39:0.307657 40:0.030898 41:1.113486 42:-0.336729 43:1.755147 44:-0.052765 45:1.238464 46:-2.088537 47:0.119089 48:0.612101 49:0.210843 50:0.280998 51:1.036416 52:-1.476474 53:0.757954 54:-1.719644 55:-0.351619 56:0.257475 57:-0.014484 58:-0.479165 59:0.584810 60:1.258807 61:0.503035 62:-1.118025 63:0.255111 64:0.569568 65:1.284556
-1 1:1.043245 2:-0.252070 3:0.104861 4:1.037412 5:1.554523 6:-0.395587 7:-0.068740 8:0.837134 9:-0.668005 10:-0.678214 11:-0.193955 12:1.590442 13:0.212188 14:0.392936 15:0.682098 16:0.210772 17:-1.539772 18:0.149262 19:-0.900564 20:1.168223 21:2.158929 22:0.379026 23:-0.667063 24:-1.742859 25:0.122486 26:1.454101 27:-0.720803 28:-0.183045 29:0.672180 30:0.130718 31:-0.687184 32:0.050199 33:0.876174 34:0.553265 35:0.185982 36:-1.580313 37:-1.148704 38:0.858894 39:1.248877 40:0.280020 41:-0.578038 42:0.288764 43:-0.794933 44:0.857301 45:0.301703 46:-0.974070 47:0.328118 48:-1.302705 49:0.037011 50:1.374463 51:-0.964791 52:-0.541276 53:2.341903 54:-0.480317 55:0.883240 56:0.849727 57:-0.309082 58:0.033278 59:-1.366328 60:0.072680 61:1.541217 62:1.388643 63:0.381313 64:-0.431250 65:-0.267841
-1 1:1.085485 2:1.036310 3:0.580806 4:-0.694636 5:-0.012740 6:0.863825 7:-0.480646 8:1.025446 9:-0.641404 10:-0.134021 11:-0.730902 12:-0.499748 13:0.292481 14:0.414892 15:-1.466428 16:-0.282455 17:0.685873 18:0.430116 19:0.901821 20:-1.684855 21:0.726575 22:-0.589369 23:0.148028 24:-0.088645 25:0.888626 26:-0.992892 27:1.659296 28:0.862949 29:-1.616652 30:1.269784 31:-0.650483 32:0.307172 33:-1.128172 34:-0.157192 35:0.854220 36:-0.724166 37:-1.041287 38:1.168859 39:-0.260499 40:-0.553223 41:1.278349 42:1.102563 43:-0.574240 44:1.031810 45:-0.390338 46:3.320925 47:1.564399 48:0.176490 49:1.112509 50:0.600316 51:-0.374421 52:-0.016251 53:-0.382841 54:-0.843584 55:-0.019479 56:1.382176 57:0.232115 58:0.653638 59:-1.109977 60:-0.032990 61:0.922946 62:-0.194546 63:-0.715006 64:-1.025778 65:-1.884760
-1 1:1.630853 2:-0.247600 3:0.298810 4:0.375187 5:-2.533856 6:0.746855 7:0.211823 8:-0.389535 9:1.549289 10:-1.118079 11:0.908979 12:0.479606 13:1.406000 14:1.608764 15:0.043228 16:-1.024851 17:2.276074 18:-1.030529 19:-0.567214 20:0.484744 21:-0.706598 22:-0.720654 23:-0.545437 24:-0.841739 25:-0.414402 26:0.279772 27:0.662828 28:2.773677 29:0.911542 30:-0.771563 31:0.722709 32:-1.867412 33:0.154560 34:-0.671649 35:0.673257 36:0.293591 37:0.668028 38:-0.483049 39:-0.787510 40:1.141761 41:-0.094018 42:1.220533 43:2.058664 44:0.462488 45:-0.350698 46:-1.600032 47:1.770155 48:-0.192852 49:-1.213068 50:-1.182598 51:-3.139859 52:-0.642159 53:0.054958 54:-0.241769 55:-1.488765 56:1.067244 57:0.743219 58:-1.593611 59:-0.107890 60:0.904169 61:-2.485667 62:-0.790476 63:-1.274146 64:-0.283909 65:0.425119
-1 1:-0.500920 2:1.362212 3:0.521287 4:1.200399 5:-0.117253 6:0.334790 7:-0.726475 8:-0.050324 9:-0.197283 10:-0.141211 11:1.382744 12:0.484155 13:-0.369558 14:0.612203 15:-1.876658 16:-0.200124 17:-0.463721 18:0.951532 19:-0.240593 20:-0.734361 21:0.371904 22:0.548712 23:0.666091 24:-1.081004 25:1.139360 26:-0.588237 27:0.479962 28:1.503840 29:0.344442 30:0.039780 31:0.271219 32:-1.707687 33:1.142070 34:-1.564823 35:-0.142442 36:-0.643949 37:-1.770126 38:0.376191 39:-1.422276 40:-0.656329 41:-1.227625 42:-1.965324 43:-2.092067 44:0.943960 45:-0.839807 46:-0.581230 47:-0.985805 48:-0.210658 49:-0.119168 50:-0.493356 51:2.197837 52:1.078439 53:2.340569 54:0.947064 55:0.600440 56:0.876840 57:0.071157 58:-1.245798 59:2.683618 60:-0.601878 61:1.573837 62:-0.996475 63:0.529608 64:-0.963759 65:-0.299243
-1 1:0.840651 2:0.130884 3:-1.264030 4:-0.205757 5:1.579351 6:-1.706967 7:0.351284 8:-0.227579 9:-0.000174 10:-0.615710 11:-2.258078 12:0.462864 13:-0.406612 14:1.701430 15:0.611345 16:-0.270904 17:0.141218 18:-1.524362 19:0.702787 20:0.127599 21:-1.507667 22:1.357613 23:-0.199343 24:0.031246 25:-1.819587 26:-0.028470 27:0.198779 28:0.078196 29:-0.076630 30:0.225671 31:0.904538 32:-0.412785 33:-0.415346 34:1.429207 35:-1.564564 36:0.683786 37:-0.380579 38:-0.183978 39:-1.300846 40:0.789870 41:-1.338893 42:-0.068686 43:-0.769806 44:1.565413 45:-2.484088 46:0.650825 47:-0.063921 48:0.760737 49:0.426479 50:-0.459915 51:0.098386 52:0.079870 53:0.519453 54:0.629438 55:-0.500201 56:0.238228 57:-1.566887 58:1.166710 59:1.676943 60:-1.140777 61:-0.921819 62:0.635923 63:2.069033 64:-1.425312 65:0.725380
-1 1:0.772748 2:-0.707467 3:0.703986 4:-0.682280 5:-2.189537 6:-0.633796 7:0.952962 8:-0.823449 9:-2.686365 10:0.487047 11:-0.965561 12:-1.873301 13:-1.029454 14:-0.715831 15:-0.064473 16:0.635362 17:-1.567002 18:1.582016 19:2.361326 20:-0.959323 21:-1.108580 22:0.276571 23:-1.554948 24:-2.084585 25:-0.791906 26:-0.008257 27:1.321984 28:0.289413 29:0.297510 30:-3.066430 31:0.564419 32:-0.353787 33:0.448987 34:1.017898 35:1.139007 36:0.701953 37:0.828429 38:2.413559 39:1.174267 40:-0.312343 41:0.854223 42:1.248898 43:0.231775 44:1.540368 45:-1.825859 46:-1.670346 47:-1.622995 48:-1.053854 49:-1.528824 50:1.326775 51:-1.474608 52:-0.491443 53:0.190907 54:-1.450917 55:-1.101573 56:0.842139 57:0.578419 58:0.782360 59:-2.489396 60:-2.148418 61:-0.206002 62:0.259669 63:-0.034626 64:-0.352551 65:0.381862
-1 1:1.149566 2:-0.384183 3:0.894159 4:0.003487 5:0.567643 6:1.569917 7:-0.251443 8:-1.274417 9:2.682327 10:-1.816454 11:0.836829 12:-1.842197 13:0.024502 14:0.899104 15:2.308015 16:0.644243 17:-0.186773 18:0.206984 19:-0.212228 20:-0.245683 21:-0.158909 22:-0.427252 23:-0.252001 24:-1.588119 25:-0.724662 26:0.275693 27:0.176836 28:0.646575 29:0.544822 30:1.055173 31:-0.213899 32:-1.084682 33:-1.283565 34:-1.604872 35:0.773008 36:-0.129528 37:0.268244 38:0.125251 39:-0.488093 40:-0.575238 41:-1.908138 42:-0.391831 43:1.770890 44:0.265590 45:-2.071066 46:0.354215 47:-1.433602 48:0.079214 49:1.818244 50:-1.715388 51:-1.359138 52:-1.010389 53:-1.242292 54:-1.103176 55:-0.078702 56:-1.186602 57:-0.976804 58:-0.735633 59:-0.640969 60:0.974285 61:-0.351044 62:1.968208 63:-0.352418 64:2.014457 65:-0.243882
-1 1:2.226197 2:0.101039 3:-1.458261 4:-0.424195 5:-0.070683 6:-0.628604 7:1.835934 8:-0.291326 9:0.263191 10:-0.689148 11:0.624100 12:-0.756503 13:0.272885 14:-0.399779 15:0.278596 16:-0.596362 17:0.086198 18:-1.264333 19:-0.622046 20:-0.897573 21:-0.730785 22:-0.460814 23:0.976910 24:-0.327451 25:-0.334378 26:-0.504922 27:-0.333930 28:-0.446376 29:-2.147670 30:0.358507 31:0.207951 32:0.318637 33:0.354041 34:0.614085 35:-2.053849 36:-0.687909 37:1.577767 38:-0.295813 39:0.816661 40:-1.009951 41:-2.092096 42:-1.057120 43:-0.838213 44:-0.228887 45:1.938542 46:-0.091937 47:-0.542184 48:-0.810862 49:-0.994724 50:1.316032 51:-0.027987 52:-0.970752 53:-0.646543 54:-1.038679 55:0.513825 56:0.722613 57:1.616175 58:0.010339 59:1.406121 60:-0.032080 61:-1.188724 62:-1.637494 63:0.666338 64:0.461993 65:-2.093316
-1 1:0.497757 2:0.151153 3:1.842849 4:-1.414704 5:-0.907143 6:1.293068 7:-0.334146 8:0.284843 9:1.306977 10:0.491096 11:1.342436 12:0.532167 13:0.035992 14:1.111254 15:1.463174 16:1.618998 17:0.102151 18:-0.486674 19:-0.657139 20:0.814866 21:-0.296913 22:-0.088960 23:0.851313 24:-2.609571 25:0.875400 26:0.506877 27:-0.221674 28:-0.279444 29:-1.016102 30:-0.515983 31:-1.166354 32:0.490759 33:0.291925 34:0.384735 35:0.096771 36:-0.511604 37:0.381018 38:-0.383552 39:0.151452 40:0.820145 41:1.054506 42:0.940770 43:0.224206 44:0.121524 45:0.293302 46:2.263776 47:-1.167791 48:0.066859 49:0.809913 50:-0.570099 51:-0.255531 52:-1.572948 53:1.174784 54:1.022490 55:-1.207751 56:-2.942550 57:1.434687 58:1.915906 59:0.151897 60:-0.941357 61:-0.264086 62:0.041808 63:1.671232 64:-0.174971 65:-0.125501
-1 1:1.172071 2:-1.270466 3:0.629096 4:-0.916097 5:-1.289872 6:-0.104251 7:2.376581 8:0.213852 9:0.768928 10:0.495007 11:-0.107807 12:0.446673 13:-1.874597 14:-0.457807 15:1.689182 16:-0.322199 17:1.658461 18:1.983264 19:-0.186289 20:-2.237130 21:-1.706943 22:-1.007309 23:1.305788 24:-1.838477 25:0.917626 26:0.666353 27:-0.860188 28:0.196517 29:-0.606273 30:0.630367 31:-1.639132 32:0.555334 33:0.208378 34:-1.699442 35:-0.308430 36:0.496110 37:0.712726 38:-0.503540 39:1.038268 40:-0.194227 41:0.253647 42:-0.647070 43:-0.184642 44:-0.807076 45:-0.272157 46:0.483200 47:0.565998 48:0.032601 49:0.227609 50:-0.903349 51:-0.157540 52:0.343808 53:0.931847 54:-0.645442 55:1.414214 56:0.083687 57:0.649185 58:-0.833350 59:-0.765234 60:0.405971 61:1.248665 62:0.549617 63:3.100014 64:-0.629263 65:0.103916
-1 1:-0.937032 2:0.664066 3:1.570553 4:1.402615 5:1.477152 6:-0.129619 7:0.249007 8:0.693046 9:1.068854 10:-0.689153 11:-0.941463 12:0.337507 13:0.773217 14:0.028215 15:-0.330973 16:-0.422174 17:0.612619 18:-0.055006 19:-0.782682 20:-1.319981 21:-0.988806 22:0.473983 23:0.865074 24:-0.529465 25:0.441610 26:1.397688 27:-0.417172 28:0.117948 29:0.596856 30:-1.622272 31:-0.990060 32:0.296196 33:-0.086369 34:0.263744 35:0.726962 36:0.132228 37:0.299657 38:-0.171067 39:-0.146131 40:1.190970 41:0.421515 42:-0.063358 43:-0.411531 44:-1.328268 45:-0.690528 46:1.154031 47:0.585837 48:-0.703023 49:0.028062 50:0.346322 51:0.916713 52:-0.855681 53:-0.026786 54:0.129868 55:0.482380 56:1.364093 57:-0.713462 58:1.287562 59:-0.303011 60:-1.092239 61:0.162117 62:-0.086755 63:-1.139031 64:-1.107110 65:-1.674066
-1 1:0.730470 2:-1.529412 3:-1.380645 4:0.064513 5:-0.190005 6:0.574596 7:0.306254 8:-0.014187 9:1.167209 10:0.267479 11:-0.061129 12:0.416645 13:0.996541 14:-0.604239 15:-0.316658 16:-0.865088 17:0.067992 18:-0.753888 19:1.734077 20:-0.808766 21:0.950161 22:-1.349047 23:-2.207726 24:0.354802 25:-0.366940 26:0.382209 27:1.082260 28:-1.914953 29:0.190247 30:0.475973 31:1.702708 32:0.928282 33:0.458355 34:-0.520766 35:0.682294 36:-1.359152 37:-0.498281 38:-1.212160 39:0.518721 40:-1.157286 41:0.386788 42:-0.820257 43:-0.168838 44:-0.371916 45:0.462161 46:-1.637018 47:0.431900 48:0.648165 49:-0.500090 50:-0.699790 51:0.819576 52:-0.345838 53:-2.039281 54:-1.413753 55:0.022252 56:0.624378 57:1.805476 58:0.680713 59:-0.628970 60:0.002798 61:1.271567 62:0.190013 63:-0.490311 64:-0.735946 65:-0.142337
-1 1:-0.749482 2:1.029814 3:0.191801 4:0.581616 5:-1.344497 6:-0.544180 7:1.513079 8:-0.373705 9:0.290871 10:-0.894793 11:0.791140 12:-0.041582 13:0.623924 14:-0.996677 15:-1.302635 16:0.292324 17:-0.000739 18:0.874922 19:-0.154661 20:-0.466257 21:-0.126748 22:-0.424709 23:0.937318 24:-1.431895 25:1.037415 26:0.497389 27:0.627587 28:0.181343 29:-0.889866 30:2.719244 31:-1.690872 32:-0.287334 33:-2.201253 34:2.210493 35:0.840802 36:1.447391 37:-0.889307 38:-0.723053 39:0.024702 40:1.086121 41:0.089982 42:0.921471 43:0.988558 44:-0.272076 45:-2.172571 46:-0.364856 47:-0.245061 48:0.654884 49:1.238194 50:-1.581402 51:1.695082 52:-0.685500 53:0.375281 54:-2.862934 55:1.650095 56:0.368595 57:0.580140 58:-0.389396 59:-0.433225 60:-0.145894 61:-1.538113 62:-0.987393 63:0.687806 64:-0.721439 65:0.178031
-1 1:0.638978 2:-0.239065 3:-1.160159 4:-1.827573 5:1.162841 6:0.623898 7:-1.269962 8:2.003510 9:1.283436 10:1.162763 11:1.131232 12:0.593527 13:-1.641878 14:-0.023290 15:0.245578 16:0.867043 17:1.274595 18:1.293486 19:0.941240 20:-2.243253 21:-0.856978 22:-0.785219 23:-0.017172 24:-1.335090 25:1.405055 26:-0.685567 27:-0.752418 28:0.146067 29:0.422565 30:1.174047 31:0.169756 32:0.738124 33:-1.823219 34:-0.564540 35:-0.238695 36:1.436969 37:-0.650813 38:0.334928 39:-0.342846 40:0.149150 41:-0.957202 42:0.053887 43:0.856294 44:1.125903 45:-1.378193 46:1.091065 47:-0.968501 48:0.341589 49:-0.112584 50:-1.360883 51:-2.438825 52:-0.405179 53:0.656231 54:0.040957 55:0.273000 56:1.027316 57:0.260722 58:0.389804 59:-2.118621 60:-0.907396 61:-0.671145 62:-0.917482 63:1.504435 64:-0.444533 65:0.480686
-1 1:1.517238 2:0.767645 3:-0.969215 4:-0.241131 5:0.908035 6:-0.334175 7:-0.492192 8:-0.587150 9:-2.020984 10:-0.490882 11:-0.081684 12:-0.317039 13:-1.449305 14:0.439967 15:-1.096050 16:0.238405 17:0.744739 18:0.289034 19:-1.041090 20:0.556518 21:0.335915 22:-0.836987 23:0.474800 24:0.852729 25:-0.472881 26:-0.355461 27:-0.257043 28:-0.446773 29:0.196181 30:0.402603 31:1.739021 32:1.789262 33:1.800107 34:-1.463605 35:0.754493 36:0.492619 37:-1.151818 38:1.024581 39:-1.554897 40:-1.614739 41:-0.161708 42:0.565824 43:0.198667 44:-0.259749 45:0.051490 46:1.466690 47:0.220367 48:-0.114215 49:-0.610311 50:0.413169 51:0.945566 52:0.649023 53:-0.936162 54:1.546892 55:-1.534510 56:0.815074 57:1.110815 58:0.099040 59:0.115827 60:-0.740877 61:0.886782 62:-2.577960 63:0.785653 64:1.173956 65:-0.978052
-1 1:0.181434 2:-0.112652 3:0.845690 4:-0.752605 5:-0.129614 6:0.129648 7:0.439026 8:1.841271 9:0.542600 10:-0.575886 11:-1.024660 12:1.724387 13:1.531299 14:-0.098070 15:-0.380432 16:0.376779 17:0.181638 18:-0.268161 19:1.894091 20:0.844299 21:-1.370142 22:-0.746422 23:0.552855 24:0.437268 25:0.422154 26:-0.871473 27:-1.478389 28:-0.144762 29:1.391632 30:1.002856 31:0.552311 32:-0.363477 33:-0.519168 34:-0.829499 35:-1.641571 36:0.898918 37:0.916076 38:-0.548043 39:0.088890 40:0.302394 41:-0.563034 42:2.277952 43:-0.378006 44:0.848140 45:0.737968 46:0.502737 47:0.515932 48:0.346865 49:-0.466578 50:0.112226 51:-0.036567 52:-1.502789 53:0.472412 54:0.060161 55:-0.045808 56:-0.581031 57:1.147717 58:-0.645538 59:-1.689268 60:0.485204 61:-0.491750 62:0.449282 63:-0.005728 64:0.772120 65:2.626205
-1 1:-1.135037 2:1.181492 3:0.117646 4:-0.976739 5:-0.197722 6:-1.044898 7:-1.850355 8:0.363261 9:1.328638 10:0.207055 11:0.060380 12:0.911668 13:0.165294 14:-1.346319 15:-1.417155 16:-1.845240 17:1.312828 18:-0.098503 19:1.606955 20:1.111812 21:-3.883895 22:-0.934371 23:-1.214610 24:-0.178455 25:-0.392616 26:0.392472 27:-0.208934 28:-1.918721 29:-0.684647 30:-0.250406 31:0.199655 32:0.711312 33:-0.204650 34:-0.988670 35:-2.598543 36:-1.316687 37:-0.282569 38:1.405733 39:-0.648986 40:0.574414 41:-1.622334 42:0.074291 43:-0.492230 44:0.397737 45:-0.499561 46:-0.219036 47:-0.419917 48:-1.548940 49:-0.458577 50:1.967334 51:-0.004974 52:-1.148392 53:0.939889 54:-0.327939 55:-0.358215 56:0.387247 57:1.238959 58:-0.551932 59:0.024399 60:0.825016 61:0.027818 62:-0.049168 63:0.217752 64:-0.756177 65:-1.551153
-1 1:1.343832 2:0.297778 3:-1.256959 4:-0.844748 5:0.426754 6:0.137858 7:-0.476578 8:-1.145283 9:0.489971 10:-0.109357 11:0.151718 12:-1.719222 13:1.205471 14:0.793109 15:0.121467 16:0.003319 17:-0.097675 18:-0.868924 19:0.838348 20:-1.457282 21:0.166618 22:-1.402971 23:0.224444 24:-0.112578 25:-1.368183 26:-0.794730 27:-1.143182 28:-1.078110 29:-0.755203 30:-1.345292 31:0.335540 32:-0.526480 33:-0.882359 34:0.600966 35:1.048538 36:-0.718371 37:-1.171831 38:-0.226130 39:-0.247951 40:0.466779 41:0.255659 42:1.242975 43:0.611298 44:-0.022157 45:0.255426 46:1.922076 47:1.385479 48:0.133037 49:0.714683 50:-0.441166 51:2.248709 52:0.864155 53:-0.576809 54:-1.289247 55:0.649759 56:-0.257047 57:1.411913 58:-0.730198 59:-0.612359 60:-1.375943 61:-0.892171 62:1.383546 63:-0.249236 64:-2.227914 65:-1.234998
-1 1:-0.174657 2:1.415882 3:-0.358219 4:1.623537 5:1.927777 6:-0.820609 7:-0.244725 8:-0.007891 9:-0.680949 10:0.771116 11:0.219464 12:-0.603445 13:-0.790360 14:-2.169707 15:1.641539 16:-0.316888 17:1.584142 18:2.688819 19:-2.107411 20:0.990548 21:-0.668039 22:0.183701 23:-0.617015 24:-0.415914 25:0.671424 26:-0.394510 27:1.483659 28:0.108005 29:-0.299063 30:0.610648 31:-1.244630 32:0.494746 33:-0.962264 34:-0.422237 35:-0.063115 36:-0.158023 37:0.393628 38:-0.344209 39:-0.191379 40:0.188919 41:0.367962 42:-1.145901 43:0.636231 44:0.771286 45:0.236503 46:-0.347724 47:0.654343 48:-0.233097 49:0.781695 50:-0.019873 51:-0.353351 52:0.734201 53:-0.032107 54:-0.244082 55:-1.008851 56:-0.756322 57:-0.500931 58:0.143042 59:0.921366 60:0.974378 61:1.275553 62:0.234417 63:0.062415 64:1.400942 65:-0.340182
-1 1:0.557841 2:-0.041490 3:1.351185 4:-1.044977 5:-1.929175 6:1.796084 7:0.831033 8:-0.140078 9:2.534176 10:-1.112266 11:1.314214 12:0.334451 13:-0.824785 14:-2.029377 15:-0.980061 16:-0.713723 17:0.896172 18:-0.589325 19:-0.392051 20:-1.479028 21:-0.837578 22:1.053811 23:-0.187431 24:1.090827 25:-0.808088 26:-0.111579 27:-0.888625 28:1.117869 29:-0.361317 30:-0.470368 31:-1.719135 32:-2.744448 33:1.131234 34:-1.807385 35:1.887315 36:0.570552 37:0.667220 38:0.314776 39:-1.826592 40:0.218834 41:1.254469 42:0.435083 43:0.976696 44:0.199737 45:1.215630 46:0.636282 47:-1.884230 48:1.380543 49:0.699539 50:-0.877713 51:0.323416 52:1.208730 53:-1.096487 54:1.490242 55:0.275502 56:0.703302 57:0.052170 58:0.845153 59:0.234274 60:-1.332304 61:-1.188255 62:0.998560 63:-1.178980 64:0.125146 65:0.928974
-1 1:-0.268557 2:2.054201 3:0.165434 4:1.388168 5:0.027859 6:0.190302 7:0.210438 8:0.844094 9:-0.421313 10:-1.817125 11:0.780766 12:0.998697 13:0.779944 14:-0.709729 15:0.250058 16:-1.285287 17:-1.570476 18:0.800529 19:-1.344010 20:2.023462 21:-0.522285 22:-1.118998 23:0.156548 24:-0.063002 25:0.488304 26:0.431027 27:1.185068 28:-0.471376 29:0.923026 30:-0.179947 31:-0.687332 32:-0.571878 33:0.291902 34:0.376829 35:-0.328896 36:-0.308772 37:-1.323720 38:1.236688 39:-1.273546 40:-0.812598 41:1.258058 42:-0.050153 43:0.797077 44:1.044475 45:0.206376 46:1.400498 47:0.385025 48:0.780152 49:-0.938889 50:0.676477 51:-2.024434 52:-0.251207 53:-0.945329 54:-0.094919 55:1.322501 56:1.001307 57:-1.131850 58:-0.809424 59:1.245613 60:0.108207 61:1.503806 62:-1.271157 63:-0.522820 64:-1.816499 65:0.359294
-1 1:-0.836624 2:0.769608 3:-1.808231 4:0.437699 5:-1.389262 6:0.561660 7:-1.041744 8:-0.162974 9:0.662972 10:0.946591 11:0.361828 12:0.907844 13:-0.092078 14:-0.375836 15:0.958757 16:0.087301 17:-1.185952 18:-0.786606 19:-0.099562 20:-1.031093 21:1.933995 22:-1.527499 23:0.604963 24:-1.637496 25:0.621933 26:0.904972 27:-2.425640 28:-0.489539 29:0.303881 30:0.922366 31:1.644173 32:-1.200512 33:2.210311 34:1.403504 35:-0.395512 36:-0.428580 37:-1.675148 38:-0.241980 39:0.195377 40:-0.244261 41:-0.319174 42:-0.458007 43:1.245304 44:-1.484478 45:1.328097 46:0.790549 47:0.251304 48:0.546934 49:-0.375527 50:0.061280 51:-1.275626 52:0.239152 53:-0.522042 54:-0.559606 55:-0.675800 56:0.663352 57:-1.932945 58:-0.346803 59:-1.426187 60:-2.748354 61:0.257287 62:0.241113 63:-0.467918 64:0.673250 65:-0.350487
-1 1:-0.561994 2:-1.103064 3:0.460202 4:-0.084029 5:0.609311 6:0.435565 7:2.350711 8:0.387144 9:-1.114610 10:-0.215887 11:-1.072525 12:-0.974870 13:1.471218 14:-0.250230 15:1.143716 16:0.429935 17:-1.047628 18:-0.563563 19:1.202346 20:-0.579372 21:0.334993 22:0.201568 23:0.472995 24:-0.213213 25:1.029661 26:0.506981 27:-0.039156 28:0.083898 29:-1.470634 30:-0.339422 31:-0.119714 32:-1.813596 33:1.323363 34:1.409795 35:-0.783308 36:-0.155981 37:0.818296 38:0.200556 39:-1.335724 40:2.029808 41:0.302668 42:-0.653421 43:-0.004104 44:-0.075811 45:0.062122 46:-1.088092 47:-0.276922 48:-0.130025 49:-1.125775 50:-1.868679 51:-0.568659 52:1.421866 53:0.523911 54:1.110909 55:-0.466928 56:0.703869 57:-0.314001 58:0.253268 59:-0.399539 60:-0.093370 61:-0.670737 62:0.380702 63:0.825002 64:-0.955482 65:-0.670712
-1 1:0.516664 2:-0.101346 3:0.068303 4:-1.997581 5:1.229929 6:-0.459301 7:-0.781800 8:-0.078809 9:1.883541 10:-0.184626 11:0.133508 12:-1.306769 13:-1.186225 14:-1.838690 15:-0.133946 16:1.139567 17:0.890225 18:0.545854 19:-0.312220 20:0.373447 21:-0.210038 22:-0.796720 23:-1.149038 24:1.664758 25:-1.259566 26:0.431936 27:1.363446 28:0.478987 29:-1.053455 30:1.126748 31:1.634812 32:1.197240 33:-1.528263 34:0.654957 35:0.259353 36:-1.260303 37:0.031874 38:-0.546132 39:-0.989593 40:0.525585 41:0.871288 42:0.917454 43:-1.243958 44:0.833994 45:1.322335 46:0.362142 47:0.389146 48:0.994489 49:0.516138 50:0.210623 51:-0.304216 52:-1.935192 53:-2.300269 54:-0.912982 55:-0.563465 56:0.800517 57:0.305872 58:0.120268 59:-1.604046 60:-0.379184 61:-0.841934 62:-0.962466 63:-1.767322 64:-1.420812 65:-2.196627
-1 1:2.232497 2:1.369241 3:1.177375 4:-0.185010 5:0.668317 6:-0.024939 7:-0.179264 8:-0.242502 9:-0.529801 10:2.044325 11:-0.236929 12:-0.216569 13:1.825599 14:2.083786 15:-0.361965 16:-1.149302 17:-0.450792 18:0.104090 19:0.197494 20:0.016810 21:-0.523243 22:-0.341154 23:0.065919 24:-0.604499 25:-0.665364 26:-1.137240 27:-0.373603 28:-0.605304 29:-1.076767 30:1.283837 31:0.590505 32:0.932678 33:-0.947562 34:0.046818 35:0.381119 36:-0.273542 37:0.479979 38:-1.223683 39:0.938758 40:-0.450037 41:-0.615316 42:-1.160996 43:1.465848 44:1.147308 45:0.801802 46:-1.711084 47:0.749266 48:-0.543188 49:0.491823 50:0.458471 51:0.564509 52:-0.215276 53:1.649755 54:0.814369 55:-0.345417 56:0.667419 57:-0.733513 58:1.539945 59:1.406705 60:0.380996 61:0.335189 62:-0.271990 63:-1.389468 64:-1.944521 65:0.093548
-1 1:2.528168 2:-0.798493 3:0.955610 4:0.877945 5:-0.632390 6:0.121001 7:-0.598485 8:0.827891 9:-0.017477 10:0.287165 11:2.371601 12:1.732595 13:0.438423 14:0.227468 15:1.486468 16:1.183265 17:-0.080726 18:-0.498616 19:-0.620982 20:0.156975 21:2.132603 22:0.810802 23:-1.857696 24:-1.561499 25:-0.754100 26:0.691698 27:0.625873 28:1.246056 29:-1.149398 30:1.799735 31:-0.680060 32:0.887464 33:-0.514159 34:-0.585849 35:-0.117078 36:-1.423558 37:-0.088749 38:1.896120 39:-1.297615 40:-0.274694 41:-0.493686 42:0.197790 43:0.266918 44:-1.388231 45:-1.210003 46:1.799624 47:0.106465 48:-0.621182 49:1.506838 50:0.384440 51:-0.111981 52:-0.674112 53:-1.028336 54:0.175436 55:-0.037200 56:-0.270916 57:-0.260511 58:0.546944 59:-0.339282 60:1.169396 61:-0.296417 62:-0.509503 63:0.084191 64:0.204326 65:-1.442460
-1 1:0.562862 2:0.239784 3:-1.068231 4:-0.933763 5:-0.424886 6:-1.017984 7:0.004890 8:-0.973047 9:-0.685651 10:-0.121542 11:0.463879 12:-0.295757 13:0.507736 14:0.867643 15:0.428009 16:0.990624 17:-0.046244 18:0.220185 19:0.421426 20:0.707073 21:0.271693 22:-1.294794 23:-1.229836 24:0.133039 25:0.575721 26:-1.761960 27:-0.791504 28:0.567645 29:1.347584 30:0.631990 31:0.746194 32:0.539443 33:-0.788585 34:-2.199631 35:0.221755 36:-0.012255 37:-0.245791 38:-1.292195 39:0.449147 40:-0.071840 41:-1.553732 42:-1.296908 43:2.570223 44:0.330946 45:0.273382 46:-0.709789 47:-1.475184 48:0.526697 49:-0.812732 50:-0.576970 51:0.348324 52:-0.076767 53:-0.429458 54:0.078806 55:0.454673 56:-0.854905 57:1.705654 58:1.517148 59:0.324352 60:1.522124 61:0.962349 62:1.739851 63:-0.153104 64:-1.648609 65:0.180337
-1 1:-0.399691 2:-0.196051 3:0.721422 4:2.606212 5:-0.506198 6:-1.211449 7:0.685089 8:-1.060910 9:0.356948 10:-1.239962 11:0.744197 12:-1.064210 13:0.865292 14:-0.381551 15:0.316799 16:0.889211 17:-0.226224 18:-0.946602 19:0.444910 20:-0.361667 21:1.539730 22:-1.396024 23:1.284319 24:-1.643344 25:-0.243952 26:1.141318 27:-0.389921 28:0.290092 29:-1.059048 30:-0.015258 31:0.286270 32:1.288714 33:0.424375 34:0.710361 35:-1.019090 36:-0.012348 37:-1.160136 38:-0.406575 39:-0.959276 40:0.359253 41:-2.443658 42:0.370123 43:0.833342 44:-0.271511 45:-0.517919 46:0.777120 47:1.172846 48:0.868977 49:-0.796590 50:0.847341 51:-1.530323 52:1.047071 53:0.607683 54:-0.915230 55:0.014094 56:-0.658220 57:0.959528 58:1.644816 59:-1.116634 60:-1.414778 61:0.423813 62:-2.712104 63:-0.563008 64:-0.240496 65:-1.368779
-1 1:-0.010643 2:-0.787693 3:0.139962 4:1.644213 5:-0.653318 6:0.941854 7:-0.233146 8:-1.445404 9:0.932634 10:0.676431 11:0.146502 12:0.598674 13:0.623471 14:0.697118 15:-0.650913 16:-0.545067 17:-1.029187 18:0.153210 19:0.663011 20:-1.601660 21:1.267433 22:-1.117643 23:0.926414 24:-1.562658 25:1.314066 26:0.061293 27:0.639389 28:-0.105487 29:1.094746 30:0.551940 31:1.593228 32:0.452447 33:1.130804 34:-0.877833 35:-0.437754 36:0.121400 37:0.329408 38:1.891401 39:-1.489597 40:1.358462 41:-3.105699 42:0.730216 43:1.251717 44:-0.163574 45:0.472212 46:-0.214543 47:-1.297535 48:-1.476883 49:-0.160325 50:-1.133642 51:1.443200 52:-2.036827 53:-1.267032 54:0.466206 55:0.422426 56:1.038839 57:0.713895 58:-1.058761 59:0.764186 60:-1.017131 61:0.098163 62:1.391732 63:0.394858 64:-1.121742 65:1.358939
-1 1:0.063040 2:-0.457334 3:-0.379747 4:-0.714825 5:0.294426 6:-0.222811 7:-1.154150 8:0.079422 9:0.929584 10:0.778267 11:0.261185 12:0.211108 13:0.148445 14:-0.885664 15:-0.864187 16:-0.485175 17:1.077858 18:0.389847 19:1.046383 20:0.702431 21:-1.951180 22:0.449631 23:0.268484 24:-1.065628 25:0.160767 26:1.189834 27:1.507579 28:-0.519142 29:-0.764844 30:-0.025788 31:1.007444 32:0.760322 33:-0.213113 34:0.204673 35:-1.514423 36:1.547058 37:-2.249577 38:0.654703 39:0.987485 40:0.581701 41:0.375293 42:1.425127 43:-0.219652 44:-0.760495 45:-0.297492 46:-0.814529 47:-1.829092 48:-0.827887 49:0.665761 50:1.222973 51:0.530699 52:0.682176 53:1.213072 54:0.757636 55:1.386406 56:-0.651197 57:-1.131511 58:-0.284871 59:0.666017 60:0.873564 61:0.591213 62:-0.432390 63:-0.336389 64:-0.207663 65:0.739788
-1 1:-0.509643 2:0.098296 3:-1.841838 4:-0.337956 5:0.690586 6:2.386335 7:4.112480 8:0.809979 9:-0.799734 10:1.005191 11:-0.127139 12:-0.621820 13:-0.053631 14:2.026874 15:-0.458020 16:0.622715 17:-0.257504 18:-0.241576 19:-1.513075 20:0.172747 21:-1.100758 22:-0.358457 23:-1.139073 24:1.465474 25:0.401824 26:1.085900 27:0.715136 28:0.334865 29:1.558012 30:1.085977 31:-2.092389 32:0.495107 33:-0.690171 34:0.049575 35:-0.529522 36:-0.357492 37:-1.086885 38:0.133328 39:-1.904992 40:0.027596 41:-0.954113 42:-0.602032 43:1.269035 44:-0.813591 45:-0.186519 46:-0.123342 47:-1.062352 48:-0.763398 49:0.161533 50:0.565584 51:-0.789489 52:-1.711552 53:-0.210972 54:-0.122038 55:0.611569 56:0.831347 57:-0.941449 58:0.204765 59:1.247164 60:-1.730955 61:-0.219773 62:0.584785 63:-0.045525 64:-0.356570 65:-0.113192
-1 1:0.617344 2:-0.723426 3:1.221754 4:-1.447082 5:-1.205642 6:1.507737 7:1.867206 8:0.093488 9:1.261022 10:-1.078653 11:-0.363153 12:0.503015 13:2.085497 14:-0.524593 15:1.554586 16:0.260686 17:-1.136067 18:0.999598 19:-0.758331 20:-0.156337 21:0.072216 22:0.566729 23:0.316804 24:-1.390330 25:0.296218 26:0.242144 27:1.022715 28:-0.692660 29:-0.176973 30:-0.854492 31:-0.493949 32:1.890417 33:-0.342972 34:-0.414619 35:-0.937460 36:-0.232916 37:0.322026 38:0.021901 39:0.149349 40:0.574932 41:1.550001 42:0.953570 43:-2.059919 44:0.788477 45:-0.141080 46:0.096579 47:1.649293 48:-0.555563 49:0.558351 50:-1.017777 51:-0.386842 52:-1.709721 53:0.113737 54:0.203401 55:1.651042 56:0.192427 57:-0.750684 58:1.278974 59:1.674808 60:1.934523 61:0.028309 62:1.302381 63:-0.704027 64:0.892077 65:2.197939
-1 1:-0.318409 2:0.756466 3:-0.276405 4:0.506936 5:-0.368829 6:-0.853820 7:0.206475 8:0.865284 9:-0.033714 10:0.674642 11:-0.355887 12:-0.087457 13:-1.072160 14:0.808715 15:0.524264 16:0.330485 17:2.182625 18:-0.212500 19:0.226696 20:0.984187 21:0.981055 22:-0.466070 23:0.276133 24:0.447137 25:1.026022 26:-1.082261 27:0.243055 28:0.703789 29:0.990187 30:0.102133 31:-0.141394 32:-0.080588 33:-0.232080 34:-2.339879 35:0.871130 36:-0.624456 37:0.109487 38:0.938222 39:-1.494007 40:0.880775 41:-1.350839 42:0.122072 43:-1.245734 44:-0.168852 45:-1.311202 46:-0.529397 47:-0.155345 48:0.240347 49:-1.244626 50:1.702442 51:2.426730 52:0.944982 53:-0.963783 54:-0.202397 55:0.241738 56:-0.252437 57:0.526483 58:-1.366775 59:-2.296856 60:0.328537 61:-0.557176 62:0.179409 63:0.845221 64:-0.412962 65:0.571888
-1 1:1.592005 2:0.586640 3:0.959365 4:-0.999411 5:-1.204306 6:1.414041 7:-0.771284 8:-0.445758 9:-1.667190 10:0.602603 11:-0.458560 12:-2.769475 13:-2.593676 14:0.982663 15:-0.463503 16:0.152146 17:1.788604 18:-0.033605 19:-0.740481 20:0.110636 21:0.077651 22:-0.545310 23:-1.329437 24:-0.571786 25:-0.599115 26:-1.205156 27:1.203927 28:1.035720 29:-1.218272 30:-0.349064 31:0.358359 32:-1.292041 33:2.195857 34:-0.537120 35:0.678085 36:-0.581890 37:-0.718309 38:-0.152256 39:0.522657 40:1.431726 41:-0.257502 42:-0.075193 43:0.682687 44:0.152907 45:-0.612471 46:-1.184198 47:-0.084230 48:0.486623 49:-0.863542 50:-0.463821 51:0.404390 52:0.080851 53:-0.908246 54:1.727039 55:-1.138784 56:0.721064 57:1.399612 58:-1.905426 59:-0.109414 60:1.346965 61:0.647484 62:-1.604404 63:0.767114 64:1.427918 65:-2.675490
-1 1:0.210613 2:-0.576635 3:0.224666 4:1.198827 5:0.564977 6:-0.390320 7:-0.680027 8:0.537346 9:-1.508367 10:0.847663 11:0.157662 12:-0.212416 13:-1.106894 14:-0.121080 15:0.540544 16:1.116565 17:-0.198781 18:0.197546 19:-2.309979 20:2.456951 21:0.386832 22:1.045525 23:0.847173 24:-2.284486 25:0.975056 26:0.712927 27:0.180785 28:0.564587 29:-0.711610 30:-2.116213 31:-1.160909 32:0.085101 33:1.461533 34:0.179820 35:-0.571440 36:-0.197375 37:-0.098798 38:0.580086 39:0.529622 40:1.565636 41:1.009582 42:0.722700 43:-0.253050 44:0.190087 45:1.765956 46:-0.086303 47:1.042292 48:-0.544373 49:0.418481 50:1.627270 51:-0.952520 52:0.669543 53:-0.030563 54:-0.313551 55:0.767506 56:-0.105970 57:-0.370267 58:-0.228144 59:-0.093224 60:0.220385 61:1.109601 62:-0.299098 63:0.463312 64:-0.291709 65:0.474522
-1 1:-0.123047 2:0.062697 3:0.565087 4:-1.256513 5:-0.635586 6:1.188055 7:0.232037 8:0.221315 9:0.046679 10:-0.437090 11:1.261206 12:0.583396 13:1.477143 14:-0.719190 15:-1.232389 16:-0.884698 17:-1.077361 18:-0.384875 19:2.226283 20:1.267199 21:-0.658081 22:1.237924 23:-0.268197 24:2.078295 25:-0.429274 26:0.236021 27:-0.598458 28:-0.879173 29:2.022605 30:-0.136785 31:0.764579 32:0.548068 33:0.671495 34:0.420803 35:-2.151011 36:0.425704 37:-0.653101 38:-1.573374 39:-1.262857 40:0.877076 41:1.348168 42:-0.734878 43:0.713508 44:1.595288 45:-1.701719 46:-0.177284 47:1.189333 48:1.006967 49:0.019259 50:1.086180 51:-1.042853 52:-0.782793 53:-0.115212 54:-0.543597 55:0.697366 56:-1.258367 57:-1.615359 58:0.357984 59:-0.007338 60:-0.208375 61:0.356528 62:-1.096590 63:0.616616 64:1.261066 65:-0.867036
-1 1:0.173209 2:-0.575624 3:-1.007287 4:0.715991 5:0.044601 6:0.963140 7:0.455173 8:-1.985602 9:-0.017580 10:-0.230722 11:-1.971586 12:-0.336415 13:-1.152090 14:-1.562567 15:0.988374 16:1.034403 17:0.693158 18:1.247841 19:-0.147433 20:-0.779852 21:0.764765 22:-0.477878 23:0.500038 24:-0.317401 25:0.500911 26:1.050404 27:-1.014046 28:-0.205064 29:-0.231460 30:0.087810 31:1.430640 32:0.580144 33:-0.492319 34:1.583104 35:-2.063112 36:-1.977981 37:-0.020959 38:0.430581 39:0.216049 40:0.215437 41:1.198163 42:0.233310 43:0.407799 44:0.522989 45:0.954663 46:0.964303 47:0.721284 48:-0.885194 49:-1.261057 50:-0.161149 51:2.503109 52:-0.323387 53:0.124676 54:0.228253 55:-0.214899 56:1.794292 57:0.960671 58:1.303376 59:0.378659 60:0.158077 61:0.337959 62:0.027143 63:-1.316355 64:0.186152 65:0.398072
-1 1:0.623863 2:0.485144 3:-0.596023 4:0.114738 5:-1.717439 6:0.354398 7:-1.334848 8:0.077855 9:0.057214 10:-0.078328 11:1.438546 12:0.287532 13:1.294556 14:0.299509 15:-0.552591 16:1.643386 17:-0.780842 18:-0.545529 19:-1.124905 20:1.197212 21:-1.751783 22:-1.461962 23:-0.991299 24:-0.692759 25:0.054510 26:-0.674861 27:-0.158302 28:-1.007284 29:1.140976 30:0.713303 31:-0.669488 32:0.750333 33:2.176056 34:0.247149 35:-0.853443 36:-0.456095 37:0.894410 38:-0.305317 39:-0.700428 40:0.565418 41:-0.993348 42:1.375879 43:-0.001503 44:1.182210 45:-2.886677 46:-0.756488 47:-0.120892 48:-0.688637 49:-0.197402 50:-1.448641 51:-0.306471 52:0.811082 53:1.568006 54:-1.226966 55:-0.801007 56:1.023461 57:-0.575482 58:1.030663 59:0.480130 60:-0.878126 61:1.061847 62:0.510269 63:1.262729 64:0.356725 65:0.847990
-1 1:-1.043811 2:0.234307 3:0.669519 4:-1.895833 5:-0.494311 6:-0.670563 7:0.406868 8:-0.126576 9:-0.419733 10:0.005116 11:-0.043188 12:-0.493835 13:-0.776771 14:-1.700544 15:-0.601401 16:0.007737 17:-0.198276 18:-0.783982 19:0.934135 20:1.844048 21:-1.831718 22:1.177824 23:-0.980699 24:0.367744 25:1.188887 26:-0.467572 27:1.213015 28:-0.273444 29:-0.433037 30:-0.361530 31:-1.555833 32:-1.269919 33:-2.500955 34:-1.306568 35:-1.106280 36:0.275481 37:0.377060 38:0.128562 39:0.897407 40:-0.667254 41:-0.789205 42:-1.167050 43:-0.170465 44:0.422863 45:-0.243693 46:-0.032344 47:-0.967444 48:0.021612 49:-0.693472 50:0.183671 51:1.032907 52:-0.081775 53:1.443867 54:0.586951 55:0.253001 56:1.278742 57:0.436387 58:-1.034840 59:-0.863584 60:-0.500432 61:1.880444 62:0.988642 63:0.588083 64:1.080064 65:-0.522164
-1 1:0.236865 2:-0.393298 3:-1.042792 4:-0.667645 5:2.351365 6:0.385034 7:1.007584 8:-1.833338 9:0.144376 10:1.027909 11:-0.096330 12:-0.778647 13:2.345006 14:-0.730426 15:-0.093886 16:0.713378 17:-0.401552 18:-0.561425 19:2.410639 20:0.047670 21:-0.340087 22:0.674379 23:-1.813945 24:1.407790 25:-0.961731 26:1.642128 27:0.320076 28:-0.695787 29:1.452669 30:0.885328 31:-1.693231 32:2.313646 33:0.120073 34:1.258461 35:1.561106 36:-1.571873 37:1.389736 38:1.880926 39:-0.384137 40:1.136354 41:0.109715 42:0.282703 43:-0.497314 44:1.209005 45:-0.923525 46:-0.599074 47:0.118821 48:-0.285957 49:-0.291113 50:-0.905797 51:0.437632 52:0.264061 53:0.213340 54:-0.680175 55:-1.944220 56:-0.829717 57:-1.119626 58:1.085793 59:-1.461962 60:-1.192624 61:0.702089 62:0.966999 63:0.979422 64:-1.340602 65:-0.743779
-1 1:-1.074384 2:0.723685 3:-0.872401 4:0.537703 5:2.053029 6:-0.537139 7:0.101125 8:-0.537544 9:1.840773 10:0.842216 11:0.111225 12:0.229902 13:-0.937937 14:-0.283426 15:-1.080383 16:-0.650954 17:0.383483 18:0.501753 19:-0.445165 20:-0.293065 21:-0.273746 22:0.538955 23:-0.635687 24:0.100571 25:-0.487134 26:-1.367063 27:0.596854 28:-1.917207 29:1.488245 30:-1.109865 31:1.906996 32:0.887295 33:0.304230 34:-0.257584 35:1.105998 36:1.072627 37:-0.231151 38:-0.314790 39:-1.381699 40:0.237140 41:-0.416196 42:1.107666 43:-0.764430 44:-1.518780 45:1.704784 46:0.186853 47:-0.532764 48:0.969401 49:1.488095 50:-0.728046 51:2.604301 52:1.074281 53:0.263575 54:0.457032 55:-3.212075 56:-1.437417 57:-1.465728 58:1.574199 59:2.079336 60:0.227786 61:-0.705164 62:-0.191347 63:-0.750738 64:1.384759 65:0.100996
-1 1:1.080210 2:-0.595660 3:0.128497 4:-0.575189 5:-0.954247 6:0.414333 7:-0.140225 8:-0.005613 9:0.904699 10:-0.280832 11:-0.238031 12:0.118430 13:-1.583074 14:-0.301349 15:-1.005003 16:0.349301 17:-1.295726 18:-0.129623 19:-0.133687 20:0.807255 21:0.755979 22:-1.162752 23:0.789310 24:0.565286 25:0.100102 26:0.333940 27:-1.079981 28:0.808357 29:-1.142187 30:-0.474523 31:0.122195 32:0.645180 33:1.280450 34:1.046544 35:-1.108827 36:-0.228630 37:0.429416 38:0.854088 39:0.292999 40:0.620365 41:-1.169884 42:1.462163 43:-0.661848 44:0.550704 45:-1.055123 46:1.654538 47:-0.013538 48:0.508769 49:0.332270 50:0.025163 51:-1.772762 52:0.814340 53:0.133877 54:0.524192 55:-0.096701 56:0.361299 57:-0.174760 58:-0.878880 59:-0.526552 60:-0.995841 61:-0.371916 62:0.789610 63:-0.789188 64:-0.935847 65:-1.815607
-1 1:0.494669 2:-1.331903 3:-0.151828 4:-0.555782 5:-1.093814 6:-0.653948 7:2.188787 8:-0.904020 9:0.166846 10:0.946391 11:1.503202 12:-0.158222 13:0.382713 14:-0.480160 15:0.428933 16:-1.620184 17:1.428662 18:0.884186 19:0.891542 20:0.077467 21:-1.861502 22:1.644245 23:1.384798 24:0.109373 25:0.914350 26:0.270695 27:-0.388427 28:0.908747 29:2.931418 30:-1.483389 31:0.891538 32:0.213972 33:0.602349 34:-0.531580 35:-0.580445 36:-1.208974 37:1.556944 38:-0.186562 39:0.538495 40:0.380361 41:-0.482502 42:0.504704 43:0.964298 44:-0.798279 45:-0.076717 46:0.332857 47:0.425516 48:1.394917 49:-1.373022 50:-0.384541 51:-0.608592 52:1.537235 53:0.762826 54:-0.352590 55:2.215296 56:-0.207416 57:-0.697393 58:-0.427979 59:-1.894466 60:0.904786 61:-0.391212 62:-0.147839 63:0.621360 64:-0.161695 65:1.410192
-1 1:0.277486 2:0.732570 3:1.160407 4:0.339739 5:-0.040060 6:-0.296088 7:0.229155 8:-0.884960 9:0.565504 10:0.680971 11:-1.686865 12:0.177778 13:1.048950 14:-0.766648 15:-1.033240 16:-1.049580 17:0.729739 18:-0.352155 19:-1.524969 20:1.618785 21:-1.169945 22:1.402559 23:-0.117519 24:-1.302345 25:0.639337 26:0.634407 27:0.284791 28:1.190338 29:-0.798160 30:-0.474264 31:-1.024181 32:-0.391941 33:-1.989952 34:0.113711 35:1.102025 36:-0.796196 37:0.895651 38:-1.301095 39:0.609757 40:0.399735 41:-1.448107 42:-0.275987 43:-1.139870 44:0.519868 45:0.616365 46:0.368915 47:2.676116 48:-0.175416 49:1.239649 50:2.048353 51:-0.340965 52:-1.059199 53:1.143296 54:0.816508 55:0.732220 56:-1.498376 57:-0.126903 58:-0.563295 59:-0.132047 60:-1.233058 61:-1.887440 62:-0.323600 63:-1.321060 64:0.592844 65:-1.388006
-1 1:0.064079 2:2.245143 3:0.716313 4:0.060294 5:-0.316467 6:-2.840347 7:-0.456251 8:0.607942 9:-0.772864 10:-0.683091 11:0.930099 12:-0.506339 13:1.288478 14:-0.147948 15:-0.702509 16:0.540297 17:0.882162 18:-0.735792 19:-1.109921 20:0.314429 21:0.375005 22:-1.073640 23:0.443413 24:1.687298 25:0.268904 26:-0.673797 27:-0.412218 28:0.957423 29:0.976157 30:-0.566766 31:-0.939320 32:-0.578902 33:0.574739 34:0.524401 35:-0.437841 36:1.898895 37:0.167897 38:1.200274 39:-0.172390 40:0.480503 41:0.856672 42:-0.415315 43:-0.433239 44:0.910311 45:-1.226214 46:-0.218118 47:1.579707 48:1.646178 49:0.000236 50:0.744050 51:0.078614 52:0.455097 53:1.764390 54:-1.489707 55:0.859207 56:-0.299729 57:-0.208405 58:1.455857 59:-0.615476 60:-0.393077 61:-1.107590 62:-1.359419 63:0.182983 64:2.514231 65:-0.702814
-1 1:-0.517485 2:-0.297561 3:-0.071321 4:0.060860 5:-0.778561 6:1.049199 7:-0.046423 8:1.410077 9:0.621535 10:-0.259189 11:-1.980771 12:-0.652973 13:2.062581 14:-0.638754 15:-1.171203 16:1.018023 17:1.613217 18:-0.649094 19:-1.849638 20:-1.368287 21:-0.394727 22:0.936659 23:0.817301 24:0.490997 25:-1.286479 26:-0.614844 27:-0.803272 28:0.536766 29:1.123625 30:0.751929 31:-0.397364 32:0.071123 33:-0.234032 34:-0.265205 35:0.176443 36:-0.800365 37:-0.631841 38:-1.014389 39:-0.439965 40:0.257181 41:-0.679647 42:0.150266 43:0.476503 44:0.440216 45:0.046286 46:0.143686 47:-0.986029 48:-2.181294 49:0.201874 50:-0.568773 51:0.422644 52:0.076169 53:0.858562 54:0.250370 55:0.823128 56:-0.799817 57:-0.193349 58:-0.614277 59:-1.198095 60:1.068258 61:-0.175162 62:-0.224365 63:-0.024820 64:-2.532899 65:0.218765
-1 1:1.209354 2:-1.296104 3:0.503269 4:0.299281 5:1.492772 6:-0.646723 7:0.350791 8:-0.126178 9:0.347235 10:1.293100 11:0.639198 12:0.235717 13:-0.934152 14:0.096265 15:0.957582 16:-0.923889 17:1.501854 18:0.701903 19:-1.521762 20:-0.010699 21:0.940218 22:-0.697095 23:0.174834 24:-0.240186 25:-0.179604 26:0.550589 27:0.935678 28:-0.185386 29:-0.199730 30:2.695239 31:-1.755199 32:-1.602189 33:-0.946122 34:-0.790010 35:-0.425730 36:-0.801871 37:-1.332033 38:-0.274958 39:1.377625 40:1.565497 41:-0.546330 42:-1.111920 43:-0.368044 44:-0.441353 45:1.106506 46:1.038952 47:1.119866 48:-0.144676 49:1.320645 50:-1.226528 51:-0.018969 52:0.008284 53:-0.731339 54:-0.827419 55:0.627423 56:1.825409 57:-0.034130 58:0.565746 59:0.889601 60:-1.041157 61:0.868232 62:-1.919194 63:-0.410022 64:0.800338 65:-2.065888
-1 1:0.005468 2:-1.146867 3:-0.974801 4:0.068557 5:-1.123016 6:0.687575 7:-0.396415 8:0.721137 9:1.284471 10:-0.567007 11:-0.840337 12:-0.202056 13:-0.659240 14:0.781539 15:0.644368 16:1.258916 17:0.791872 18:0.331410 19:2.041697 20:-0.306685 21:0.496384 22:-1.115368 23:1.345928 24:0.192847 25:0.215296 26:-2.707775 27:0.538014 28:0.550209 29:-1.163932 30:-0.384338 31:2.368695 32:-1.560406 33:-0.041354 34:1.096654 35:0.139389 36:0.097330 37:0.916794 38:-0.379759 39:-1.391064 40:-2.254153 41:-0.450972 42:0.717530 43:0.618850 44:-0.169624 45:-0.551011 46:-0.788451 47:0.039531 48:-1.362419 49:0.331877 50:-0.593103 51:-0.489117 52:1.678896 53:0.889339 54:1.454920 55:1.202174 56:0.666791 57:0.175211 58:-0.232207 59:-0.730275 60:-0.228185 61:0.243537 62:1.863019 63:-0.593828 64:-1.034739 65:-2.226724
-1 1:-1.339564 2:1.165989 3:1.054456 4:0.411280 5:1.060076 6:0.208151 7:0.461711 8:-0.402257 9:-0.200568 10:0.971981 11:0.293733 12:-1.080120 13:0.603325 14:0.499445 15:-0.824635 16:0.630458 17:-0.950009 18:1.203661 19:0.596433 20:-0.514328 21:0.703064 22:-0.952196 23:1.736954 24:-0.197640 25:-0.895673 26:-0.747187 27:-0.440763 28:0.474309 29:0.147723 30:0.192674 31:-0.108376 32:-0.965444 33:-0.427720 34:-0.280806 35:-1.433143 36:0.936949 37:0.085657 38:-0.460728 39:2.142259 40:0.916005 41:0.152104 42:-0.932015 43:-0.664633 44:1.415600 45:0.430987 46:0.177180 47:-1.502050 48:-1.507544 49:1.184204 50:-0.607949 51:0.258103 52:0.741918 53:-0.186994 54:-1.360437 55:1.312461 56:1.165165 57:-1.038323 58:2.191649 59:-0.026988 60:-0.608452 61:0.905818 62:-0.832639 63:-0.628123 64:0.555053 65:0.400844
-1 1:-0.499646 2:0.842826 3:0.004298 4:-1.238823 5:0.407437 6:0.453094 7:-1.575874 8:-1.144001 9:-2.195496 10:1.076598 11:-0.627810 12:-1.132470 13:0.616951 14:0.618625 15:-0.609418 16:1.555577 17:0.583169 18:-0.520790 19:0.528568 20:-0.102543 21:-1.226955 22:-0.385092 23:-0.201744 24:-0.717194 25:0.900575 26:1.641069 27:0.082896 28:-0.126071 29:-0.711375 30:-0.309618 31:-0.097919 32:-0.141130 33:-0.658760 34:-2.518166 35:0.527368 36:0.929894 37:1.076314 38:-0.994914 39:-0.063732 40:0.554847 41:-0.644471 42:-0.289496 43:-0.104441 44:-0.057482 45:-1.608919 46:-0.620260 47:0.698392 48:0.627586 49:0.980055 50:1.688463 51:0.138907 52:-0.062991 53:-0.176476 54:0.284792 55:1.537620 56:-0.269601 57:0.527677 58:1.888395 59:1.170722 60:-1.009211 61:-0.532852 62:1.328986 63:-0.154547 64:0.726410 65:1.065314
-1 1:-1.064962 2:0.469725 3:0.574513 4:1.590098 5:-0.884603 6:-1.323190 7:1.875844 8:-0.335332 9:0.380659 10:-0.427073 11:-1.863065 12:-2.101326 13:0.051292 14:0.118987 15:-0.538897 16:0.056749 17:-0.390481 18:-0.633952 19:0.603538 20:-0.992282 21:0.413864 22:0.075068 23:-0.345101 24:0.032079 25:1.356251 26:0.756422 27:0.099485 28:0.705238 29:-1.324563 30:1.533755 31:1.103401 32:-1.037762 33:0.344032 34:-1.385835 35:1.544308 36:0.037419 37:0.624926 38:-1.162843 39:-1.477169 40:2.021180 41:-0.005742 42:-2.585294 43:-1.193828 44:-0.227674 45:1.813657 46:1.054607 47:0.420479 48:1.283528 49:0.399352 50:-0.269176 51:-0.246693 52:0.780579 53:-0.383892 54:-0.166546 55:-1.729236 56:0.629350 57:-0.389984 58:-0.036420 59:0.426897 60:-0.381011 61:-0.030165 62:-0.590976 63:1.440652 64:-0.624226 65:-0.274782
-1 1:1.642516 2:-0.030211 3:1.057458 4:-1.934621 5:-0.509726 6:-0.032978 7:-0.758990 8:-1.204137 9:-0.982842 10:0.003049 11:0.799716 12:-1.281508 13:0.001949 14:-0.096729 15:1.394906 16:-0.434292 17:-0.399996 18:-2.266954 19:1.581905 20:0.417579 21:1.079796 22:1.374037 23:-1.292253 24:-0.903920 25:-0.559026 26:0.060845 27:-1.653501 28:-1.711290 29:-1.243059 30:0.114747 31:0.524930 32:1.592825 33:-1.382269 34:0.295019 35:0.260779 36:1.101564 37:-0.844120 38:0.136339 39:0.529749 40:0.204703 41:0.397661 42:-0.284816 43:0.084970 44:0.210214 45:0.359544 46:0.673551 47:-1.184862 48:0.683717 49:-0.003706 50:0.477391 51:-0.292751 52:-1.307188 53:1.291107 54:-0.897724 55:-0.411553 56:-1.079514 57:-0.668074 58:0.826828 59:-0.510393 60:-0.635034 61:-0.663420 62:-1.627671 63:-0.685627 64:-0.478811 65:-0.906482
-1 1:-1.657653 2:-0.142520 3:-0.236253 4:0.146817 5:-0.418622 6:-0.299699 7:0.309894 8:-1.254298 9:1.309303 10:-0.307013 11:-1.194445 12:-1.050382 13:1.580146 14:1.151316 15:-0.232109 16:0.630248 17:-0.720477 18:0.429408 19:-1.072873 20:0.651305 21:0.129163 22:0.498105 23:0.270345 24:-0.245867 25:-0.742957 26:-1.680462 27:-0.144473 28:2.167597 29:1.554819 30:-0.507212 31:-0.340712 32:-0.001694 33:0.271029 34:0.468830 35:-0.501856 36:-0.674774 37:0.141126 38:-0.461211 39:-0.480017 40:0.231406 41:-2.133460 42:-1.396738 43:0.894438 44:-0.564837 45:-1.184000 46:-0.053520 47:0.266241 48:-1.310860 49:-0.222769 50:0.159336 51:-0.104973 52:0.745625 53:1.882074 54:0.733649 55:-1.643332 56:0.813492 57:0.706344 58:-0.609388 59:-0.294268 60:-0.642450 61:-0.466121 62:-0.196702 63:-1.057329 64:-1.393126 65:1.813232
-1 1:0.008887 2:-0.063908 3:-1.231796 4:0.524749 5:0.068587 6:1.161833 7:-0.365508 8:-1.342983 9:0.774559 10:-1.322490 11:-1.408584 12:-1.245639 13:-1.682565 14:-0.212892 15:0.811975 16:0.542653 17:-0.595403 18:0.282715 19:-1.076259 20:0.388668 21:1.887512 22:0.928049 23:0.677526 24:1.253414 25:-2.267718 26:-2.139386 27:0.498557 28:-0.657159 29:0.877781 30:2.214766 31:-0.969596 32:1.350198 33:2.117304 34:0.498387 35:1.540263 36:0.667318 37:-2.438797 38:-0.565621 39:1.148455 40:-0.509748 41:-0.031032 42:0.181116 43:-1.340812 44:2.024348 45:-0.368869 46:-1.173341 47:1.165897 48:-0.861665 49:0.315823 50:-0.181705 51:-1.114061 52:-0.824603 53:-1.026402 54:0.685663 55:-0.078819 56:0.963449 57:-0.714467 58:0.483229 59:0.169779 60:0.159345 61:1.332336 62:0.379527 63:-0.349055 64:0.502184 65:-0.729074
-1 1:1.551838 2:-0.406441 3:1.041444 4:0.031875 5:-0.395771 6:1.181628 7:-0.472573 8:0.609280 9:0.075229 10:0.101663 11:0.938141 12:-1.082515 13:-0.324446 14:-1.875872 15:-1.154166 16:1.559728 17:0.924397 18:-0.401816 19:-0.874093 20:0.133668 21:0.820659 22:-0.717912 23:-0.495727 24:0.845984 25:1.526115 26:0.711850 27:0.753850 28:0.642090 29:0.069015 30:0.535860 31:0.536180 32:-0.587795 33:-0.572765 34:-1.447775 35:0.680630 36:-0.880164 37:0.767967 38:0.102903 39:-0.069573 40:-1.119452 41:-2.197590 42:0.328712 43:0.046820 44:-0.409169 45:-1.595170 46:0.261563 47:0.174018 48:1.402917 49:0.607846 50:-1.937225 51:0.199893 52:0.189368 53:2.851076 54:-0.634278 55:-0.132572 56:1.288057 57:-0.047886 58:0.275300 59:-1.112079 60:0.720434 61:0.332850 62:-0.436801 63:1.054071 64:1.313756 65:1.106052
-1 1:-1.053664 2:-1.371431 3:-1.012739 4:1.666288 5:-0.295997 6:0.392032 7:1.617432 8:1.774161 9:0.484061 10:0.158563 11:-0.500072 12:-1.184071 13:1.799967 14:-1.317084 15:-1.286281 16:0.814807 17:-0.371956 18:-0.930841 19:-1.809333 20:0.407940 21:-1.163165 22:1.019784 23:-0.526381 24:-0.016380 25:-0.417089 26:2.932556 27:-0.868899 28:-0.846716 29:-0.311296 30:-0.256055 31:1.719677 32:-0.941316 33:-0.234471 34:1.720336 35:0.346758 36:0.183872 37:1.257758 38:-1.637236 39:-0.730854 40:0.236880 41:1.003078 42:1.403575 43:-0.121211 44:-0.615583 45:-0.986946 46:0.749832 47:-0.040085 48:-0.230671 49:-0.970690 50:0.456091 51:-0.565061 52:1.194825 53:0.032612 54:0.673629 55:0.694289 56:-0.419117 57:0.868749 58:-1.501695 59:0.395141 60:-0.448447 61:0.023339 62:0.313396 63:0.685957 64:0.775460 65:0.091186
-1 1:0.180474 2:-0.151283 3:0.681565 4:0.035279 5:-0.949284 6:-0.164324 7:-0.211212 8:1.630725 9:0.414963 10:-1.543928 11:0.992628 12:0.717367 13:-1.726448 14:1.377534 15:0.425170 16:-0.681599 17:1.827356 18:0.082658 19:2.364403 20:0.059905 21:-0.882129 22:-1.454781 23:-1.314395 24:1.318773 25:-1.838830 26:0.740426 27:-2.043916 28:-0.037628 29:0.731505 30:0.862863 31:0.213670 32:-0.282785 33:-0.413621 34:-0.886027 35:0.154623 36:-0.198198 37:0.676084 38:-0.535474 39:-1.322131 40:-0.541691 41:1.213337 42:-0.965071 43:-1.800485 44:0.063594 45:-0.858716 46:0.596360 47:-0.267855 48:0.420195 49:0.164334 50:0.091764 51:1.532973 52:-0.153032 53:1.743539 54:0.597296 55:0.834374 56:0.537886 57:-1.312896 58:-0.272447 59:-0.088225 60:0.516557 61:-0.872518 62:0.436125 63:-1.073744 64:0.218471 65:1.538400
-1 1:0.475339 2:-0.829359 3:0.635175 4:-1.304391 5:-0.987586 6:0.229220 7:0.539703 8:-1.427059 9:0.298418 10:1.202039 11:0.518440 12:0.473479 13:-0.067072 14:0.372065 15:-0.272617 16:-0.816196 17:-0.662493 18:-0.439831 19:-0.344415 20:-3.096247 21:0.249579 22:1.842574 23:-0.806394 24:0.482174 25:2.069846 26:-0.385161 27:0.963255 28:2.146439 29:0.819468 30:1.747076 31:1.252968 32:1.268562 33:1.302051 34:-0.669181 35:1.026011 36:2.319573 37:0.489285 38:1.336529 39:1.131101 40:0.775747 41:-1.452960 42:0.129178 43:-1.339171 44:-0.115006 45:-0.413354 46:-1.080137 47:0.897923 48:-1.537029 49:1.098043 50:-1.106203 51:-0.613747 52:-1.300025 53:0.373241 54:0.868589 55:1.384538 56:-0.278962 57:-0.730771 58:-2.006539 59:0.627588 60:0.490657 61:-2.996530 62:-0.360006 63:-0.547170 64:-0.287023 65:-0.965751
-1 1:0.827901 2:0.447414 3:0.266566 4:0.425587 5:-1.037581 6:1.391895 7:-0.305798 8:1.063009 9:-2.204128 10:-1.205095 11:0.349760 12:0.616555 13:1.414070 14:0.218707 15:0.197070 16:-1.239187 17:0.617648 18:0.293974 19:-1.359464 20:0.895291 21:0.854714 22:-0.257764 23:-1.517697 24:0.667043 25:0.503319 26:-0.091878 27:2.103448 28:-0.129596 29:1.418838 30:-1.709605 31:-0.632307 32:0.187526 33:0.023977 34:-0.981601 35:-0.210233 36:-0.532185 37:0.321133 38:-0.914042 39:0.618356 40:-0.982321 41:-0.735073 42:0.994899 43:-0.023504 44:2.019359 45:-0.083307 46:-1.543180 47:-0.250809 48:-0.785911 49:0.330542 50:0.108706 51:-1.260163 52:-0.780831 53:0.470175 54:-1.158631 55:-2.192576 56:0.996229 57:-0.337680 58:-3.190925 59:0.207600 60:-0.660487 61:0.273882 62:-0.103184 63:-0.817717 64:-0.115145 65:-2.803162
-1 1:0.394741 2:-0.894180 3:-2.442335 4:0.311502 5:0.924150 6:0.536671 7:-1.433247 8:-0.499684 9:-2.199823 10:0.899667 11:0.375290 12:0.857066 13:-0.361473 14:-0.163449 15:0.436464 16:0.377365 17:0.474598 18:0.774769 19:-0.638572 20:1.095793 21:-2.301580 22:-0.792723 23:0.086931 24:-0.011730 25:0.885781 26:0.991503 27:-0.650415 28:1.588765 29:0.110624 30:1.341598 31:0.123837 32:1.351438 33:2.936965 34:-0.095098 35:0.866598 36:-0.121915 37:0.476419 38:-1.057573 39:2.724860 40:-0.637569 41:-0.249904 42:0.473391 43:1.292008 44:-1.548246 45:1.830895 46:0.448932 47:-0.133497 48:1.133600 49:-1.781790 50:-0.441865 51:0.796383 52:-0.508581 53:0.719367 54:0.220059 55:0.878643 56:-0.669034 57:0.231239 58:-0.596761 59:-0.489362 60:0.412088 61:-0.588601 62:-0.064723 63:1.307269 64:0.232715 65:1.165731
-1 1:-0.352056 2:0.673888 3:0.031700 4:0.054629 5:1.740913 6:-1.881054 7:0.245023 8:0.330103 9:-0.261334 10:0.319309 11:-3.346887 12:-0.636091 13:-0.316573 14:-0.351720 15:0.521548 16:0.860316 17:-1.421586 18:-0.095896 19:1.432627 20:-1.010620 21:0.653592 22:0.006868 23:0.160697 24:-0.143089 25:0.014252 26:1.019312 27:-0.530097 28:0.179384 29:0.164949 30:-0.799151 31:-0.088530 32:0.051950 33:-0.701690 34:-1.391324 35:0.558434 36:-0.849088 37:-0.176515 38:-0.026054 39:-1.210201 40:0.908777 41:0.332385 42:-0.186654 43:-0.749824 44:0.627216 45:0.674322 46:0.092421 47:0.456858 48:1.060863 49:-0.616545 50:0.881971 51:1.156744 52:-0.742046 53:-0.302380 54:-0.550856 55:0.962568 56:-1.201124 57:-0.336169 58:0.136947 59:0.053410 60:-0.734808 61:-0.288011 62:1.490922 63:2.343138 64:-1.324653 65:-1.386782
-1 1:0.919277 2:0.257883 3:0.072377 4:-0.811280 5:2.063130 6:0.639113 7:-1.145344 8:-1.054265 9:0.782115 10:-1.023019 11:-1.208581 12:-0.012384 13:-1.291131 14:0.939071 15:-0.700956 16:-1.569552 17:-1.404564 18:1.003225 19:-0.227163 20:1.766749 21:0.326254 22:0.461053 23:-1.070448 24:-0.156741 25:0.498450 26:0.255486 27:0.237660 28:-0.127993 29:-0.311011 30:-1.302909 31:0.618997 32:-0.775549 33:-1.066417 34:-1.018315 35:-1.680740 36:-1.179668 37:-0.339883 38:0.207145 39:-0.924689 40:0.320273 41:0.386954 42:0.156330 43:0.224266 44:-1.152208 45:-0.170314 46:-0.874635 47:-1.816467 48:-1.306086 49:2.518900 50:-1.538625 51:0.071817 52:0.124806 53:0.020768 54:-0.207661 55:0.277938 56:-1.215094 57:0.903674 58:-1.408379 59:-0.358041 60:-0.218502 61:-0.297942 62:-1.155870 63:2.159370 64:1.541165 65:-1.233088
-1 1:0.468434 2:-1.771128 3:0.829866 4:-1.665931 5:-0.626741 6:0.971055 7:-2.638787 8:0.830648 9:-1.130139 10:-0.040342 11:-0.018620 12:-0.400924 13:0.493215 14:0.441833 15:0.093442 16:1.175752 17:-1.600374 18:-0.884747 19:0.631066 20:-0.257805 21:-1.072036 22:-0.280745 23:-0.769930 24:-0.190107 25:-0.711367 26:0.608135 27:-0.314321 28:1.222929 29:0.904162 30:-1.585830 31:-1.177108 32:-1.151933 33:-0.853599 34:0.962525 35:-1.250593 36:0.784927 37:-0.136513 38:1.536656 39:0.932615 40:0.509395 41:0.099684 42:-0.154962 43:-0.509096 44:0.736686 45:-0.133355 46:0.833316 47:-1.133496 48:-0.346206 49:-1.241013 50:0.705813 51:-0.198673 52:-0.372112 53:0.127739 54:-0.127781 55:2.573334 56:-0.459016 57:0.833712 58:1.031617 59:-0.917821 60:-0.232035 61:0.108700 62:-0.518513 63:0.904017 64:0.537450 65:0.438494
-1 1:1.692815 2:0.160480 3:-1.660590 4:2.283551 5:-0.692696 6:0.581898 7:0.729859 8:-0.720941 9:-0.199260 10:-2.098289 11:-0.429484 12:-1.305829 13:2.026638 14:-0.401111 15:0.938112 16:-0.582525 17:1.999802 18:1.519562 19:-2.883956 20:0.552036 21:-0.599695 22:-0.831851 23:1.832683 24:0.354097 25:1.715616 26:-0.187721 27:0.418083 28:-0.197032 29:0.675441 30:0.840972 31:-0.766331 32:-0.307490 33:0.143536 34:-1.533624 35:-1.074497 36:-0.471130 37:-0.803527 38:-2.559393 39:1.190422 40:0.637769 41:0.340041 42:-2.417373 43:-0.459642 44:0.542508 45:0.297114 46:1.002027 47:-0.948110 48:-1.080027 49:0.570400 50:-1.301308 51:1.256703 52:0.171683 53:-0.296972 54:0.673049 55:0.436845 56:0.860335 57:-1.696720 58:1.321067 59:-1.400461 60:1.117209 61:-0.351068 62:-0.828241 63:0.160988 64:0.765200 65:-1.155230
-1 1:0.668630 2:0.468441 3:0.172649 4:0.271695 5:-0.436579 6:-0.450394 7:-0.189685 8:-0.095891 9:1.296197 10:1.334938 11:-0.611456 12:-0.441050 13:0.208240 14:2.481454 15:1.776323 16:-0.245659 17:-0.299415 18:-0.350493 19:1.581468 20:0.452013 21:-0.869910 22:0.857927 23:0.858095 24:-0.050068 25:-0.606379 26:0.700210 27:0.127267 28:-1.515334 29:-0.220182 30:-1.022613 31:1.094810 32:2.266633 33:-0.005629 34:2.300850 35:-0.105812 36:-0.113191 37:-0.556354 38:-2.576539 39:2.349639 40:0.977889 41:0.870165 42:-0.182664 43:0.030955 44:-0.751620 45:0.254348 46:0.586508 47:1.563927 48:1.065292 49:0.099587 50:0.385149 51:-0.046231 52:-1.619391 53:0.556588 54:0.579296 55:-0.228132 56:2.740747 57:-1.876590 58:-0.000800 59:1.272235 60:-0.342580 61:1.999836 62:-0.041694 63:0.242024 64:-0.502132 65:0.145310
-1 1:3.264387 2:-0.038806 3:0.420859 4:1.102536 5:-0.411783 6:-0.596555 7:0.745437 8:-0.211824 9:-0.294647 10:-0.938596 11:-0.024277 12:-0.757800 13:-1.311269 14:0.424654 15:-0.459690 16:-0.029724 17:-0.510574 18:-1.261672 19:-0.626203 20:-0.086650 21:-0.051924 22:0.981139 23:-0.059146 24:-0.781851 25:0.486788 26:0.339168 27:-0.205511 28:0.312363 29:-1.422913 30:0.761432 31:0.499586 32:1.210539 33:-0.133088 34:0.572333 35:2.438566 36:-0.457237 37:-0.965360 38:1.378829 39:-0.222239 40:-0.601199 41:-2.064774 42:-0.779769 43:-1.962714 44:-0.973352 45:1.308553 46:-3.174321 47:0.278415 48:-0.229150 49:1.505458 50:-0.548564 51:0.435562 52:-2.466511 53:0.427892 54:-0.043458 55:-1.574639 56:-1.172381 57:-0.487579 58:0.475595 59:0.174513 60:-1.401417 61:-0.321351 62:-1.113760 63:-2.034814 64:0.639026 65:-1.384057
-1 1:-0.180324 2:0.849748 3:0.614843 4:0.987454 5:0.238051 6:-1.664656 7:0.711485 8:-1.449786 9:-1.032487 10:0.116037 11:-0.551804 12:-0.631870 13:-0.640110 14:-0.259391 15:-0.656691 16:0.954365 17:-0.184905 18:0.494171 19:1.553831 20:-0.513494 21:-1.273390 22:-0.941928 23:0.820012 24:-0.494703 25:0.502011 26:-2.008720 27:-1.380380 28:-1.135514 29:0.627898 30:0.254649 31:0.765361 32:0.458577 33:-0.171177 34:-1.113765 35:-0.600912 36:-0.811936 37:-0.014437 38:1.304424 39:0.488716 40:-2.088348 41:-1.673318 42:0.246368 43:-0.697760 44:-0.724026 45:-0.346173 46:0.753424 47:-0.987597 48:0.197876 49:0.585998 50:-0.462212 51:0.805141 52:1.188384 53:1.039225 54:0.349698 55:-1.856047 56:1.059804 57:1.020663 58:0.266774 59:0.609765 60:0.109447 61:-0.482224 62:1.655366 63:0.841220 64:-0.041157 65:-0.883186
-1 1:-1.084625 2:0.449386 3:-1.271725 4:0.166384 5:-1.936001 6:1.024348 7:1.628760 8:-1.595233 9:0.955122 10:1.671665 11:-1.057658 12:1.028509 13:0.858674 14:-0.355815 15:-1.340523 16:0.675189 17:1.537417 18:1.413556 19:0.568356 20:-1.898376 21:-1.369487 22:-0.644694 23:0.443086 24:0.049410 25:2.227452 26:-1.930238 27:-1.223876 28:-0.275521 29:-1.066015 30:0.161303 31:-0.283051 32:0.822706 33:-0.526964 34:1.518071 35:1.065002 36:-0.866987 37:0.433739 38:-0.197551 39:-1.655942 40:-1.941344 41:0.524050 42:-1.659235 43:-1.343711 44:0.684421 45:-0.768260 46:0.775607 47:-1.463365 48:-1.617466 49:-0.068240 50:0.187735 51:-0.020946 52:1.890545 53:-0.876637 54:0.325896 55:0.519094 56:1.291175 57:0.383265 58:-1.264115 59:0.498233 60:0.328151 61:-0.367687 62:0.991665 63:-1.983894 64:-2.032908 65:-1.652131
-1 1:-0.733290 2:0.025201 3:0.077038 4:-0.290398 5:-1.784554 6:-2.273961 7:0.431216 8:-1.199298 9:-0.510338 10:-0.010998 11:-0.114229 12:0.065147 13:-0.554403 14:0.403407 15:0.126403 16:-0.741937 17:1.175565 18:0.297138 19:0.188881 20:1.862485 21:-0.276657 22:-0.210261 23:0.715728 24:0.298587 25:1.853706 26:-0.823019 27:0.570370 28:1.125237 29:-0.669814 30:-1.971709 31:0.005745 32:-2.044233 33:-0.732013 34:0.559225 35:-0.235725 36:0.597852 37:0.801734 38:0.835686 39:1.260498 40:0.891603 41:-0.116574 42:1.710658 43:-1.484070 44:0.429180 45:-0.259547 46:0.693828 47:-0.540622 48:-1.570668 49:1.409260 50:-0.329233 51:-0.344814 52:0.000137 53:0.044056 54:1.756252 55:-1.055817 56:0.709060 57:1.500431 58:1.069197 59:-0.945575 60:-0.300309 61:0.932697 62:0.783433 63:-2.102568 64:1.121188 65:-2.371145
-1 1:-0.450709 2:0.396376 3:-0.400993 4:-0.234085 5:-1.470541 6:-1.709680 7:-0.421291 8:-1.197737 9:-1.606343 10:-1.137972 11:0.298818 12:-0.354045 13:-0.275734 14:0.683362 15:0.421035 16:0.071229 17:-0.715799 18:-0.225182 19:-0.394794 20:0.091486 21:-0.633488 22:0.015494 23:-1.386507 24:-0.778708 25:-0.350824 26:0.957898 27:0.333899 28:1.532378 29:-0.902688 30:0.948124 31:-3.118066 32:-0.425832 33:-1.035774 34:1.149084 35:-0.041603 36:0.480254 37:-0.091895 38:-1.535219 39:0.755964 40:0.136528 41:1.000035 42:0.889599 43:-0.965839 44:1.229832 45:1.155850 46:-0.867051 47:-0.662130 48:-0.087583 49:1.985019 50:0.105105 51:0.225993 52:-0.431413 53:-0.264702 54:-0.411563 55:-1.164083 56:-0.737966 57:-0.548201 58:-1.176781 59:-0.405766 60:0.555115 61:0.004725 62:0.171427 63:-0.252085 64:0.459490 65:0.097846
-1 1:-0.641004 2:-0.080873 3:0.514412 4:-1.136752 5:-0.646278 6:1.789360 7:-0.719342 8:-1.454056 9:2.392142 10:-0.566078 11:-2.061642 12:-0.121513 13:-0.523629 14:0.687252 15:0.094563 16:0.901105 17:-1.107556 18:-0.970489 19:0.074992 20:-0.227230 21:1.757250 22:1.823117 23:0.545226 24:1.930579 25:-0.265764 26:0.837249 27:0.266571 28:1.380006 29:1.100285 30:0.050363 31:-0.182617 32:0.110320 33:-1.179540 34:-0.396263 35:-1.429381 36:-0.789739 37:-0.569694 38:-0.680462 39:-0.543023 40:-1.083605 41:-0.873439 42:0.328431 43:-0.136416 44:-1.110938 45:0.347807 46:0.801954 47:0.515569 48:-0.573988 49:-0.047737 50:0.226654 51:2.205554 52:0.859462 53:1.440212 54:1.188312 55:-0.001602 56:0.438740 57:1.985171 58:1.396245 59:-0.747927 60:0.021962 61:0.855981 62:0.401559 63:-0.339112 64:-1.606340 65:0.760590
-1 1:-0.810693 2:-2.029402 3:1.332227 4:1.086923 5:-0.315148 6:-0.660058 7:0.199443 8:-0.349176 9:1.138771 10:-0.881984 11:-0.690947 12:-0.440178 13:0.429819 14:0.936500 15:0.417096 16:0.181468 17:-2.131281 18:0.801051 19:-0.717943 20:-0.309102 21:0.717203 22:-1.002655 23:-1.617785 24:0.305174 25:-1.549874 26:1.483987 27:0.034296 28:0.108982 29:0.349949 30:0.696029 31:-0.280663 32:0.924424 33:0.917440 34:-0.714976 35:0.435598 36:-0.472430 37:-0.677309 38:0.551453 39:0.078261 40:-0.898521 41:-1.119914 42:0.812231 43:-1.847120 44:-1.636250 45:-0.134216 46:-0.380469 47:-1.216455 48:-1.135933 49:0.756413 50:0.723398 51:1.617963 52:0.591833 53:0.899441 54:0.585413 55:-0.055388 56:-1.761415 57:-1.091404 58:0.981232 59:0.417587 60:1.267403 61:1.038421 62:-1.294115 63:2.415070 64:0.033131 65:0.721982
-1 1:-0.627897 2:1.390211 3:1.279508 4:-1.087993 5:-0.520770 6:-0.699670 7:0.588399 8:0.200376 9:1.439999 10:0.482348 11:-0.681639 12:1.350224 13:-2.042955 14:0.592878 15:0.580637 16:2.339560 17:1.535090 18:-1.147046 19:0.490056 20:-0.470998 21:-0.091046 22:-3.212569 23:0.082916 24:-1.352764 25:-0.017916 26:-1.020631 27:-0.173467 28:-0.521864 29:1.393237 30:0.021191 31:0.618369 32:-0.073511 33:0.748303 34:0.089371 35:0.171404 36:-1.506532 37:-1.901574 38:-1.326419 39:1.634666 40:1.068984 41:1.540404 42:-0.037923 43:1.278465 44:0.576435 45:-0.015211 46:0.376915 47:-0.206962 48:0.579679 49:0.547093 50:-0.177821 51:-1.907528 52:-0.090507 53:-0.052801 54:0.394561 55:-0.613117 56:0.781190 57:-0.748162 58:0.578053 59:0.164019 60:-1.161372 61:-0.784512 62:-0.715418 63:-1.582067 64:1.383974 65:0.451192
-1 1:1.643403 2:-0.494059 3:1.276502 4:-0.304854 5:-0.210884 6:-0.831188 7:0.026125 8:-1.175966 9:-1.524223 10:-2.857010 11:0.345470 12:0.676414 13:0.764699 14:-0.349065 15:-0.710013 16:0.907839 17:0.085897 18:-0.080175 19:-0.684678 20:0.519378 21:0.853167 22:0.027046 23:-0.174855 24:1.417828 25:-0.638105 26:-0.196717 27:0.549677 28:0.236045 29:-0.225028 30:-0.218151 31:-0.448894 32:0.610819 33:-1.062432 34:-0.382062 35:-2.023130 36:-1.022517 37:-0.406631 38:-0.461247 39:-0.514098 40:-0.378367 41:-0.029749 42:1.410690 43:-0.857800 44:-0.850514 45:-0.933374 46:1.123466 47:-0.317637 48:-0.927685 49:-2.003801 50:-0.919655 51:1.620376 52:1.144714 53:0.204483 54:-1.493631 55:0.183293 56:1.273577 57:0.587716 58:-0.385955 59:0.520182 60:-0.563135 61:0.458445 62:-0.272836 63:-0.463452 64:0.726052 65:-0.891249
-1 1:-0.421361 2:0.904879 3:-0.661501 4:0.548358 5:0.031791 6:-1.888795 7:-0.535084 8:-0.775551 9:0.785498 10:-0.509857 11:1.119828 12:-1.014021 13:-0.178156 14:0.274644 15:1.028610 16:1.109203 17:1.545311 18:-0.772204 19:0.218595 20:0.326570 21:-0.060801 22:1.956619 23:0.908248 24:-0.368947 25:0.929919 26:1.381747 27:-0.545004 28:-0.731557 29:1.845229 30:-0.136328 31:0.388174 32:-1.474832 33:-0.715761 34:0.792993 35:2.059728 36:-0.880352 37:-0.109403 38:0.313290 39:-0.029749 40:0.530825 41:-0.959502 42:-1.535652 43:-0.593629 44:0.605260 45:0.262166 46:-0.072184 47:0.254862 48:-0.668900 49:-0.013035 50:1.991757 51:0.252799 52:0.313254 53:0.732745 54:-0.863424 55:-1.184378 56:-0.677292 57:1.244025 58:-0.378888 59:0.732689 60:-0.825092 61:-0.231578 62:3.077847 63:-0.912261 64:1.493439 65:-0.537885
-1 1:0.512295 2:-0.717494 3:2.870591 4:0.263927 5:-0.844558 6:1.704244 7:0.819474 8:-0.508674 9:-0.170027 10:-0.350307 11:-1.022511 12:0.169835 13:-0.673673 14:-0.211681 15:0.293559 16:1.274625 17:0.190270 18:0.946494 19:0.372122 20:0.877205 21:0.203076 22:0.514770 23:1.482326 24:0.838314 25:-0.877972 26:-1.830935 27:-0.208219 28:-0.305489 29:-0.625490 30:-1.013239 31:1.218540 32:0.510404 33:-1.398872 34:-0.285712 35:1.558824 36:-0.260263 37:-0.288105 38:-0.584416 39:-1.478029 40:0.131509 41:-1.287354 42:-1.558603 43:-2.459328 44:1.180355 45:0.755937 46:-0.477560 47:-0.913947 48:0.552389 49:-1.068018 50:-1.385049 51:-0.664549 52:-0.560000 53:-0.320309 54:-0.113020 55:-0.857600 56:-0.606144 57:2.029888 58:1.090550 59:-0.105593 60:-2.412859 61:-0.576510 62:-1.384708 63:1.215210 64:-0.266636 65:0.213708
-1 1:-0.450135 2:-1.182017 3:-1.363576 4:-0.415914 5:0.861170 6:-0.825352 7:-0.784066 8:-0.028784 9:0.708934 10:-2.508458 11:-0.136147 12:0.322675 13:-1.561422 14:0.340237 15:0.971939 16:0.440610 17:-0.401382 18:-0.104398 19:1.432316 20:1.262449 21:0.467000 22:-0.485445 23:-1.097492 24:-1.390503 25:0.574645 26:-1.347525 27:0.368427 28:0.084878 29:0.000544 30:0.453806 31:-0.463606 32:0.587752 33:-0.311617 34:1.398190 35:-2.573145 36:-2.152396 37:1.838040 38:-0.823881 39:0.502150 40:-0.655925 41:0.186057 42:-0.600818 43:-0.074463 44:-0.276271 45:-1.417536 46:-0.299055 47:-1.379672 48:2.618567 49:0.318079 50:0.289330 51:-0.481400 52:-0.647477 53:0.009402 54:-1.201275 55:1.379325 56:-0.931288 57:0.544427 58:0.349216 59:-0.983713 60:0.903738 61:1.807999 62:-0.579264 63:2.531408 64:0.376836 65:0.883232
-1 1:-0.579905 2:0.333983 3:0.657958 4:0.795980 5:-0.729787 6:-0.066917 7:0.159860 8:0.370370 9:-0.841956 10:0.254295 11:-0.171204 12:1.657917 13:0.134613 14:-0.827414 15:-0.245257 16:0.229810 17:-0.845175 18:-0.084810 19:-0.634917 20:-0.087325 21:-0.700155 22:1.178278 23:0.089279 24:1.179006 25:-1.636894 26:1.658862 27:-1.535064 28:1.428605 29:0.062681 30:0.899754 31:-1.545241 32:-0.104211 33:0.034756 34:-0.598861 35:-0.569773 36:1.643339 37:0.063380 38:-0.646621 39:0.543285 40:0.162641 41:1.337698 42:0.775603 43:-0.792358 44:0.782485 45:-0.589257 46:-2.325223 47:-0.364549 48:-0.710426 49:-0.500790 50:-1.085002 51:0.319127 52:-0.471133 53:-1.366916 54:1.632175 55:1.228364 56:0.391064 57:-0.825570 58:0.376149 59:-2.009199 60:-1.783036 61:-0.396925 62:-0.385364 63:-0.224418 64:1.141732 65:-2.335883
-1 1:-0.579927 2:-0.163512 3:-1.173046 4:-0.395779 5:0.390426 6:0.855240 7:2.526219 8:0.338348 9:2.060584 10:0.825775 11:0.067099 12:-1.031992 13:-1.353282 14:0.766216 15:1.016473 16:-0.640972 17:-0.698662 18:-0.742280 19:-0.628422 20:-0.200554 21:0.608842 22:-1.547062 23:-0.680688 24:-0.992519 25:1.104936 26:0.159314 27:0.090275 28:-0.751472 29:0.040917 30:-0.409551 31:1.490928 32:0.102141 33:-0.111626 34:1.099772 35:-0.432635 36:0.106904 37:0.455456 38:-0.569596 39:-0.213571 40:1.847648 41:0.859600 42:1.577405 43:0.394530 44:0.130243 45:-1.658148 46:1.149580 47:0.680072 48:-0.890975 49:-0.057158 50:1.183835 51:-1.018575 52:-1.518384 53:1.072230 54:-0.574853 55:-0.432295 56:2.279218 57:0.091710 58:0.812295 59:-1.102712 60:-0.172810 61:-0.992627 62:-1.217082 63:0.909050 64:0.558291 65:-1.524419
-1 1:-0.531868 2:-0.592252 3:0.411495 4:-0.667258 5:-0.555764 6:0.611027 7:0.257301 8:0.420769 9:-0.362863 10:0.722721 11:-0.043736 12:-0.462555 13:-0.176631 14:0.810349 15:-0.487900 16:0.485571 17:-1.033364 18:-0.314857 19:1.421340 20:-0.525331 21:2.013027 22:0.614849 23:-1.584475 24:1.393008 25:-0.115267 26:0.588341 27:1.438011 28:-1.069989 29:-0.572610 30:-0.977662 31:0.123515 32:1.146760 33:1.086583 34:1.069486 35:0.656868 36:1.948576 37:1.853234 38:-0.648654 39:0.445237 40:0.302558 41:-1.756649 42:-0.474675 43:0.119735 44:-0.488569 45:-0.157144 46:0.109066 47:1.047661 48:-0.095458 49:-0.020238 50:0.515126 51:-0.336943 52:0.348647 53:-0.652187 54:0.172368 55:0.631094 56:-1.715985 57:1.564963 58:0.888310 59:1.591254 60:0.607949 61:-1.690334 62:-0.191164 63:0.406689 64:-0.363160 65:-0.800585
-1 1:-0.673533 2:0.489747 3:0.638615 4:0.980999 5:-0.376198 6:1.093773 7:1.178558 8:-1.637530 9:2.032610 10:0.459097 11:-2.871516 12:1.460766 13:1.184749 14:0.942969 15:0.028576 16:-0.611712 17:0.096876 18:0.155097 19:1.188707 20:-0.773765 21:0.264065 22:0.159600 23:0.128956 24:-0.182073 25:-1.204434 26:-1.407036 27:-0.761611 28:1.119762 29:0.582994 30:0.619128 31:0.666033 32:-0.622370 33:-0.597895 34:-0.138467 35:-1.529920 36:-0.378870 37:-1.410832 38:-1.105226 39:-0.307615 40:0.482016 41:-0.443596 42:1.435839 43:-0.484081 44:-1.071861 45:1.393349 46:-0.584169 47:1.066282 48:-0.766885 49:0.594713 50:-0.631927 51:0.130273 52:0.006520 53:0.275094 54:0.387194 55:0.028857 56:-1.281711 57:2.103095 58:-2.292602 59:0.149372 60:0.568624 61:-0.909543 62:-1.187239 63:-0.543642 64:0.330152 65:-0.314600
-1 1:1.308284 2:-1.901758 3:0.515557 4:-0.507787 5:-0.029545 6:-2.620941 7:-0.443950 8:-0.416778 9:-0.503712 10:-2.041908 11:1.630038 12:0.426659 13:-0.029678 14:-0.764750 15:-1.542737 16:0.304008 17:0.816014 18:0.824450 19:-0.228442 20:-0.782065 21:2.051436 22:-0.032422 23:-1.714844 24:1.470579 25:0.458418 26:0.539823 27:0.946365 28:-0.027635 29:-0.252294 30:0.496330 31:0.850434 32:-2.138302 33:-1.390629 34:0.110862 35:-0.436168 36:-0.882076 37:-0.202569 38:0.037178 39:-0.574098 40:-0.239155 41:0.834417 42:-0.679756 43:0.281192 44:0.299690 45:-0.937566 46:-1.075761 47:2.144953 48:-0.415703 49:-1.305004 50:0.714878 51:-0.788753 52:-0.412126 53:1.888530 54:0.282664 55:-0.303780 56:0.082935 57:-0.846399 58:-0.286116 59:0.233837 60:0.238353 61:-0.253095 62:0.514449 63:0.402714 64:-0.550916 65:0.802647
-1 1:-0.747927 2:-0.706212 3:0.784906 4:-0.258766 5:0.178192 6:0.850285 7:-0.933014 8:1.337741 9:0.965668 10:-0.645564 11:-0.617776 12:-0.418680 13:-0.929137 14:1.146619 15:-1.071101 16:0.067641 17:0.558378 18:1.224015 19:1.000729 20:-0.482619 21:2.074207 22:-0.064708 23:-0.939331 24:-0.237841 25:-1.380292 26:0.326770 27:-0.197366 28:1.885507 29:0.776548 30:-0.294382 31:0.124530 32:1.842090 33:-0.868504 34:0.263617 35:-0.161531 36:-0.419634 37:-0.680320 38:0.081648 39:-0.416661 40:-0.823797 41:3.239525 42:0.550169 43:0.835665 44:-0.140958 45:-0.714706 46:0.543512 47:-1.347736 48:0.199820 49:1.519484 50:-0.124140 51:-0.777060 52:0.845963 53:0.439638 54:0.281341 55:-0.968045 56:-1.748226 57:0.567063 58:0.860048 59:0.243806 60:0.120113 61:-0.074517 62:-0.233652 63:1.001555 64:-1.829159 65:0.630608
-1 1:-1.050434 2:0.482669 3:0.826410 4:-1.123342 5:0.126610 6:1.214441 7:-1.170058 8:1.507847 9:1.380814 10:-1.311130 11:0.255935 12:0.612031 13:-1.853053 14:0.313805 15:-0.572246 16:-0.761714 17:1.255735 18:2.682061 19:1.113116 20:0.521178 21:0.865000 22:-0.454645 23:-0.846513 24:0.009148 25:1.188565 26:0.546982 27:-0.280618 28:0.051933 29:-0.511475 30:0.413164 31:0.386466 32:-0.029947 33:-0.569480 34:-0.827179 35:-1.346225 36:-0.208589 37:-0.197761 38:1.645613 39:-0.691715 40:2.376436 41:0.136566 42:-0.898681 43:0.718345 44:0.281619 45:-0.045613 46:-0.750175 47:-0.826123 48:-1.100466 49:-0.200153 50:-1.417297 51:-1.519068 52:-0.975447 53:-0.104898 54:-0.367181 55:1.715792 56:-1.337798 57:-1.117432 58:-0.870771 59:-2.203582 60:-1.482778 61:0.074213 62:0.936182 63:-0.141690 64:0.035986 65:-0.465441
-1 1:0.485897 2:1.618714 3:-1.223760 4:-0.130896 5:-0.871240 6:0.420751 7:-0.828951 8:-0.479024 9:-0.974856 10:1.169134 11:-0.985591 12:-0.117615 13:-0.836221 14:0.552630 15:0.155246 16:-1.042565 17:-0.172988 18:-0.449898 19:0.143709 20:-0.143420 21:-0.515738 22:1.059784 23:0.742977 24:0.472575 25:-0.874895 26:0.023008 27:-0.521920 28:0.520743 29:-1.593069 30:0.049170 31:0.249981 32:-0.888803 33:0.948399 34:-0.197018 35:-0.342034 36:0.497874 37:2.334263 38:-1.172655 39:1.809602 40:1.232948 41:-0.010039 42:0.887532 43:0.297378 44:-0.644020 45:-0.475126 46:0.446135 47:-1.455411 48:1.568516 49:0.793001 50:-0.656996 51:0.404814 52:-0.536253 53:1.410958 54:0.437222 55:-0.154906 56:0.249780 57:0.544648 58:-0.671773 59:-0.011449 60:-1.378947 61:0.498078 62:0.750929 63:0.752621 64:0.148596 65:1.458112
-1 1:-0.395085 2:1.320133 3:0.781834 4:0.496795 5:-1.318686 6:-0.716733 7:-0.340225 8:2.410267 9:0.030295 10:0.168045 11:-0.769304 12:-1.894515 13:-0.384573 14:-0.157439 15:2.092416 16:-0.760109 17:-1.388811 18:0.472149 19:-0.134124 20:-1.682357 21:-1.086355 22:-0.885846 23:0.583322 24:1.106593 25:-0.351830 26:1.540218 27:-0.533726 28:-0.382618 29:-1.640192 30:-1.280658 31:1.444981 32:1.715693 33:0.352277 34:-1.063067 35:1.516078 36:-1.902598 37:0.689728 38:0.731299 39:-0.317033 40:0.829403 41:-0.029739 42:-1.447408 43:1.181805 44:-0.739219 45:0.457456 46:-0.987926 47:0.234181 48:-2.210395 49:-0.118056 50:-1.344624 51:-0.306323 52:-1.059576 53:-0.032146 54:0.724462 55:-0.763352 56:0.076942 57:-0.371803 58:-1.337574 59:0.500316 60:0.010789 61:-2.021021 62:-1.481722 63:0.931763 64:0.307130 65:-1.584782
-1 1:1.784461 2:0.386224 3:1.134885 4:0.183700 5:-1.217608 6:-0.593501 7:0.611953 8:-0.157922 9:-0.047540 10:-0.276440 11:-1.391956 12:-1.286969 13:1.933260 14:-1.609213 15:-0.525927 16:-0.604867 17:0.498615 18:0.342899 19:0.026665 20:1.045102 21:-0.751254 22:-0.759360 23:-0.900644 24:1.132454 25:0.063611 26:2.838115 27:0.676296 28:-0.632662 29:1.084286 30:-0.952049 31:-1.056357 32:-0.351293 33:-0.284902 34:-0.406135 35:-0.141407 36:-0.988129 37:-0.527102 38:-2.679854 39:-1.442851 40:-1.740969 41:-0.426700 42:1.285210 43:-1.348951 44:0.441757 45:-0.330052 46:0.256942 47:-0.812376 48:-0.167977 49:-0.564468 50:-0.685202 51:-0.369030 52:1.145822 53:0.835833 54:0.658837 55:0.871755 56:0.273012 57:2.335584 58:-0.423140 59:0.038341 60:1.291440 61:-0.048864 62:-0.308362 63:0.044407 64:1.639494 65:-1.115032
-1 1:-1.376756 2:0.054027 3:-0.146770 4:0.826418 5:-0.189367 6:0.406033 7:-1.707692 8:1.218502 9:0.031674 10:0.685950 11:-0.587600 12:2.438865 13:1.320344 14:-0.489979 15:-0.864780 16:-1.112499 17:0.986915 18:-0.598034 19:-1.424536 20:-0.046488 21:-1.081499 22:1.723067 23:-0.641069 24:-0.483741 25:-0.682140 26:0.918769 27:1.296642 28:0.612306 29:0.034157 30:0.166326 31:-1.603208 32:0.705521 33:-1.340412 34:-0.265446 35:-0.989527 36:0.885009 37:0.179307 38:0.648021 39:-1.585505 40:-0.563158 41:-0.469633 42:0.182290 43:0.710334 44:-1.337354 45:1.547338 46:0.795548 47:-0.188241 48:-0.226106 49:-1.338292 50:-1.273620 51:-0.038228 52:0.746284 53:-0.113485 54:-0.459042 55:0.356707 56:0.605760 57:-0.508337 58:1.398162 59:-0.848397 60:0.743376 61:0.953510 62:-0.430936 63:-0.368697 64:1.471483 65:-0.088501
-1 1:1.380325 2:-0.330777 3:-0.275534 4:0.320023 5:-0.092872 6:0.946339 7:-0.821395 8:-0.480024 9:0.498456 10:1.697067 11:0.171087 12:-0.737986 13:1.664314 14:0.698541 15:0.835177 16:-2.336566 17:1.020328 18:0.397712 19:0.377371 20:-2.781335 21:0.349299 22:-0.367372 23:-1.511486 24:-0.008503 25:-0.326415 26:0.559437 27:-0.296405 28:0.566609 29:0.184062 30:0.263011 31:1.716431 32:0.560421 33:0.641216 34:-0.594766 35:-0.088867 36:0.359211 37:-0.217926 38:-0.992223 39:-0.755633 40:-0.779662 41:0.004527 42:-0.443617 43:-0.218046 44:2.046994 45:-1.442324 46:-0.511288 47:-0.917451 48:0.448935 49:0.755775 50:-0.129383 51:-0.209182 52:-2.005081 53:0.627497 54:-1.017219 55:-0.070733 56:-1.053829 57:-1.132231 58:-0.845492 59:0.532325 60:-1.034582 61:-0.444815 62:-1.647559 63:0.104912 64:0.781760 65:-1.126903
-1 1:0.155686 2:1.450545 3:-0.686016 4:-1.428217 5:-0.479724 6:-0.161398 7:0.134460 8:-1.985188 9:-0.903002 10:0.441386 11:0.919404 12:-0.264666 13:0.647242 14:-0.305954 15:0.387048 16:-1.622782 17:-0.337786 18:0.687516 19:0.175198 20:0.366577 21:0.778619 22:0.537958 23:0.267614 24:-0.414429 25:-1.305664 26:0.285303 27:1.115769 28:0.029664 29:-0.045961 30:1.848984 31:0.473662 32:0.235943 33:-0.308352 34:0.544688 35:0.449745 36:-1.754982 37:0.385586 38:1.046351 39:-0.588876 40:2.203628 41:1.203928 42:-1.062913 43:0.602082 44:-0.945249 45:1.037938 46:0.642420 47:0.362894 48:0.390046 49:-0.463076 50:-0.138003 51:-1.230027 52:-0.144281 53:-0.345814 54:-0.591794 55:-0.425183 56:1.558546 57:0.604356 58:-1.278232 59:-0.346077 60:-0.568965 61:-0.654358 62:0.970293 63:2.224359 64:-0.909692 65:-0.827282
-1 1:0.424185 2:-2.375996 3:-1.529500 4:0.491850 5:-1.210880 6:-0.803731 7:0.630350 8:1.493211 9:-1.492311 10:-0.485807 11:0.846516 12:1.311993 13:-0.750123 14:-0.263906 15:-0.256673 16:-0.500212 17:0.776008 18:0.141020 19:-0.385508 20:1.289044 21:-0.483699 22:1.094859 23:-0.211505 24:-1.031711 25:1.648480 26:-1.412055 27:0.265571 28:1.880874 29:-0.649827 30:0.719229 31:0.782951 32:1.310939 33:-0.867027 34:2.271428 35:-1.429292 36:1.216388 37:0.506127 38:0.521127 39:0.001021 40:-0.598231 41:-0.468074 42:-0.986627 43:0.671367 44:-0.588699 45:-0.341869 46:-0.261923 47:-0.077400 48:-0.266677 49:0.939275 50:1.894624 51:-0.825044 52:-1.289467 53:-0.018332 54:0.640322 55:-0.404592 56:0.239878 57:0.662414 58:1.387804 59:-1.431389 60:-1.829100 61:0.379395 62:0.453086 63:0.309248 64:-0.828822 65:0.219201
-1 1:1.458190 2:0.605165 3:0.249379 4:-2.284885 5:-1.930042 6:-0.030945 7:1.286597 8:-1.401622 9:-1.397971 10:1.567823 11:0.134855 12:0.425521 13:0.210407 14:-0.749178 15:-0.364380 16:-0.534857 17:-0.152421 18:0.285477 19:-0.617038 20:-1.791225 21:-0.471625 22:0.444234 23:-0.443377 24:1.634941 25:-0.406384 26:-0.144276 27:0.528760 28:2.250442 29:2.032552 30:-0.022015 31:0.179818 32:1.187606 33:0.485969 34:-1.366890 35:0.344316 36:-0.918284 37:0.878059 38:0.481759 39:-0.686727 40:1.363602 41:-1.111759 42:-1.132058 43:1.591859 44:0.592406 45:0.097492 46:-2.466999 47:0.862447 48:-0.393113 49:-1.613568 50:-0.960175 51:0.922179 52:0.602324 53:-0.418265 54:0.039945 55:1.357893 56:-2.449490 57:-0.859619 58:-1.080954 59:0.446661 60:1.518215 61:-0.711387 62:0.933709 63:0.606074 64:-0.259874 65:-0.237023
-1 1:2.513855 2:-0.885863 3:2.249194 4:1.499010 5:0.641112 6:-0.989379 7:0.053047 8:-0.160807 9:0.345387 10:2.267334 11:0.079001 12:1.748878 13:0.332212 14:0.332472 15:-0.812636 16:-1.797877 17:2.204161 18:-0.131488 19:-0.093792 20:0.025942 21:2.010745 22:-0.621066 23:1.212181 24:-0.838372 25:0.197287 26:0.306862 27:0.691569 28:0.046693 29:-0.760835 30:-1.534631 31:0.942661 32:-0.253101 33:-0.052348 34:-1.638622 35:-0.364808 36:-0.084733 37:0.890045 38:0.007378 39:-0.075838 40:0.356579 41:-0.607817 42:0.712719 43:-1.936494 44:-0.608278 45:-0.010037 46:1.066427 47:1.395475 48:0.677372 49:1.655444 50:1.077043 51:-1.099966 52:1.088830 53:-0.495494 54:0.412424 55:-0.196215 56:-0.667394 57:-0.368674 58:-0.102362 59:1.465539 60:1.158158 61:-2.357760 62:-0.160869 63:-0.811162 64:-0.000095 65:0.351680
-1 1:0.055384 2:1.149697 3:-0.720331 4:0.675909 5:-1.092835 6:1.608837 7:-0.847710 8:-0.278748 9:0.318045 10:1.515132 11:1.592806 12:0.002445 13:0.965884 14:-0.130576 15:0.996492 16:0.914757 17:-1.187024 18:0.183150 19:-0.034693 20:-0.215401 21:-0.198939 22:-0.144446 23:0.709646 24:-0.722128 25:-2.028121 26:1.447763 27:-0.800668 28:-1.172244 29:-0.053368 30:-0.421487 31:-1.024541 32:-1.286147 33:-0.971167 34:0.147447 35:-1.104458 36:1.104637 37:-0.326304 38:-0.311095 39:0.674808 40:-0.053019 41:-0.159803 42:-0.833113 43:-1.933904 44:1.351643 45:0.334530 46:0.309258 47:-0.913384 48:1.397348 49:0.758430 50:-0.762550 51:0.029642 52:-1.571606 53:0.141993 54:-0.988449 55:-0.686064 56:0.079622 57:1.572995 58:-1.746695 59:-1.086711 60:-0.110664 61:-0.411031 62:-0.174307 63:-0.256213 64:0.506584 65:0.243864
-1 1:-0.519826 2:0.543468 3:2.109830 4:-0.860100 5:-1.000256 6:-0.214956 7:0.088055 8:-0.336310 9:0.557286 10:1.159164 11:0.560653 12:-0.187500 13:-1.462698 14:0.085601 15:-0.443308 16:-0.364135 17:-0.225338 18:-0.015058 19:1.137969 20:0.685405 21:1.005792 22:-0.873034 23:-0.516183 24:-0.517943 25:-0.599571 26:0.101303 27:-1.353874 28:0.601582 29:-0.267909 30:-0.128684 31:0.178934 32:1.482074 33:-0.016833 34:-0.279614 35:-1.340472 36:-0.239130 37:-0.355290 38:-1.114507 39:-0.935719 40:0.248544 41:-0.116525 42:-1.101235 43:1.372440 44:0.723392 45:3.458380 46:1.643161 47:0.226526 48:-1.062816 49:-0.697421 50:-0.582863 51:0.143700 52:-1.165045 53:0.199475 54:1.603319 55:-1.143002 56:-0.270124 57:0.906933 58:-1.037630 59:-0.488015 60:-0.989191 61:-2.176192 62:1.077350 63:-0.743220 64:-1.587654 65:-0.048359
-1 1:-0.773229 2:1.190355 3:-0.075064 4:-0.755026 5:-0.068669 6:0.814416 7:0.438695 8:-0.134656 9:-0.604445 10:-1.746443 11:-0.356463 12:-0.410897 13:-1.060351 14:0.668989 15:-0.337342 16:0.726857 17:0.605078 18:-1.176706 19:-0.606913 20:2.189246 21:1.579866 22:0.106300 23:0.206333 24:-0.522362 25:-1.464868 26:-0.918726 27:0.139689 28:1.541244 29:-0.601976 30:-0.811835 31:1.102767 32:-0.077443 33:-0.039445 34:0.549348 35:0.347411 36:-0.071886 37:0.298847 38:-1.797809 39:-0.078898 40:0.360911 41:0.847950 42:-2.202355 43:0.230809 44:-1.368906 45:0.885595 46:0.243586 47:1.137597 48:-0.836874 49:2.415761 50:0.184587 51:0.877980 52:0.625791 53:0.587234 54:0.273115 55:0.605041 56:0.881896 57:0.291850 58:0.448071 59:0.863886 60:0.631607 61:-0.452066 62:-0.681835 63:0.158698 64:-1.978860 65:0.459746
-1 1:-0.514612 2:-1.343305 3:0.342837 4:-0.491391 5:0.224420 6:0.110261 7:0.034169 8:3.261957 9:0.423190 10:1.020513 11:0.565531 12:-0.808012 13:0.321124 14:-0.256943 15:-0.820208 16:2.017468 17:-0.337879 18:-1.132580 19:-0.426030 20:0.007887 21:0.181083 22:0.156115 23:1.434549 24:0.185752 25:0.982392 26:-1.614608 27:-0.322635 28:1.065445 29:-0.172220 30:0.019926 31:-1.194376 32:-1.850104 33:1.466675 34:-0.788010 35:-1.517082 36:-0.207175 37:-0.732305 38:0.625684 39:0.538484 40:0.847538 41:1.707217 42:1.670177 43:-0.359969 44:-0.391574 45:0.703681 46:-0.898835 47:2.102387 48:-0.871941 49:-2.346919 50:0.209810 51:0.779325 52:-0.377523 53:0.758193 54:-0.715263 55:1.319481 56:0.260668 57:0.653989 58:0.517712 59:-1.071279 60:0.438759 61:0.219656 62:-0.096877 63:0.745054 64:0.682015 65:0.478455
-1 1:1.715718 2:-0.927563 3:-0.256095 4:-0.032316 5:0.737206 6:1.290012 7:0.394426 8:-0.657837 9:-0.659956 10:1.400074 11:-0.585735 12:0.149025 13:-0.952909 14:1.207910 15:0.614482 16:0.342623 17:-0.286684 18:-0.520980 19:-1.437841 20:1.001773 21:-1.171608 22:-1.862032 23:0.820502 24:0.443921 25:-1.198834 26:0.342219 27:-1.332559 28:-1.058405 29:-0.578493 30:-0.220982 31:-0.348216 32:0.122205 33:0.729567 34:0.471788 35:-0.102528 36:1.321489 37:0.762028 38:0.922961 39:-0.394781 40:-1.105196 41:-0.204001 42:0.045898 43:-0.695636 44:-2.797927 45:1.802746 46:0.459693 47:-0.693083 48:0.635700 49:0.236245 50:1.073008 51:1.102110 52:-1.717408 53:-0.730834 54:0.593040 55:0.296305 56:-0.232039 57:0.370287 58:1.111855 59:-0.951543 60:-1.688614 61:-1.574855 62:-1.356364 63:-0.222123 64:0.912381 65:-1.316038
-1 1:0.889234 2:0.982194 3:0.288392 4:-0.230239 5:0.767149 6:0.066235 7:0.646948 8:0.500148 9:-0.386283 10:0.262480 11:-0.285274 12:1.565527 13:-0.647366 14:0.037534 15:-0.498960 16:1.038233 17:0.360234 18:-0.461734 19:-2.700644 20:-1.348130 21:-0.348655 22:-0.009689 23:1.445446 24:0.579899 25:-0.479778 26:1.016422 27:1.020449 28:-2.874906 29:-0.352078 30:0.365761 31:-0.587478 32:-0.092161 33:-0.422719 34:0.870944 35:-0.294027 36:0.033971 37:1.128329 38:-0.113447 39:-0.284624 40:0.456267 41:0.038607 42:-1.032095 43:-0.721973 44:-0.163598 45:-0.631454 46:-0.113626 47:0.725612 48:0.362323 49:0.018324 50:0.918582 51:1.453783 52:-1.699385 53:-0.277970 54:-1.425484 55:-1.515941 56:-0.563513 57:0.419478 58:0.663483 59:-0.448420 60:1.437269 61:0.071146 62:0.583269 63:-0.522855 64:-0.816849 65:0.938868
-1 1:-0.448915 2:-0.451427 3:0.539066 4:-1.358280 5:-1.459549 6:0.183652 7:-0.102634 8:1.806684 9:-0.718902 10:0.336770 11:0.086827 12:-1.126302 13:0.249834 14:0.955763 15:1.713978 16:-0.101140 17:-1.912091 18:-0.422123 19:-2.290566 20:-0.685564 21:-0.113792 22:-0.112140 23:-0.360280 24:1.059513 25:-0.495558 26:-0.009779 27:0.475031 28:-0.635520 29:-1.028943 30:0.054888 31:-2.250340 32:0.827326 33:0.910636 34:0.618296 35:-1.038087 36:0.270447 37:0.774980 38:0.865169 39:-1.074758 40:-1.137867 41:-0.557211 42:-0.211856 43:0.438809 44:-0.735268 45:-1.328719 46:0.979868 47:-0.909539 48:0.329092 49:-0.426486 50:-0.042690 51:1.214970 52:1.105527 53:-1.322765 54:0.879278 55:-0.160670 56:0.781783 57:-1.310593 58:0.303605 59:0.587254 60:-0.823685 61:-0.586148 62:-0.419005 63:-0.144660 64:1.882004 65:-0.365224
-1 1:-1.265900 2:0.260927 3:-0.621906 4:-0.617406 5:2.023418 6:-1.208642 7:0.240834 8:0.025946 9:-0.046968 10:-1.216624 11:0.567020 12:-1.038980 13:-0.362113 14:-1.826547 15:0.574829 16:-0.456232 17:-2.281417 18:-0.908487 19:-0.781986 20:1.355592 21:-1.342353 22:1.627107 23:0.680389 24:-0.116931 25:0.508071 26:1.294625 27:-0.054582 28:-0.507633 29:-2.079337 30:-0.751961 31:0.340475 32:0.813315 33:0.678197 34:-0.521889 35:-0.337782 36:0.520652 37:0.694777 38:0.498742 39:1.773863 40:-0.579881 41:-0.575225 42:-1.230515 43:0.326313 44:-0.128500 45:-0.134448 46:-0.641354 47:-0.762863 48:0.610585 49:-0.293323 50:-1.427288 51:0.626282 52:-0.952001 53:0.098158 54:1.952210 55:-1.642691 56:1.630143 57:-1.303635 58:0.244808 59:0.571708 60:0.790699 61:-1.081920 62:2.021396 63:0.730344 64:-2.627735 65:-0.042377
-1 1:-0.735456 2:-1.386912 3:1.569176 4:0.533337 5:0.751624 6:-0.792495 7:-1.381815 8:0.916006 9:0.589209 10:1.124875 11:1.078712 12:-0.403700 13:-1.258731 14:0.428016 15:0.558450 16:-0.556648 17:-0.527576 18:-0.222737 19:-1.173499 20:0.585999 21:0.835762 22:0.191313 23:0.303037 24:0.950743 25:-0.198202 26:1.210006 27:-0.863005 28:0.971093 29:0.447713 30:0.641149 31:2.414354 32:-0.990321 33:0.541961 34:0.086892 35:1.046578 36:0.179838 37:-1.463000 38:0.655514 39:1.464012 40:-2.546643 41:-0.034936 42:0.239568 43:1.149379 44:-0.746521 45:1.795745 46:-1.279207 47:-0.504726 48:-0.839867 49:0.393158 50:-0.091588 51:0.342546 52:1.930360 53:0.787680 54:0.540879 55:-0.668963 56:-1.534837 57:1.398899 58:0.926496 59:0.216437 60:1.630573 61:-1.204118 62:0.191502 63:-0.588175 64:-1.296699 65:-0.325657
-1 1:-0.111906 2:-1.720252 3:-0.948789 4:-0.247845 5:1.445780 6:1.239820 7:-0.039654 8:1.185508 9:0.875022 10:0.527024 11:0.898773 12:1.320645 13:0.865809 14:-0.149601 15:-0.218546 16:-0.354299 17:-0.840003 18:0.574554 19:-0.491720 20:-0.346742 21:-0.577572 22:-1.196121 23:0.007132 24:-1.615260 25:0.273945 26:0.844642 27:0.556360 28:-1.015349 29:-0.067665 30:1.343023 31:-0.414331 32:0.718016 33:0.104167 34:-0.700338 35:1.256013 36:0.123795 37:-1.113566 38:0.970853 39:-1.330676 40:0.444067 41:0.910059 42:-0.049130 43:-0.396699 44:-0.385153 45:-1.257337 46:-0.495995 47:-0.391688 48:0.412880 49:0.614541 50:0.469737 51:-0.895063 52:0.645967 53:1.472388 54:0.393184 55:0.781792 56:-0.349845 57:0.392995 58:0.283782 59:0.705983 60:0.594351 61:-0.253464 62:-0.067084 63:0.287477 64:1.029656 65:-1.122935
-1 1:0.700475 2:0.158997 3:0.584980 4:-2.067716 5:1.363428 6:-0.432142 7:0.258032 8:-1.310310 9:1.113445 10:-0.816421 11:-3.222192 12:-0.139739 13:-2.066537 14:-1.287457 15:-1.259972 16:-0.601899 17:0.534625 18:1.497206 19:-0.374930 20:1.414148 21:-2.339329 22:-0.888047 23:-0.283992 24:-1.851636 25:-0.031957 26:-0.217601 27:0.580434 28:-0.651982 29:-1.147769 30:0.162468 31:0.654422 32:1.485799 33:-0.403552 34:-0.612854 35:-0.941683 36:-0.160709 37:0.608941 38:1.040656 39:-1.386578 40:2.379649 41:0.934287 42:0.499291 43:0.070079 44:2.366647 45:1.214442 46:2.184661 47:-0.127407 48:-0.233051 49:-0.639075 50:-0.552153 51:0.911130 52:2.291071 53:-2.051291 54:0.873122 55:-1.067277 56:-0.799704 57:-0.785916 58:-0.392233 59:0.192562 60:-1.750886 61:1.231571 62:-1.315815 63:0.445908 64:-1.349334 65:0.407580
-1 1:1.385657 2:-0.713529 3:-0.219214 4:-0.232824 5:0.634109 6:-0.173400 7:-0.141900 8:0.470075 9:-1.420655 10:-0.508277 11:0.080256 12:0.574621 13:-0.048485 14:-0.380184 15:0.802890 16:-1.608410 17:0.656792 18:-0.866609 19:-1.314645 20:-0.596484 21:0.072564 22:1.146937 23:1.638902 24:0.211606 25:-0.925806 26:-0.820414 27:1.054880 28:0.049653 29:-0.697759 30:0.130388 31:0.593478 32:0.358808 33:0.723116 34:-0.488833 35:-0.930722 36:-0.298448 37:-0.228517 38:0.493716 39:-2.010087 40:1.101804 41:0.304635 42:-0.339686 43:-0.657246 44:-0.107082 45:-0.173833 46:-0.638544 47:1.005463 48:0.441002 49:-0.977747 50:-0.590793 51:-0.254510 52:-1.063693 53:-1.136391 54:-0.160852 55:-0.536539 56:-0.441757 57:-1.615980 58:0.789400 59:-0.160454 60:0.362926 61:-0.487096 62:-0.915157 63:2.827823 64:-1.757402 65:-0.301947
-1 1:-0.518954 2:-0.242792 3:-1.136754 4:0.792198 5:0.484721 6:0.859025 7:0.169643 8:-0.624128 9:0.063475 10:2.325088 11:1.453151 12:-1.315194 13:-0.759240 14:-0.692629 15:-0.325454 16:-0.026713 17:-0.100523 18:1.472741 19:0.767713 20:-0.084919 21:-1.192929 22:-0.833825 23:1.243236 24:0.393643 25:-1.695783 26:0.053674 27:-0.624801 28:0.106524 29:1.008906 30:-0.490986 31:-0.467554 32:-1.017980 33:0.418311 34:-0.923666 35:-0.177247 36:-0.338222 37:0.614015 38:-0.318707 39:-1.264683 40:-0.384317 41:0.672341 42:1.533172 43:0.784795 44:-1.178486 45:-1.007595 46:-0.095104 47:0.586425 48:1.612610 49:-0.735274 50:0.087046 51:0.759712 52:0.860105 53:0.249786 54:-0.249619 55:1.887297 56:0.004715 57:0.267692 58:0.355161 59:0.313252 60:0.250930 61:-0.586892 62:-0.738775 63:0.234097 64:-0.217104 65:0.507103
-1 1:0.112061 2:-0.929156 3:-0.494220 4:1.964455 5:-0.038842 6:1.252526 7:0.730266 8:0.695906 9:2.002732 10:0.517092 11:1.743877 12:-0.033998 13:-1.351256 14:0.099084 15:0.704511 16:-1.069372 17:1.239027 18:-1.338627 19:0.235634 20:0.356438 21:0.033665 22:1.717771 23:-0.447961 24:2.123587 25:-0.590301 26:0.157509 27:2.367363 28:2.394131 29:0.695456 30:0.013408 31:-0.428524 32:0.496497 33:0.315714 34:-0.842414 35:-1.235204 36:0.356967 37:2.433453 38:-0.924515 39:-2.604175 40:-0.630540 41:-1.604984 42:0.135494 43:-1.815660 44:0.619040 45:-1.089618 46:-1.196567 47:0.911850 48:-0.407381 49:0.564995 50:-1.753054 51:-0.801760 52:-0.909086 53:-0.005585 54:-0.946395 55:0.346647 56:-0.792205 57:1.144888 58:-0.666388 59:0.579557 60:-1.454987 61:-0.889856 62:-0.418781 63:0.742488 64:-1.238178 65:-1.368571
-1 1:0.253112 2:-0.731813 3:-1.715309 4:-0.010345 5:-0.427885 6:1.085559 7:0.232115 8:1.783932 9:0.298206 10:-0.592280 11:1.104355 12:-1.198712 13:-1.140174 14:-1.169970 15:1.347696 16:1.172158 17:0.875951 18:-1.248888 19:1.323318 20:-0.355095 21:-1.183806 22:0.195381 23:1.420213 24:0.245885 25:-0.892586 26:0.923049 27:0.432980 28:0.206934 29:-0.515063 30:-0.575713 31:-0.595783 32:-0.610969 33:-0.657095 34:0.309128 35:1.667633 36:0.821188 37:-0.561334 38:0.570039 39:-1.170624 40:-1.294219 41:-0.214176 42:-0.353965 43:-0.287560 44:1.303193 45:1.439900 46:1.379650 47:0.622499 48:0.017753 49:-0.908666 50:1.054836 51:-0.404614 52:-0.150792 53:0.880136 54:0.302689 55:0.026579 56:-1.951454 57:-0.502690 58:0.459037 59:1.664875 60:0.247564 61:-0.669006 62:-0.191511 63:0.359243 64:0.060012 65:1.376063
-1 1:0.491998 2:0.803358 3:1.647062 4:-0.257608 5:-0.131364 6:-0.774094 7:-0.349183 8:0.184537 9:-0.431010 10:0.080338 11:-1.090841 12:-0.075086 13:-1.279689 14:1.360748 15:0.736112 16:-0.495621 17:-0.768311 18:-0.735613 19:0.736778 20:-0.417683 21:-0.694086 22:-1.224638 23:0.176600 24:0.684363 25:-0.889050 26:0.099223 27:1.840294 28:-0.957727 29:-0.176886 30:-1.050924 31:0.829275 32:0.541659 33:-0.153406 34:-0.404054 35:-0.095010 36:-0.489130 37:0.471591 38:1.561477 39:1.000463 40:-0.612258 41:0.408306 42:-0.521515 43:0.764036 44:-1.669497 45:-0.727645 46:0.519441 47:-0.465343 48:-0.743684 49:-0.298200 50:-2.516891 51:-1.196076 52:0.862197 53:1.929028 54:-0.894051 55:-0.978552 56:-0.447881 57:-0.157426 58:0.199932 59:-1.196871 60:-0.432833 61:-2.225921 62:-0.553878 63:-0.134948 64:-0.572029 65:-0.077601
-1 1:0.315128 2:0.529889 3:-0.508106 4:-2.059122 5:-0.266807 6:-0.503895 7:1.013180 8:0.284577 9:1.723549 10:-0.378849 11:2.349380 12:0.162556 13:-1.812046 14:0.804612 15:0.262814 16:0.727835 17:1.219509 18:-0.763151 19:1.857009 20:-0.378596 21:1.831700 22:0.138932 23:1.337842 24:0.185136 25:0.509016 26:-1.395236 27:0.362388 28:0.159272 29:-1.048733 30:-0.202904 31:1.189224 32:0.155588 33:0.566951 34:0.528267 35:0.370439 36:1.451287 37:0.885598 38:-1.280107 39:-1.331164 40:-0.805145 41:0.145190 42:1.105533 43:-0.153956 44:0.701855 45:0.514042 46:-0.867005 47:-0.339214 48:-0.480190 49:-0.855597 50:1.052493 51:0.922041 52:0.612842 53:-0.603973 54:-2.032408 55:-2.207493 56:-0.857596 57:-0.485110 58:-0.784200 59:-0.671129 60:1.409811 61:0.808569 62:-1.796971 63:-0.424365 64:0.139764 65:-0.100048
-1 1:0.520738 2:1.837624 3:-1.176820 4:1.437377 5:1.587692 6:-0.380217 7:-0.114604 8:0.022000 9:0.335299 10:0.768635 11:0.957085 12:-0.552254 13:-0.389710 14:2.062894 15:0.208989 16:0.338055 17:-0.271355 18:0.998507 19:0.496729 20:0.285590 21:-0.091992 22:0.574472 23:1.481221 24:0.491781 25:0.066408 26:1.066615 27:1.198124 28:0.900062 29:0.824564 30:-1.366265 31:1.207591 32:-1.529015 33:-0.090747 34:-1.904414 35:-0.769380 36:0.981310 37:-0.623401 38:-1.044010 39:-0.825781 40:-0.316758 41:-0.878329 42:-0.111735 43:1.267809 44:0.391953 45:-0.862697 46:-1.246190 47:1.320410 48:1.500249 49:2.155595 50:1.259348 51:-0.062896 52:1.474261 53:1.576670 54:-1.866072 55:-0.908858 56:-0.448664 57:-2.308282 58:-0.222594 59:0.001176 60:0.538152 61:-0.815292 62:1.930305 63:0.864650 64:0.812193 65:0.037301
-1 1:0.701660 2:1.221063 3:1.554379 4:0.089309 5:-0.061494 6:1.247120 7:1.191897 8:0.271072 9:1.713762 10:-0.413804 11:-0.460180 12:-0.439890 13:-0.852337 14:0.340143 15:1.694192 16:0.079693 17:0.168938 18:-0.394816 19:0.643330 20:-0.556776 21:-0.124358 22:1.537154 23:-0.489581 24:-0.987657 25:-0.005351 26:-1.256913 27:0.648459 28:0.813155 29:-0.035261 30:0.364085 31:-0.278902 32:-0.783859 33:-2.134484 34:0.860915 35:-0.196644 36:-0.001096 37:0.141873 38:1.155855 39:1.418906 40:-1.713305 41:-0.433604 42:-0.425995 43:2.394660 44:0.884922 45:-1.963211 46:0.558876 47:-0.482350 48:-0.296099 49:1.725301 50:0.211928 51:0.181535 52:1.863208 53:-0.764978 54:0.001710 55:0.023735 56:0.711220 57:0.362518 58:-0.263536 59:0.003416 60:1.162424 61:0.620498 62:0.764515 63:0.374871 64:-2.994491 65:-0.170029
-1 1:0.000110 2:-0.128112 3:2.380383 4:-0.791513 5:0.435779 6:0.531111 7:-1.296480 8:2.231896 9:-1.081318 10:-0.596304 11:-0.311505 12:1.412365 13:2.068167 14:1.313992 15:0.328013 16:0.628901 17:-0.031735 18:0.207941 19:-1.124287 20:-0.481315 21:1.104182 22:0.058771 23:1.055675 24:-0.345787 25:1.072702 26:-1.721539 27:1.172773 28:0.130437 29:0.808435 30:-0.828877 31:-0.771122 32:-1.155822 33:-0.803052 34:-1.616846 35:-0.704084 36:1.302224 37:-0.125062 38:0.142608 39:-2.477781 40:0.069137 41:-1.140312 42:-0.080868 43:0.880974 44:0.829690 45:-0.861498 46:1.829299 47:-0.061220 48:-0.868102 49:2.311188 50:0.118342 51:0.320028 52:1.747024 53:0.499568 54:1.192406 55:0.843505 56:-0.755902 57:0.067698 58:1.389093 59:-0.469522 60:0.128791 61:-1.183706 62:0.875838 63:3.145551 64:-0.466929 65:-0.018159
-1 1:1.303522 2:0.123090 3:-1.006146 4:0.066057 5:-0.652690 6:-0.405970 7:-1.957260 8:0.424509 9:-0.023563 10:0.375701 11:0.226215 12:1.914473 13:0.399467 14:-0.055109 15:-1.517069 16:-0.337635 17:-1.659411 18:0.820709 19:-0.289712 20:-0.521768 21:1.949098 22:-1.032232 23:0.154115 24:0.247745 25:0.598708 26:1.224019 27:-0.216550 28:-1.375859 29:0.274579 30:-0.888171 31:-0.927779 32:0.616785 33:2.155472 34:0.162466 35:-0.513281 36:-1.495176 37:-0.202539 38:-0.251920 39:-0.356550 40:-1.998723 41:0.630907 42:-0.775118 43:-0.647045 44:-0.333883 45:1.064412 46:-0.127508 47:0.366240 48:-1.453135 49:-1.423673 50:0.819765 51:0.070413 52:-1.411266 53:-0.277837 54:2.780155 55:1.846385 56:-0.821188 57:-1.426418 58:0.288806 59:1.112736 60:1.041474 61:1.760221 62:0.535615 63:0.337926 64:0.351881 65:-0.099062
-1 1:-0.622477 2:1.099550 3:-0.341781 4:0.023459 5:-0.069144 6:-0.115443 7:-0.467591 8:1.093471 9:-0.489654 10:-0.249354 11:0.527893 12:-0.406310 13:-1.738043 14:0.548598 15:-0.576914 16:-0.189803 17:-0.146449 18:-0.092750 19:-0.410507 20:-1.731299 21:1.773348 22:-1.757819 23:-0.644896 24:0.279868 25:0.073944 26:-0.604386 27:-0.798193 28:0.236000 29:0.851634 30:0.489381 31:0.167232 32:0.989253 33:-0.235935 34:-0.156049 35:1.169605 36:0.927656 37:0.347254 38:0.292402 39:0.009313 40:-0.627244 41:0.083956 42:-0.157140 43:-0.065558 44:0.826810 45:-0.036385 46:0.828235 47:0.225921 48:-0.524922 49:0.830753 50:0.935868 51:-0.005457 52:1.361677 53:-0.031246 54:-1.600155 55:-1.047421 56:-0.426869 57:0.709261 58:2.396794 59:-0.357978 60:1.055763 61:0.414858 62:-0.998338 63:-0.115073 64:-1.316761 65:1.365161
-1 1:2.034120 2:-0.737120 3:-0.528408 4:1.471297 5:-0.799148 6:2.021563 7:-0.663475 8:2.264002 9:1.915352 10:0.737926 11:0.658105 12:1.360982 13:0.106800 14:-1.469185 15:1.253996 16:1.305296 17:0.126198 18:-0.015273 19:-0.076703 20:-0.278102 21:-1.243335 22:2.913062 23:-1.467650 24:0.470485 25:-0.362779 26:1.399094 27:-1.065721 28:0.058729 29:-0.944746 30:1.086709 31:1.224404 32:-1.658828 33:-1.452652 34:-0.203259 35:1.803515 36:-0.844271 37:0.632260 38:1.247138 39:0.236751 40:-0.243108 41:-1.453526 42:1.628514 43:-1.306367 44:-0.648446 45:0.605664 46:-0.644947 47:0.568355 48:0.053114 49:2.007272 50:1.078377 51:0.630889 52:0.412932 53:-1.233653 54:0.625080 55:-0.870587 56:-1.067778 57:-0.172531 58:0.703299 59:-0.702909 60:-0.162503 61:-1.521007 62:0.054516 63:-0.954270 64:1.201879 65:0.514950
-1 1:-0.362118 2:-1.685471 3:2.254134 4:0.179361 5:-0.879538 6:1.466988 7:0.921753 8:0.629334 9:-0.514211 10:-0.680842 11:0.996689 12:0.495250 13:1.195676 14:0.181956 15:0.444183 16:-0.164447 17:0.533905 18:0.206603 19:0.635238 20:0.894076 21:1.124523 22:1.296819 23:-1.006582 24:-0.905815 25:-0.800575 26:-0.188700 27:-0.859777 28:-1.214093 29:1.047793 30:-0.772860 31:-1.548850 32:-0.579724 33:1.520695 34:1.741913 35:1.667571 36:-0.480326 37:-1.010791 38:0.144569 39:1.944063 40:-0.806775 41:-0.167014 42:0.970921 43:0.723149 44:-1.084883 45:0.456448 46:1.466174 47:-1.236189 48:0.990931 49:1.727200 50:-1.231840 51:-0.403520 52:1.459574 53:1.061077 54:-0.156715 55:0.554010 56:-0.505732 57:-0.132954 58:0.956130 59:-0.057990 60:-0.522106 61:1.525304 62:0.994060 63:0.339412 64:0.974687 65:-0.009513
-1 1:-0.591363 2:0.600610 3:1.968549 4:0.243819 5:0.635513 6:0.394092 7:0.060271 8:-1.795525 9:-0.065409 10:-0.516059 11:-0.681150 12:0.477474 13:0.199150 14:-0.426334 15:-0.988540 16:0.541959 17:0.134132 18:1.252203 19:1.849591 20:0.775603 21:-0.501218 22:-1.818804 23:-0.347035 24:-2.530202 25:-0.330577 26:1.273752 27:0.053503 28:-1.044918 29:-1.153106 30:-0.337939 31:-1.419829 32:-1.074308 33:0.042357 34:0.293790 35:-0.948914 36:1.231551 37:-0.064662 38:-0.161889 39:0.725831 40:-1.532033 41:-0.576499 42:0.910446 43:0.541658 44:0.593384 45:1.550053 46:-0.925193 47:0.527732 48:-1.401902 49:1.198797 50:1.114116 51:1.408718 52:1.410755 53:-0.534481 54:0.273159 55:0.485509 56:-0.278229 57:-0.524851 58:1.364791 59:0.417758 60:0.706346 61:-1.029051 62:-0.733412 63:-0.057547 64:1.574334 65:-0.337539
-1 1:-0.502638 2:-0.077484 3:0.349074 4:-0.240500 5:-0.644916 6:-1.400621 7:0.420893 8:-0.084025 9:1.302920 10:0.139817 11:-1.074012 12:0.063250 13:-1.975655 14:0.051699 15:1.310928 16:0.005698 17:1.248378 18:-0.697492 19:-0.641917 20:0.382741 21:-0.926134 22:-0.112080 23:0.330618 24:-0.997479 25:1.945298 26:-0.745970 27:1.587478 28:0.054977 29:0.561765 30:0.882540 31:-0.414784 32:0.360999 33:-0.074370 34:-0.874310 35:1.087403 36:-1.004807 37:-1.188320 38:0.152312 39:-1.101896 40:-1.189560 41:-0.066720 42:-0.821388 43:0.574510 44:-0.445067 45:-1.020049 46:-1.178332 47:0.808737 48:0.773504 49:-0.810367 50:-2.305231 51:-1.693621 52:-0.600864 53:0.553892 54:0.167986 55:-1.209968 56:-1.705654 57:-0.740305 58:1.761719 59:0.187174 60:-0.438929 61:0.568013 62:0.472893 63:-0.802122 64:0.408735 65:1.148272
-1 1:-1.390440 2:-0.206944 3:0.635557 4:0.105384 5:1.959249 6:1.209259 7:-0.188473 8:-0.292785 9:0.398684 10:0.890317 11:0.548399 12:-1.224558 13:0.075939 14:0.708117 15:0.247351 16:0.653765 17:1.028170 18:0.328634 19:-0.716631 20:-0.540724 21:-0.781688 22:-0.528886 23:-1.094477 24:3.525125 25:-0.612095 26:-0.621317 27:-0.085380 28:-2.226285 29:-1.375592 30:0.815237 31:0.191250 32:-1.386441 33:-0.000525 34:-0.707854 35:-1.092671 36:0.919032 37:0.394435 38:0.988975 39:-0.432846 40:-0.692236 41:0.796347 42:1.101926 43:-0.794065 44:0.227887 45:-0.955649 46:1.474047 47:0.865251 48:-0.121546 49:-0.207686 50:0.418021 51:0.281268 52:2.463813 53:0.918483 54:-2.586351 55:0.301548 56:0.595077 57:-1.835613 58:1.872356 59:0.154399 60:-2.532268 61:1.132034 62:-0.002416 63:0.670935 64:-1.559379 65:-0.775433
-1 1:1.080892 2:0.063601 3:-0.927013 4:-1.016881 5:-0.710292 6:0.304265 7:-0.104076 8:-0.702693 9:3.221525 10:-0.298082 11:-0.674721 12:-1.775835 13:0.250893 14:0.881322 15:-0.384863 16:0.142804 17:1.273125 18:0.590465 19:-1.711739 20:-1.039252 21:-0.254941 22:1.033813 23:-0.202414 24:0.107154 25:-1.613251 26:0.077337 27:-0.615828 28:0.462415 29:-0.359486 30:-0.362977 31:1.116127 32:0.364238 33:1.158076 34:-1.289285 35:-0.572952 36:1.234167 37:-0.964484 38:1.253321 39:-0.045711 40:-1.142968 41:-0.167449 42:-0.897101 43:0.197358 44:1.580350 45:-0.581590 46:-0.098075 47:0.347705 48:-1.296204 49:0.219571 50:-0.991865 51:0.601222 52:-0.242384 53:-0.140711 54:0.359018 55:-0.042637 56:1.370969 57:-0.531640 58:-0.867727 59:-1.214633 60:0.706065 61:-0.811500 62:-1.031280 63:-0.073405 64:-0.665951 65:1.623326
-1 1:0.329414 2:-1.258253 3:0.240177 4:0.263478 5:0.481728 6:1.246665 7:2.602547 8:-0.591676 9:0.926615 10:0.656095 11:0.713862 12:-1.020561 13:0.599788 14:-2.450056 15:0.058526 16:0.638309 17:0.038124 18:-1.333992 19:0.386797 20:-0.289445 21:0.584480 22:1.532620 23:-0.231066 24:-1.468735 25:1.723405 26:-0.186670 27:-0.473642 28:0.455732 29:1.383991 30:-1.782809 31:-0.743908 32:1.645463 33:-0.691238 34:1.486911 35:-0.594773 36:-1.293213 37:-0.085409 38:0.186808 39:0.445876 40:1.325290 41:0.459215 42:1.025252 43:-1.214469 44:-1.376167 45:-1.206914 46:-0.147394 47:0.475370 48:2.407313 49:0.401715 50:0.309562 51:1.663884 52:1.710207 53:0.585217 54:0.408098 55:0.846470 56:-0.799842 57:-0.326210 58:-0.042579 59:0.178207 60:-0.158439 61:-0.145906 62:0.116315 63:0.691240 64:-0.746767 65:-0.080256
-1 1:1.845896 2:2.529876 3:-0.756942 4:0.405877 5:-0.594665 6:-0.578409 7:0.206592 8:-0.410149 9:0.329664 10:0.998083 11:1.134605 12:-0.017651 13:0.529057 14:1.111389 15:0.997307 16:-0.225721 17:0.909256 18:-0.371732 19:-1.515249 20:0.059057 21:0.066719 22:-0.703488 23:-0.796422 24:-0.140112 25:1.054460 26:-0.036364 27:0.718060 28:0.069838 29:0.388098 30:1.825836 31:-0.322837 32:-1.285955 33:0.816224 34:-0.349908 35:-0.916223 36:-2.299868 37:0.391354 38:-0.142907 39:-0.126910 40:1.966945 41:-0.348844 42:1.044821 43:0.409881 44:1.632853 45:0.463886 46:-0.461257 47:-0.828875 48:0.384659 49:0.286556 50:0.607994 51:-0.674824 52:0.405644 53:1.010713 54:-0.809416 55:1.135754 56:0.681008 57:0.503898 58:-0.456346 59:-0.652951 60:-1.446010 61:-0.212886 62:0.455920 63:0.356279 64:-0.425970 65:-2.462135
-1 1:-0.786160 2:-0.570313 3:-0.287502 4:-0.000725 5:-1.449784 6:-0.659915 7:0.341633 8:-1.005789 9:-0.430439 10:0.082219 11:-0.543437 12:-1.010566 13:3.186183 14:-1.301413 15:0.980132 16:-0.593395 17:-0.443868 18:-0.414407 19:0.382232 20:-0.197629 21:1.391638 22:-0.149745 23:0.887160 24:-0.632324 25:-0.072757 26:-1.073141 27:-1.097893 28:1.221919 29:0.338728 30:1.933953 31:-2.523363 32:-0.263934 33:-1.112645 34:-1.867228 35:-0.688889 36:0.486834 37:-0.973651 38:0.329680 39:0.562543 40:-0.210817 41:0.551106 42:0.010797 43:-0.307427 44:-0.166634 45:-2.559811 46:1.043081 47:0.560360 48:0.232396 49:-0.099215 50:0.273977 51:0.243300 52:1.479211 53:1.695133 54:-0.610861 55:-1.554250 56:1.095367 57:1.177211 58:-2.461270 59:-0.109009 60:2.662173 61:-0.734744 62:0.257794 63:-0.302535 64:-0.629836 65:0.782080
-1 1:1.225543 2:0.116975 3:-0.048685 4:1.264010 5:0.258231 6:-0.623123 7:-0.844872 8:-0.719544 9:-0.904304 10:0.009949 11:0.372529 12:-0.846451 13:0.668580 14:-1.014639 15:0.158417 16:0.276296 17:1.069357 18:-0.578229 19:-0.421632 20:0.210893 21:-0.195103 22:-0.114013 23:-0.224786 24:1.592133 25:-0.498683 26:1.004061 27:-2.457356 28:-1.074997 29:-0.497146 30:0.433821 31:1.088781 32:0.344050 33:0.620060 34:0.040166 35:0.915564 36:1.645154 37:1.878978 38:0.020295 39:-0.001506 40:-1.635172 41:-0.162723 42:0.198704 43:-0.765564 44:0.478348 45:-1.879188 46:0.171490 47:0.888256 48:1.891689 49:-0.031902 50:-0.683927 51:-0.405451 52:0.296176 53:-1.299235 54:-0.930396 55:-1.195018 56:-0.262697 57:-2.215043 58:0.087429 59:3.152250 60:-1.240516 61:-0.102483 62:-0.421769 63:1.079070 64:-0.219269 65:-0.059009
-1 1:0.325989 2:-0.051164 3:0.482058 4:-0.666018 5:-1.165652 6:-0.753146 7:-0.939685 8:-1.534395 9:-0.897095 10:2.676672 11:1.516070 12:1.835607 13:-0.363706 14:-0.168658 15:-0.482040 16:-0.626273 17:1.796710 18:-0.378354 19:0.911484 20:-0.259048 21:-0.364221 22:0.804816 23:-0.139776 24:0.683414 25:-1.403632 26:0.056551 27:1.596597 28:1.364538 29:-0.457196 30:1.086632 31:0.949362 32:0.033863 33:-1.643704 34:-1.853899 35:-0.633956 36:-0.052635 37:-0.769399 38:-1.111269 39:1.198158 40:2.007407 41:-0.108724 42:-0.327614 43:-1.902701 44:0.486505 45:-0.786613 46:0.883867 47:0.390555 48:1.256537 49:-0.490597 50:0.572132 51:-0.217162 52:-0.191565 53:0.516224 54:0.143951 55:-0.762874 56:0.454393 57:0.717506 58:-0.176975 59:-1.767139 60:0.747901 61:-0.390741 62:-0.549329 63:-0.900577 64:0.468616 65:-0.627524
-1 1:0.972645 2:-0.276354 3:0.501442 4:2.008237 5:0.664682 6:0.025705 7:-0.215680 8:0.928944 9:0.305105 10:0.474018 11:0.723464 12:-0.363329 13:0.875282 14:-1.382328 15:0.653247 16:-0.307707 17:0.790821 18:0.461903 19:-1.324101 20:-0.050875 21:-1.208870 22:1.770969 23:0.301393 24:-0.092246 25:-0.891532 26:-0.363777 27:0.995714 28:-0.830241 29:-1.009554 30:0.806034 31:0.564827 32:-2.778988 33:-0.453368 34:-0.532583 35:-0.726026 36:0.201606 37:-0.112191 38:0.570020 39:1.808406 40:0.396715 41:0.836458 42:-1.353977 43:0.540734 44:-0.103219 45:0.444061 46:-0.402580 47:-0.148452 48:0.221032 49:-0.317960 50:0.252825 51:-1.077090 52:-0.510220 53:0.462244 54:-0.640591 55:-0.568099 56:0.335321 57:0.327560 58:0.115683 59:0.735611 60:2.142440 61:0.624398 62:2.324876 63:-0.211589 64:-0.929917 65:-1.022592
-1 1:-0.187013 2:0.115132 3:1.051605 4:-0.489701 5:-0.434553 6:0.240506 7:0.358914 8:-1.307058 9:-1.054639 10:-0.387131 11:-1.231104 12:-1.758506 13:0.154390 14:0.921633 15:-1.016712 16:-0.950999 17:-0.374586 18:0.431825 19:-1.107101 20:1.593491 21:-1.408691 22:-0.103144 23:0.457634 24:-0.026716 25:1.278580 26:3.089656 27:-0.030361 28:3.283053 29:-0.510110 30:0.822490 31:1.081674 32:0.879230 33:0.100422 34:0.146798 35:0.984805 36:-0.850799 37:-1.438163 38:-0.310427 39:0.196784 40:0.198693 41:0.642038 42:-1.552476 43:0.971326 44:0.209402 45:-1.534467 46:-0.686041 47:1.879699 48:0.667137 49:0.963291 50:-0.597632 51:0.692392 52:1.380392 53:1.013358 54:1.073821 55:-0.815274 56:-0.941013 57:-0.352846 58:-1.104461 59:-0.024996 60:-0.926685 61:-0.194516 62:-1.823574 63:1.223599 64:1.148154 65:1.328193
-1 1:0.846509 2:1.660817 3:0.577260 4:-1.009157 5:-0.617671 6:0.255288 7:0.713946 8:0.357421 9:0.246571 10:-0.083397 11:0.808761 12:0.155957 13:-1.075837 14:-0.152180 15:1.966874 16:0.818920 17:0.793683 18:0.346229 19:1.415973 20:1.523038 21:-1.145894 22:-0.176133 23:0.177952 24:-0.864766 25:-0.221739 26:-1.725318 27:-0.123161 28:-0.971929 29:0.579284 30:-0.341595 31:-0.365410 32:-0.457257 33:0.818574 34:0.898825 35:-0.958272 36:0.461113 37:0.709711 38:0.261055 39:-0.410720 40:0.626680 41:0.504606 42:-1.411302 43:-0.571420 44:-1.251442 45:-0.370490 46:1.757662 47:0.880381 48:0.761106 49:2.456814 50:0.364792 51:-1.829347 52:-1.823971 53:-0.980219 54:0.438631 55:1.106493 56:-0.598849 57:2.563548 58:-0.171268 59:-1.690374 60:0.745520 61:0.990640 62:0.472105 63:0.140667 64:2.127850 65:-2.575513
-1 1:0.974953 2:1.360883 3:-0.783225 4:-0.755532 5:-0.178348 6:0.569094 7:0.851383 8:-0.190226 9:-1.393614 10:1.081741 11:-1.169867 12:0.033577 13:0.720776 14:-0.273403 15:-0.695246 16:0.117128 17:-0.442177 18:-0.588949 19:0.677541 20:-0.164435 21:-0.396953 22:0.410084 23:-1.130339 24:0.526397 25:-0.431664 26:-0.249714 27:-1.068409 28:-1.232567 29:-1.239398 30:1.018783 31:-0.935110 32:1.321360 33:0.695605 34:-0.379328 35:-0.359547 36:-0.493504 37:0.821244 38:0.051431 39:-1.401182 40:1.406907 41:-0.990255 42:0.628107 43:-0.562423 44:0.635441 45:-0.724871 46:-0.100000 47:0.014401 48:-0.718268 49:-1.803657 50:0.475938 51:1.704441 52:-1.332478 53:-1.003441 54:-0.759466 55:-0.235097 56:-0.507791 57:-1.472901 58:1.318830 59:-0.732054 60:-0.537167 61:-0.352950 62:0.160577 63:0.088005 64:-1.197584 65:0.026677
-1 1:0.797910 2:0.414352 3:-0.067791 4:-0.933950 5:1.155976 6:-0.666708 7:0.734525 8:1.178455 9:0.260401 10:1.010288 11:1.065933 12:1.281304 13:0.832573 14:-0.927457 15:-1.697592 16:0.433781 17:0.021234 18:1.518097 19:-0.212836 20:0.960050 21:-1.558800 22:-0.891639 23:0.156951 24:-1.644873 25:0.871079 26:0.043358 27:-0.394566 28:2.057996 29:-1.354575 30:-1.929052 31:-1.504322 32:0.721544 33:0.965026 34:2.339709 35:-0.947436 36:-2.394788 37:-0.044919 38:-1.409494 39:0.572619 40:0.360013 41:1.344156 42:-1.162908 43:0.780612 44:-0.822669 45:-0.051282 46:0.778937 47:1.000808 48:-1.819420 49:-0.601058 50:-0.621862 51:-1.955899 52:1.035814 53:-2.219362 54:-0.756391 55:0.796718 56:0.907103 57:1.907711 58:0.444131 59:0.598940 60:0.117760 61:-0.063235 62:1.676528 63:1.981445 64:1.423891 65:-0.264462
-1 1:-1.116221 2:0.150788 3:-0.753989 4:0.656512 5:1.087027 6:0.410315 7:0.635120 8:-0.954623 9:0.628769 10:-0.519580 11:0.064782 12:-1.918423 13:-1.143550 14:-1.440538 15:-0.463018 16:2.408442 17:-0.851965 18:0.648769 19:0.789585 20:-0.962521 21:1.769560 22:0.356294 23:-2.513541 24:-2.802779 25:-0.542933 26:0.606965 27:-0.226376 28:-0.219377 29:-0.615510 30:-0.407737 31:-1.504623 32:1.179301 33:-1.094240 34:0.406134 35:-0.966605 36:-1.890810 37:1.443293 38:0.908203 39:-1.900334 40:-0.785123 41:0.592986 42:-0.828648 43:-0.121523 44:-0.540931 45:1.559333 46:-0.429700 47:-0.014365 48:0.858004 49:-0.203075 50:-1.133741 51:0.219694 52:0.300019 53:0.998917 54:0.096361 55:-0.693631 56:1.941023 57:1.376805 58:-0.131992 59:-1.779976 60:1.210414 61:0.495711 62:0.292223 63:0.427166 64:0.133509 65:-0.093070
-1 1:-1.638880 2:0.277158 3:0.455854 4:-0.925362 5:0.464482 6:-0.800762 7:-0.493274 8:0.786160 9:0.215417 10:-1.006636 11:1.283990 12:1.224057 13:-1.028599 14:-0.287017 15:-1.485850 16:-0.019498 17:0.608364 18:-1.006476 19:-1.769716 20:0.639752 21:0.928271 22:-1.298194 23:-0.114229 24:1.934889 25:-1.464840 26:1.033051 27:0.377352 28:0.679860 29:0.329305 30:0.133728 31:1.397307 32:-0.044274 33:2.185336 34:0.822316 35:-2.172799 36:-0.566408 37:0.442967 38:-1.049274 39:0.963988 40:1.671067 41:0.975051 42:-0.507163 43:0.025948 44:-0.433019 45:-0.373805 46:-0.414449 47:-0.598834 48:1.864198 49:0.223374 50:0.819644 51:0.909416 52:0.275447 53:1.196535 54:0.240060 55:-0.808044 56:0.592678 57:-0.214236 58:-0.589447 59:0.303657 60:-0.957492 61:-0.225415 62:1.433462 63:-0.787608 64:0.851997 65:-0.472397
-1 1:-1.279632 2:1.641505 3:-0.108212 4:0.806665 5:-0.406638 6:-0.781527 7:-0.958468 8:-1.674804 9:0.744572 10:-0.358908 11:-1.674375 12:0.408056 13:2.303956 14:-1.544878 15:2.128343 16:0.395477 17:0.011863 18:0.646636 19:0.563596 20:1.119486 21:0.788276 22:-0.201816 23:0.056600 24:0.787850 25:0.204205 26:0.273732 27:1.391602 28:-1.750233 29:0.297119 30:0.226161 31:-1.049095 32:1.512579 33:-1.499154 34:-0.559568 35:-0.374692 36:0.471338 37:0.054963 38:1.300864 39:-1.392929 40:-0.211112 41:-0.830269 42:-0.858402 43:0.198903 44:1.651022 45:0.253070 46:-0.891348 47:-0.292777 48:0.233699 49:0.112009 50:-0.315567 51:1.282675 52:1.032236 53:-1.060888 54:-0.387010 55:1.499353 56:2.260918 57:-0.464960 58:-0.032714 59:1.084400 60:2.068338 61:-0.506859 62:-0.008142 63:-0.429593 64:0.039625 65:-0.357580
-1 1:-1.045158 2:-0.035004 3:-1.774360 4:0.500046 5:-0.234234 6:-1.250583 7:1.811392 8:0.074367 9:-0.114951 10:-0.656299 11:-0.520715 12:-1.716893 13:0.878036 14:-0.762749 15:-1.052074 16:-1.410370 17:1.241402 18:-0.336119 19:-0.121770 20:1.522468 21:-1.170976 22:0.068117 23:0.420792 24:1.623720 25:0.147929 26:0.852719 27:0.123780 28:-0.177097 29:-1.030525 30:0.527557 31:-0.858009 32:-0.181095 33:-2.167883 34:0.649396 35:-2.877658 36:-0.203298 37:-0.188591 38:1.886329 39:0.429471 40:1.215123 41:0.071658 42:-1.444731 43:2.068735 44:0.492659 45:-0.722320 46:-0.173210 47:-0.801924 48:-0.707332 49:1.413264 50:-1.298810 51:-0.301759 52:1.436032 53:0.615877 54:0.088323 55:-0.385130 56:0.501719 57:-1.539406 58:-0.394198 59:-0.229940 60:-0.364136 61:-0.230457 62:-1.142245 63:-0.292040 64:0.518700 65:1.480714
-1 1:-1.128632 2:0.233545 3:-0.349745 4:-0.853666 5:0.290223 6:-0.007761 7:-0.294671 8:0.318844 9:-1.519493 10:-0.621522 11:0.924109 12:0.156019 13:0.468667 14:-1.719318 15:0.522748 16:1.828732 17:-0.498779 18:-0.574955 19:0.831289 20:-0.807010 21:-0.041130 22:-0.034780 23:0.870137 24:0.780217 25:0.982720 26:-1.224131 27:1.045017 28:0.197586 29:1.680885 30:0.273645 31:-0.677181 32:-0.249179 33:-0.178949 34:-1.490415 35:1.337475 36:0.877519 37:0.200825 38:-0.860307 39:-1.496367 40:0.567209 41:1.850913 42:0.837833 43:0.550445 44:0.014273 45:-0.305327 46:-0.017403 47:-1.736794 48:0.302522 49:-0.270766 50:-0.897760 51:0.255198 52:-0.715365 53:1.718695 54:1.126403 55:-0.145777 56:1.810015 57:-1.181223 58:0.516985 59:-0.900837 60:0.891109 61:0.190343 62:0.906321 63:-1.594493 64:1.190877 65:-1.207335
-1 1:-1.808936 2:-0.786800 3:1.328348 4:-0.555547 5:0.133055 6:0.823065 7:-2.201793 8:-1.286984 9:-0.356912 10:-0.220305 11:-0.556258 12:0.151819 13:-0.528516 14:0.876401 15:-0.040456 16:0.449835 17:0.018376 18:-0.612347 19:0.282563 20:2.306522 21:-1.036862 22:1.065030 23:-0.588466 24:-0.189640 25:-0.448495 26:0.781387 27:-1.497809 28:-0.701241 29:0.401626 30:-0.166536 31:-0.976517 32:-0.882356 33:-1.246740 34:0.172794 35:1.842418 36:0.758630 37:0.191528 38:-0.027053 39:-0.968027 40:-0.864068 41:-0.768272 42:-1.016260 43:1.509512 44:0.242791 45:0.959649 46:0.163161 47:-0.420642 48:1.356261 49:0.760462 50:-0.617928 51:1.797405 52:0.061740 53:0.649355 54:-0.115614 55:-1.733553 56:1.303472 57:0.715968 58:0.362712 59:-0.354994 60:1.112257 61:-0.469536 62:0.120988 63:0.012048 64:0.644716 65:-0.550370
-1 1:1.093462 2:-0.343801 3:0.086865 4:-0.509848 5:-0.133916 6:-0.238878 7:-1.285267 8:1.375080 9:0.801634 10:1.162958 11:1.057919 12:-0.790953 13:-0.948927 14:-0.866022 15:-0.522204 16:0.672778 17:-1.338391 18:-0.449323 19:-2.048305 20:0.314795 21:-0.864328 22:-1.553169 23:0.180313 24:0.772115 25:0.036757 26:-0.368068 27:0.614678 28:1.185046 29:0.695086 30:0.104514 31:-1.749277 32:-1.592089 33:-3.050046 34:-0.433246 35:0.261646 36:-0.377551 37:-0.345217 38:1.779231 39:0.710686 40:-0.266809 41:-0.192234 42:1.542776 43:-0.247126 44:1.617551 45:-2.022583 46:-0.485260 47:0.348022 48:-0.746959 49:1.344953 50:0.476731 51:0.461356 52:-0.827122 53:1.260088 54:-0.029140 55:0.816746 56:0.812728 57:-0.394042 58:-1.102751 59:1.650756 60:-0.253762 61:-1.009151 62:1.083819 63:-0.855026 64:-0.613489 65:-0.763068
-1 1:-2.478983 2:-0.814250 3:0.592898 4:-0.650432 5:-0.782844 6:-0.342813 7:0.232104 8:-0.415610 9:-0.717353 10:1.417772 11:0.457530 12:-0.311181 13:2.137867 14:1.234915 15:-0.688658 16:1.453461 17:0.145062 18:-0.410638 19:-1.444876 20:-0.574353 21:0.189404 22:-1.611122 23:0.068558 24:-1.916207 25:1.009341 26:1.298245 27:0.894438 28:1.028875 29:0.180231 30:0.793091 31:-0.704737 32:-0.659905 33:0.505212 34:1.499602 35:0.948200 36:-0.640174 37:0.932346 38:0.712784 39:-1.839538 40:0.023187 41:-0.015450 42:-0.669340 43:-0.317493 44:-0.666345 45:-1.289799 46:-0.004530 47:0.773552 48:-0.389953 49:0.660041 50:-0.394703 51:1.568235 52:-0.037786 53:-0.235607 54:-1.641744 55:-0.042015 56:-0.826191 57:-0.519470 58:-0.344403 59:-0.252466 60:0.734708 61:0.192176 62:0.507929 63:-0.117244 64:-1.034316 65:1.188500
-1 1:1.589080 2:0.871969 3:1.578043 4:0.463877 5:1.098279 6:-0.325298 7:0.824749 8:0.062453 9:0.893784 10:2.388977 11:-0.378224 12:-0.525926 13:-0.415905 14:1.183086 15:1.366266 16:-0.019172 17:-1.724729 18:-0.158514 19:-1.001784 20:1.363950 21:-0.573764 22:0.781256 23:-1.012477 24:0.039053 25:-1.296784 26:0.348192 27:-1.885306 28:-1.588601 29:-2.065243 30:0.286217 31:-1.744071 32:2.048844 33:1.132442 34:-0.479727 35:-0.792859 36:-2.038426 37:0.585519 38:0.087534 39:0.947180 40:1.021951 41:-0.001379 42:0.659871 43:0.981095 44:0.019503 45:0.106817 46:-0.346047 47:-1.501630 48:-0.870788 49:0.373932 50:0.874473 51:1.445918 52:-0.689898 53:0.965624 54:0.532058 55:0.135018 56:-1.213484 57:-1.610886 58:-1.105839 59:-0.539424 60:-2.727132 61:1.198939 62:1.134715 63:0.248351 64:1.037331 65:0.457212
-1 1:0.105376 2:-0.052509 3:1.651580 4:-0.304646 5:-0.226560 6:-1.337627 7:-0.026689 8:-0.293309 9:0.318838 10:-0.533903 11:-0.368323 12:0.010353 13:-1.678869 14:-1.161496 15:-0.583339 16:-0.697084 17:-0.429191 18:-0.474827 19:0.462438 20:0.167453 21:-0.058626 22:0.981111 23:-0.738218 24:1.146315 25:0.496560 26:0.276104 27:-0.210515 28:-1.745294 29:0.245025 30:0.394947 31:0.226594 32:-0.261853 33:-0.037069 34:1.701821 35:1.159960 36:1.184275 37:-1.003060 38:0.827593 39:0.649468 40:0.357751 41:-0.541858 42:0.143046 43:-0.705902 44:-0.109911 45:-1.460709 46:-1.044209 47:0.706792 48:0.215027 49:0.596702 50:-1.667150 51:-0.848269 52:0.260425 53:0.096416 54:2.927688 55:0.609855 56:-0.738555 57:-0.087156 58:-0.069306 59:0.486810 60:-0.505562 61:1.342280 62:-0.110654 63:0.454257 64:0.939585 65:0.376230
-1 1:-0.993418 2:1.544265 3:-0.062681 4:0.004660 5:1.247338 6:-1.693604 7:-0.369857 8:1.250537 9:-1.089066 10:0.476284 11:-0.306539 12:1.019103 13:0.233789 14:1.146080 15:-0.241065 16:-0.073472 17:0.326493 18:2.039119 19:-0.117137 20:2.178039 21:-0.545522 22:0.496394 23:-0.320761 24:-0.271080 25:1.456371 26:-0.035355 27:0.166436 28:-0.105956 29:0.408490 30:-0.525863 31:-0.278520 32:1.197963 33:-0.007707 34:-0.343841 35:-0.248433 36:-0.193213 37:-0.380932 38:-1.717032 39:1.211015 40:-0.183895 41:-1.010599 42:0.773548 43:-0.266649 44:0.950300 45:-0.120600 46:-0.178760 47:0.759794 48:-0.443152 49:0.830805 50:0.549267 51:0.448729 52:-1.119847 53:-0.644256 54:-0.941271 55:-0.870842 56:1.389179 57:-0.678149 58:1.566223 59:0.052065 60:0.631139 61:1.232252 62:-0.873800 63:1.200227 64:-1.213812 65:-0.519004
-1 1:-1.693031 2:-0.967203 3:0.195698 4:0.649395 5:0.728524 6:-0.730053 7:0.039518 8:-1.757386 9:0.595582 10:-0.167636 11:-0.449175 12:-1.309764 13:-1.547209 14:0.287090 15:-1.584581 16:-1.389418 17:-1.936046 18:-0.810610 19:-1.497461 20:-1.038781 21:1.983557 22:0.809601 23:1.077979 24:-2.343190 25:0.037062 26:-0.189299 27:0.699085 28:-0.507367 29:1.710497 30:0.740476 31:0.036646 32:0.645444 33:1.035027 34:-1.070219 35:-0.705346 36:-1.207732 37:-0.003680 38:-0.870774 39:0.879181 40:-0.109735 41:1.886237 42:-1.093915 43:0.253621 44:-0.902279 45:-0.602204 46:0.562384 47:-0.079210 48:0.605773 49:-0.273842 50:0.221388 51:0.916723 52:0.066172 53:0.681941 54:-2.168395 55:0.995297 56:0.654323 57:1.445779 58:0.474701 59:0.128662 60:0.515475 61:0.785398 62:-1.140993 63:-1.269944 64:1.632159 65:-0.690216
-1 1:-2.739542 2:-0.439970 3:0.161405 4:-0.816936 5:-0.316912 6:0.433928 7:2.050054 8:1.974040 9:-0.664509 10:0.574142 11:-0.743662 12:0.429064 13:-0.868986 14:-0.152573 15:2.251651 16:0.805892 17:-1.680767 18:-0.030961 19:-1.144212 20:-0.444735 21:0.302217 22:1.271382 23:-0.179498 24:-0.531614 25:-0.993031 26:1.206576 27:-1.217785 28:2.289176 29:0.120333 30:-0.251244 31:-0.495212 32:-0.434253 33:0.769892 34:-0.226374 35:0.362386 36:0.031015 37:2.083231 38:-0.041735 39:1.506220 40:0.158050 41:0.344824 42:-1.785138 43:-0.189364 44:-0.178241 45:-0.067625 46:0.084715 47:-0.548620 48:0.755664 49:-0.930155 50:-1.459919 51:-2.355031 52:-0.449186 53:1.813170 54:0.279242 55:-0.187848 56:-0.373903 57:0.199791 58:-0.497660 59:-0.236140 60:-0.773602 61:-1.856098 62:0.246125 63:-0.534934 64:0.682163 65:0.280264
-1 1:0.179612 2:-1.196030 3:-1.807920 4:0.222943 5:-1.732764 6:-1.927729 7:-0.894062 8:0.455390 9:0.559083 10:-0.550181 11:0.260756 12:0.767084 13:-0.624880 14:0.079785 15:0.311639 16:0.393498 17:0.497184 18:0.332144 19:-0.091614 20:-0.980162 21:1.380173 22:-2.110976 23:0.553850 24:1.050894 25:-0.425822 26:0.897205 27:0.387491 28:-1.154107 29:1.046829 30:0.033951 31:-1.336121 32:0.202971 33:-0.358402 34:-1.274071 35:0.160002 36:-1.485024 37:-0.506061 38:1.001217 39:0.142866 40:-0.500516 41:0.523168 42:-0.774439 43:1.805830 44:1.097893 45:-0.669570 46:2.005684 47:1.513489 48:1.053701 49:0.419288 50:-0.934474 51:0.484079 52:-0.653000 53:0.628828 54:-1.651094 55:0.474130 56:-0.032196 57:-0.229341 58:-0.847409 59:-0.280354 60:-0.166014 61:0.939464 62:-0.525612 63:0.219067 64:0.449350 65:-1.809235
-1 1:0.048203 2:-0.748705 3:-0.581928 4:-0.500653 5:0.857708 6:0.876295 7:1.370522 8:-1.948738 9:0.352309 10:2.242613 11:-1.106920 12:-0.999129 13:-2.042014 14:0.281974 15:-1.070294 16:-0.351194 17:-0.462300 18:-0.697624 19:0.766469 20:0.200989 21:0.733857 22:0.418728 23:-1.312189 24:-0.330890 25:1.231817 26:0.391588 27:-0.760096 28:1.471122 29:0.292090 30:0.752602 31:-0.855602 32:-0.800972 33:-0.514311 34:-0.559914 35:1.064780 36:0.678096 37:-0.186748 38:0.552482 39:0.089353 40:1.825567 41:-0.722133 42:0.908239 43:-1.123447 44:-1.034014 45:1.277956 46:1.919502 47:0.239585 48:0.222197 49:-1.171132 50:-2.793589 51:0.973997 52:1.395692 53:0.598937 54:-0.518430 55:-1.401028 56:0.254628 57:0.745454 58:0.895686 59:0.195645 60:0.628737 61:-0.082590 62:-0.930222 63:1.166029 64:0.673171 65:0.213050
-1 1:-0.048307 2:1.009711 3:-2.130213 4:0.486863 5:-2.671743 6:1.182586 7:0.481405 8:0.709946 9:0.929044 10:-0.717972 11:-1.055377 12:-0.947555 13:-0.876789 14:-1.706501 15:0.868466 16:-0.574628 17:2.303607 18:-0.374114 19:-0.469740 20:-0.299180 21:0.731438 22:0.331298 23:-0.358940 24:0.879417 25:-0.612099 26:-0.926718 27:-0.913288 28:0.796598 29:-0.100449 30:-0.094767 31:-0.074201 32:0.318874 33:-0.563385 34:0.480503 35:-0.221257 36:0.664823 37:0.804701 38:0.528470 39:-0.024613 40:0.206624 41:0.608405 42:0.466365 43:-1.936192 44:1.409811 45:-0.700525 46:1.089436 47:1.132971 48:0.850391 49:-0.320203 50:1.073959 51:-0.229734 52:0.424258 53:0.107261 54:-0.949992 55:0.460237 56:0.032966 57:0.507976 58:0.505916 59:-0.434343 60:0.120134 61:-0.100301 62:-0.255717 63:-1.556667 64:0.590943 65:1.825824
-1 1:0.310114 2:-0.429844 3:-1.256256 4:-0.243668 5:1.579290 6:-0.845110 7:0.377181 8:1.382083 9:0.744022 10:-1.904447 11:-0.998826 12:-0.956687 13:0.492043 14:-0.473747 15:0.060067 16:-0.361969 17:-0.372604 18:1.167327 19:0.651315 20:0.672667 21:0.808814 22:-0.022938 23:1.510527 24:-0.036824 25:-2.426819 26:1.468907 27:-0.581419 28:-0.158281 29:1.639079 30:0.209458 31:0.429246 32:-1.486894 33:0.686823 34:-0.654653 35:-0.627914 36:-0.204348 37:1.379881 38:1.036056 39:0.222647 40:-0.812311 41:0.985273 42:-0.384764 43:1.315396 44:-0.645585 45:-0.268225 46:1.736020 47:-0.095207 48:-1.511972 49:0.596698 50:0.337851 51:0.523983 52:-0.398601 53:0.654725 54:-3.045276 55:-0.128382 56:0.993016 57:-1.670076 58:0.992084 59:-1.167972 60:0.390503 61:-1.097256 62:1.495967 63:1.938305 64:-1.448922 65:1.334352
-1 1:-1.087462 2:0.913059 3:2.314318 4:-0.718446 5:-0.504547 6:0.433495 7:0.356520 8:1.863372 9:1.722197 10:1.745969 11:0.723148 12:1.096777 13:0.940833 14:1.138772 15:1.684714 16:-0.004805 17:1.463509 18:-0.203361 19:0.646076 20:-0.446634 21:0.767297 22:1.377942 23:-0.038310 24:0.400234 25:-0.046399 26:-0.088466 27:-1.694815 28:1.544629 29:-0.887120 30:-0.122888 31:-1.696009 32:1.350857 33:-0.807456 34:-1.641200 35:-0.753277 36:0.953359 37:0.116255 38:0.284262 39:0.251130 40:-0.697640 41:0.281286 42:-0.047728 43:0.028313 44:1.610538 45:1.333151 46:-0.896242 47:1.472393 48:0.476922 49:-0.694465 50:-1.033076 51:-0.242890 52:-0.249920 53:1.328097 54:0.705867 55:1.071512 56:0.552950 57:0.454223 58:-1.158968 59:0.294897 60:0.389007 61:-0.654535 62:-0.201659 63:-0.581443 64:0.373301 65:2.379760
-1 1:-0.273923 2:-0.244251 3:1.222153 4:2.612714 5:0.220539 6:-0.287580 7:-0.893382 8:0.419429 9:-0.975649 10:2.305396 11:-1.739681 12:-0.274272 13:0.559326 14:0.158260 15:-0.075571 16:0.158249 17:-0.653395 18:-0.199485 19:-0.898011 20:-0.545768 21:0.057306 22:-0.190277 23:-0.479022 24:-0.712664 25:0.556313 26:1.608280 27:2.230650 28:0.482284 29:-0.817224 30:0.257862 31:0.536417 32:1.587244 33:-0.889328 34:0.537137 35:-0.740152 36:-0.536185 37:-0.076647 38:-0.573908 39:0.138021 40:-0.402546 41:0.682357 42:0.363421 43:1.391451 44:1.371793 45:-1.156784 46:0.124402 47:0.152249 48:1.379034 49:-1.611814 50:0.517265 51:0.796604 52:-0.246869 53:-0.797815 54:0.988313 55:0.346158 56:-1.447190 57:1.390073 58:1.927126 59:-1.606869 60:0.926828 61:0.295667 62:-0.612308 63:-1.546838 64:1.453536 65:-2.501647
-1 1:-0.320495 2:-0.101791 3:-0.787023 4:-0.128073 5:1.312595 6:-0.631875 7:0.533426 8:0.398459 9:-0.607652 10:-0.675416 11:-0.115109 12:-0.583128 13:-0.181573 14:0.061361 15:-0.904608 16:0.705999 17:0.129175 18:-0.587832 19:-0.492521 20:-0.178990 21:-0.421452 22:0.024150 23:1.064992 24:0.154979 25:-0.580316 26:0.961304 27:-0.975470 28:1.813843 29:-1.274049 30:-0.127032 31:-1.244985 32:0.352443 33:0.025734 34:0.601059 35:1.665121 36:-2.398069 37:-0.346299 38:0.556260 39:-1.373897 40:0.075946 41:-0.440629 42:-1.208044 43:-1.046971 44:1.056644 45:-0.057742 46:0.099347 47:1.256978 48:-1.590686 49:0.457713 50:1.681042 51:-0.235037 52:-0.614273 53:-0.946828 54:-0.135670 55:0.066953 56:0.254002 57:-1.646657 58:-0.378099 59:-0.625189 60:-0.323032 61:-0.579277 62:0.671600 63:0.056789 64:2.805226 65:-0.634268
-1 1:-1.150958 2:0.524751 3:-0.393188 4:0.523435 5:0.349096 6:-0.727756 7:1.240965 8:-1.150668 9:1.619750 10:0.383428 11:-0.749023 12:1.852440 13:-2.231971 14:0.690618 15:0.582410 16:0.030886 17:1.455841 18:0.699842 19:0.312958 20:1.200288 21:0.209025 22:-1.967671 23:1.850393 24:0.085265 25:-0.259633 26:-2.203255 27:-2.187577 28:-1.220972 29:-0.918668 30:1.116119 31:-0.612177 32:1.455660 33:-0.748568 34:1.180120 35:2.037282 36:0.989380 37:-0.181952 38:0.602847 39:-1.772987 40:-1.306287 41:-0.024412 42:1.180668 43:-0.761633 44:-2.025923 45:0.085755 46:-0.755528 47:-1.841863 48:0.206625 49:0.773520 50:-2.456019 51:2.208418 52:0.659561 53:-1.009524 54:-0.896065 55:1.240535 56:1.081104 57:-0.370724 58:0.608267 59:1.141010 60:-1.075615 61:-0.171800 62:-2.198400 63:1.487266 64:-0.375753 65:-0.551366
-1 1:-0.306894 2:0.726806 3:-0.246064 4:-0.781606 5:1.880458 6:1.803338 7:-0.411834 8:-0.986659 9:1.008780 10:1.082806 11:-1.110130 12:-0.041530 13:0.331244 14:1.066192 15:-0.750423 16:-1.396834 17:-1.237033 18:-0.218043 19:-1.434452 20:-0.273068 21:0.635176 22:-1.411941 23:-0.359437 24:-0.906887 25:0.755188 26:-1.318443 27:0.951093 28:-0.967452 29:-0.892477 30:-0.248481 31:-0.944496 32:-0.628199 33:0.591739 34:1.351775 35:1.166898 36:0.276334 37:0.852744 38:0.409731 39:-0.659890 40:-2.206215 41:0.323790 42:-0.405318 43:0.999731 44:-0.491187 45:-1.069595 46:-0.964209 47:0.057140 48:0.825217 49:0.895743 50:0.610815 51:0.210132 52:-0.302044 53:-2.115640 54:0.082508 55:1.017346 56:-3.517195 57:-0.466874 58:-0.798514 59:-1.036592 60:-0.586995 61:-0.013992 62:-0.070393 63:-0.832157 64:-1.207851 65:-0.569635
-1 1:1.184244 2:-1.018814 3:0.604927 4:-0.138960 5:2.345224 6:-0.476327 7:-1.712755 8:1.775451 9:0.977008 10:-2.293918 11:0.001679 12:-1.753854 13:1.638628 14:-1.167663 15:-0.260587 16:0.425667 17:-1.100329 18:1.241698 19:-0.191202 20:0.639622 21:-0.345440 22:1.207321 23:0.799041 24:-0.852632 25:-1.030896 26:-1.207770 27:-1.068138 28:2.126948 29:-0.576909 30:-0.953852 31:-0.115902 32:-0.025096 33:0.340092 34:-0.228672 35:-0.845938 36:1.281927 37:0.189523 38:0.549176 39:-2.069623 40:-0.590989 41:0.265612 42:-0.535918 43:-2.775240 44:-2.551671 45:-1.026660 46:1.876063 47:0.464602 48:0.817722 49:-0.661288 50:-0.153864 51:-0.322812 52:-0.685034 53:0.228850 54:-0.018866 55:1.061598 56:-1.105033 57:-0.685576 58:0.011305 59:1.423064 60:1.427068 61:-0.216465 62:0.003640 63:1.113919 64:-2.520843 65:-1.096488
-1 1:-0.000869 2:0.907825 3:-0.262594 4:-0.954883 5:-0.189520 6:1.252506 7:0.193632 8:-1.440894 9:0.027812 10:-1.281507 11:0.766125 12:0.590684 13:-0.319272 14:-1.002981 15:1.277544 16:-0.212848 17:1.276549 18:1.044206 19:0.644114 20:-2.749926 21:-1.148134 22:-0.590488 23:2.417656 24:-1.080699 25:-0.958667 26:0.639317 27:-0.529052 28:0.234859 29:-0.220709 30:1.181747 31:0.577349 32:-0.397053 33:-0.561876 34:0.063259 35:-0.406902 36:-0.340119 37:1.414372 38:-0.172216 39:0.530364 40:-0.502117 41:0.780531 42:-0.502911 43:1.381218 44:0.368335 45:-1.563815 46:1.201013 47:0.471701 48:1.455002 49:-1.040659 50:0.866397 51:0.271142 52:0.242047 53:0.279340 54:-0.729044 55:0.753847 56:-0.153869 57:0.472330 58:-1.049124 59:-1.105257 60:0.876347 61:-0.268082 62:-1.167882 63:-0.105616 64:-0.650933 65:1.051658
-1 1:1.661931 2:-0.442781 3:1.623686 4:0.076834 5:1.030612 6:0.128476 7:0.484070 8:-1.231335 9:0.811734 10:1.092071 11:2.612366 12:0.160315 13:0.509830 14:0.738081 15:0.841017 16:1.107048 17:-0.869119 18:-1.181320 19:0.322676 20:-1.058683 21:-0.438150 22:1.034469 23:1.525890 24:0.057774 25:1.022857 26:-0.649647 27:-1.575582 28:0.449356 29:0.367136 30:-0.221837 31:-1.313351 32:2.181362 33:-0.145548 34:-1.417605 35:-0.987683 36:1.551352 37:-0.942274 38:-1.921407 39:1.772956 40:-1.267329 41:-0.326495 42:-0.901732 43:0.772171 44:-0.315885 45:0.403782 46:-0.137118 47:-0.578665 48:-0.397586 49:0.516337 50:-0.768681 51:0.557251 52:0.594077 53:0.714800 54:-0.690517 55:-0.394772 56:1.636601 57:-0.566928 58:0.774136 59:-0.481783 60:-0.835900 61:-0.130188 62:0.205143 63:0.523177 64:0.774359 65:-1.438442
-1 1:-1.160144 2:0.922884 3:-0.351737 4:-0.788924 5:1.220353 6:-1.534288 7:-2.325642 8:-0.212220 9:-0.220997 10:-0.913004 11:-1.220438 12:1.389209 13:0.555514 14:1.450617 15:0.671975 16:-1.210624 17:-0.503477 18:1.782711 19:1.348833 20:-0.196961 21:0.202362 22:-0.351154 23:-0.470919 24:0.206890 25:-1.736237 26:-0.583292 27:-0.705126 28:0.700992 29:-0.965970 30:1.196804 31:0.198705 32:0.771356 33:0.114001 34:-1.682158 35:-0.623688 36:0.471043 37:0.553265 38:-1.605478 39:-0.249117 40:-1.100586 41:1.204427 42:0.986319 43:-1.481000 44:2.375139 45:0.552652 46:0.937649 47:-1.106325 48:-1.857687 49:1.087797 50:-0.390395 51:-1.175057 52:1.224147 53:0.312709 54:1.212732 55:-1.429693 56:1.355679 57:-0.514653 58:-0.800613 59:-0.165910 60:0.465395 61:-0.653424 62:0.059549 63:0.326964 64:0.985842 65:0.706714
-1 1:-0.373198 2:-0.012892 3:-0.267121 4:0.621306 5:0.724631 6:0.119092 7:-0.686741 8:2.571612 9:-0.314480 10:0.617199 11:-0.437212 12:0.365905 13:-0.810780 14:-1.634500 15:-1.042089 16:-0.985815 17:-1.848658 18:0.038836 19:0.495429 20:1.176267 21:-1.895190 22:-0.477606 23:-0.351556 24:1.052984 25:0.344667 26:0.144772 27:-0.136037 28:-0.978576 29:-1.521517 30:0.389793 31:0.879722 32:0.900584 33:-0.694649 34:2.046035 35:-1.321536 36:-0.181757 37:-0.118539 38:-1.161099 39:0.189412 40:-0.885721 41:-0.761961 42:-0.833595 43:-1.477757 44:0.962293 45:-0.324138 46:1.836306 47:2.792063 48:0.531731 49:1.213143 50:-0.681384 51:-0.759030 52:-0.096294 53:-1.466646 54:0.782561 55:1.405295 56:-0.254856 57:0.205142 58:0.552154 59:0.678925 60:1.760075 61:-1.736074 62:-0.245134 63:0.071008 64:0.017609 65:1.313076
-1 1:0.159034 2:0.291973 3:1.029670 4:0.633154 5:-0.415632 6:-1.309677 7:0.416496 8:1.834662 9:-0.950657 10:0.992972 11:-0.187390 12:-0.851933 13:0.165164 14:1.759567 15:2.234184 16:-0.528639 17:0.371745 18:-0.926984 19:-0.683930 20:-0.775211 21:1.679892 22:1.062666 23:-2.446816 24:1.589601 25:-2.811058 26:-0.517411 27:-0.577279 28:1.048914 29:-0.104062 30:0.853922 31:1.683649 32:0.787038 33:-0.580397 34:-1.014687 35:0.027263 36:1.129732 37:0.352282 38:0.927649 39:-2.314697 40:-1.715214 41:1.292931 42:-0.487636 43:0.237908 44:-0.072225 45:0.695951 46:1.849147 47:-1.254379 48:-0.094483 49:-0.274878 50:0.121535 51:-0.928524 52:0.334029 53:0.001911 54:1.392473 55:0.424145 56:0.680503 57:-0.421122 58:0.081776 59:0.967980 60:-0.425415 61:-1.414386 62:1.999819 63:-0.862932 64:0.511903 65:2.593838
-1 1:-1.150385 2:0.229319 3:0.360623 4:0.384970 5:-0.977038 6:0.195124 7:-0.993569 8:0.212512 9:3.143592 10:-0.715889 11:0.152763 12:0.096877 13:-1.478095 14:-0.468708 15:0.249957 16:0.389490 17:0.071299 18:0.753136 19:0.093369 20:-0.811451 21:-0.259533 22:0.967584 23:0.271682 24:0.635534 25:-0.355110 26:-0.402467 27:0.843624 28:-0.905115 29:-1.281485 30:-0.933546 31:1.102194 32:0.973803 33:2.020926 34:1.699598 35:-1.133521 36:-1.005724 37:-0.341965 38:-0.161777 39:-1.254594 40:0.357362 41:-0.740376 42:-0.679357 43:1.403695 44:-0.002035 45:0.352984 46:0.655783 47:-0.487017 48:-1.469622 49:0.477817 50:2.185735 51:-1.171080 52:-0.349493 53:-1.919516 54:-0.786956 55:0.330361 56:1.403194 57:-0.681585 58:1.005089 59:1.411566 60:0.152405 61:-0.515883 62:1.629229 63:-0.718384 64:-1.782429 65:-0.465904
-1 1:-0.718004 2:0.588170 3:-0.014881 4:-1.390910 5:1.046163 6:0.528040 7:-0.003964 8:-0.593798 9:1.002102 10:-0.908994 11:-0.042373 12:-1.112736 13:-1.078043 14:-1.493351 15:0.020717 16:0.293625 17:1.214281 18:-1.003443 19:-1.848987 20:1.553953 21:1.182805 22:-0.994969 23:-1.410138 24:1.069879 25:0.336390 26:2.376901 27:-0.298583 28:-0.596490 29:-0.617899 30:-1.216194 31:1.064905 32:-0.350526 33:-0.021687 34:-1.153569 35:-0.271626 36:1.163249 37:-0.923034 38:-2.439511 39:1.515954 40:-0.734714 41:0.178443 42:-1.459998 43:0.815010 44:-0.132947 45:-0.857973 46:0.458627 47:0.269626 48:0.913422 49:-0.675193 50:0.588744 51:-0.272247 52:-1.026120 53:0.363506 54:-0.817213 55:-0.026981 56:0.383942 57:-0.562919 58:-0.353166 59:1.236568 60:0.254502 61:-0.442531 62:0.572084 63:0.275425 64:-0.487120 65:-1.450178
-1 1:0.592351 2:1.386182 3:-1.594105 4:-2.195014 5:-1.415413 6:-0.032199 7:2.649481 8:-0.412898 9:0.212009 10:-1.170729 11:-0.974611 12:-0.384454 13:-0.477703 14:0.061384 15:0.097922 16:0.852717 17:-0.037603 18:-0.379187 19:0.294098 20:-1.131113 21:-0.493322 22:-1.615922 23:-0.071517 24:0.215995 25:0.294580 26:-0.317200 27:1.837251 28:0.227214 29:1.534547 30:-1.669048 31:0.171781 32:-0.467250 33:-1.269803 34:0.473668 35:-1.729300 36:0.878434 37:0.292898 38:-0.161836 39:1.714338 40:0.019303 41:1.219851 42:1.137490 43:-2.422692 44:-0.025103 45:-0.833750 46:-1.557473 47:0.894256 48:0.490604 49:1.284809 50:0.902281 51:0.131309 52:1.429278 53:0.574651 54:-0.589177 55:-1.064847 56:-0.602501 57:-0.710615 58:1.039076 59:-1.061919 60:-0.663768 61:0.000112 62:-0.228107 63:0.810859 64:0.827201 65:-0.188151
-1 1:1.291899 2:-1.889448 3:0.899987 4:0.048701 5:0.822812 6:1.445274 7:0.481471 8:0.011426 9:-0.631560 10:-0.801741 11:0.540918 12:-3.357710 13:0.328802 14:1.061949 15:0.181844 16:1.272765 17:0.013258 18:-0.495291 19:0.177962 20:-0.214003 21:0.358851 22:-1.172202 23:0.071749 24:0.034383 25:-0.989994 26:1.053171 27:-1.054963 28:0.423889 29:-0.116130 30:1.304172 31:-1.016192 32:1.947384 33:1.897126 34:-0.202630 35:-0.287921 36:0.088960 37:-1.109725 38:-0.880664 39:0.037679 40:0.236100 41:1.468752 42:1.419011 43:1.230159 44:-1.623691 45:1.041949 46:0.284860 47:0.685390 48:-0.907993 49:0.056314 50:0.856603 51:0.783988 52:-1.423629 53:-0.583100 54:1.278524 55:0.811613 56:-0.484043 57:0.016111 58:0.365600 59:-0.715970 60:-0.070433 61:1.037557 62:-0.288797 63:0.111531 64:0.564511 65:1.069938
-1 1:-1.935897 2:-1.730974 3:0.062673 4:-0.683390 5:0.872353 6:0.391768 7:-0.714102 8:-0.766679 9:-0.159262 10:0.798279 11:-0.396228 12:-1.227027 13:1.176727 14:0.427243 15:-2.680132 16:-0.119463 17:-0.388904 18:-0.129703 19:-3.219372 20:-0.515215 21:1.622803 22:-1.079209 23:-0.507096 24:-0.638040 25:-0.546476 26:-0.519402 27:-1.178729 28:-0.152975 29:-0.143018 30:-1.149069 31:-0.128105 32:0.804054 33:-0.343353 34:-0.323698 35:0.714444 36:-1.550153 37:-0.344937 38:-0.426827 39:1.176355 40:1.009260 41:1.317677 42:-0.192924 43:2.886804 44:-2.127489 45:2.015839 46:-0.555984 47:1.230646 48:0.287854 49:0.522953 50:-0.122270 51:2.035523 52:-1.598601 53:1.212375 54:0.118087 55:0.072455 56:0.595650 57:0.305000 58:-0.949024 59:-1.331584 60:-0.971140 61:-1.244717 62:0.642099 63:-0.749034 64:-0.069101 65:0.016643
-1 1:-0.668673 2:0.707056 3:-1.397579 4:0.214534 5:0.184904 6:0.776825 7:-0.372277 8:-0.066214 9:1.369389 10:-0.384722 11:1.076634 12:0.473255 13:-2.632830 14:-0.029236 15:-0.441285 16:0.023665 17:-0.519561 18:-0.350166 19:0.798115 20:-0.912879 21:-0.740149 22:0.066877 23:1.714888 24:-1.469337 25:-1.577120 26:-0.738204 27:0.448572 28:-1.165482 29:1.123663 30:-0.963601 31:0.843406 32:0.970423 33:1.369597 34:0.156628 35:-0.759298 36:1.306607 37:0.922040 38:-0.888850 39:2.034810 40:0.589782 41:0.909529 42:0.646817 43:-0.077433 44:1.193713 45:-0.825330 46:0.490399 47:1.226009 48:0.557475 49:0.125964 50:0.483329 51:0.590767 52:-0.869810 53:-0.929175 54:-0.280122 55:0.157595 56:-1.400741 57:0.965588 58:-1.247475 59:0.647791 60:0.459859 61:0.807026 62:-1.673180 63:1.031760 64:0.979275 65:-0.423256
-1 1:-1.377006 2:0.329862 3:-1.978173 4:0.187888 5:0.598651 6:-1.222439 7:0.218144 8:-1.296894 9:-0.742830 10:0.877881 11:-0.773521 12:0.913453 13:0.341096 14:0.265465 15:-0.673793 16:0.581607 17:-1.181626 18:0.861256 19:-0.849692 20:-0.951020 21:0.936403 22:-0.908726 23:0.266073 24:-0.704398 25:-1.361174 26:1.127412 27:0.336539 28:1.428132 29:-0.343778 30:-0.738707 31:0.264450 32:-0.041259 33:0.282194 34:1.208345 35:0.781949 36:-0.198514 37:0.405974 38:-0.617355 39:-0.214700 40:-0.381428 41:-0.414664 42:-0.057464 43:-1.735672 44:-0.928393 45:1.859855 46:-0.099719 47:0.404276 48:-0.717907 49:-1.416853 50:0.168007 51:0.379774 52:0.178434 53:-1.588589 54:0.045707 55:0.175973 56:-0.676137 57:0.260092 58:-1.043506 59:0.479918 60:-2.004121 61:-0.620395 62:-0.273524 63:0.070625 64:-0.479340 65:0.044360
-1 1:0.768894 2:-0.983992 3:0.009306 4:-0.063339 5:0.545705 6:-1.325264 7:2.092012 8:0.111882 9:-0.429971 10:-0.037038 11:0.148893 12:-0.836303 13:-1.157378 14:-0.971242 15:-0.865258 16:-0.269483 17:2.088590 18:1.128906 19:-0.635330 20:0.536782 21:-1.197538 22:-0.160070 23:-0.619908 24:0.352199 25:0.116569 26:0.376997 27:-0.046840 28:-0.558436 29:0.367167 30:-1.017066 31:1.077551 32:1.408858 33:-0.187016 34:-0.190179 35:-0.107478 36:-1.023336 37:0.584322 38:0.832257 39:-1.160846 40:-0.577863 41:-0.233945 42:-0.449705 43:-0.134301 44:-0.740316 45:1.266730 46:0.159921 47:-1.145257 48:0.345260 49:0.281943 50:0.245190 51:-0.309450 52:0.644553 53:1.612997 54:-0.352093 55:1.003125 56:1.879097 57:1.470969 58:0.342130 59:0.214975 60:-0.326319 61:0.927092 62:0.301405 63:0.267800 64:-0.103912 65:0.959251
-1 1:-0.987312 2:1.148931 3:0.371031 4:1.483759 5:-0.340497 6:-0.229069 7:1.540083 8:0.387045 9:1.018122 10:0.590700 11:1.191280 12:-1.272492 13:-0.301966 14:1.064862 15:-0.723454 16:0.985203 17:-0.498610 18:-0.535634 19:-0.430263 20:1.066858 21:1.345047 22:0.232751 23:1.341003 24:1.393755 25:1.763013 26:0.106192 27:1.521771 28:-0.173823 29:2.163931 30:-0.110061 31:1.777615 32:0.664631 33:-0.520737 34:-0.299128 35:-1.611084 36:-1.036865 37:1.740886 38:1.895276 39:-1.163419 40:0.646201 41:1.363507 42:-0.559920 43:2.249009 44:-1.869962 45:-0.062850 46:-1.557349 47:-1.051024 48:1.120753 49:-1.220719 50:0.525014 51:0.483152 52:-0.220814 53:1.469914 54:-1.236263 55:-0.175622 56:-0.071511 57:0.908579 58:0.056816 59:-2.035473 60:1.508373 61:-1.296151 62:-0.112408 63:0.100338 64:-0.120444 65:-0.662368
-1 1:-1.381174 2:-0.353630 3:0.984318 4:-1.028661 5:-0.082666 6:-0.454960 7:-1.043095 8:-0.368058 9:-0.138244 10:0.935528 11:-1.962170 12:0.710201 13:0.094454 14:0.605418 15:-0.027442 16:-0.875684 17:1.313315 18:-0.968026 19:1.046675 20:0.661258 21:-1.201848 22:-1.405407 23:-0.667545 24:-1.116848 25:0.911407 26:1.629112 27:-0.300434 28:0.168308 29:0.695400 30:0.296173 31:-1.170405 32:0.192777 33:2.299341 34:0.682070 35:-1.454423 36:1.417043 37:0.237896 38:0.904099 39:0.246312 40:-0.002782 41:-1.690900 42:1.179649 43:-0.811230 44:-0.593250 45:-1.306380 46:0.374921 47:-0.384904 48:-0.755710 49:-0.228173 50:1.786934 51:-0.044185 52:1.019268 53:0.960889 54:-2.270869 55:-0.509292 56:-0.889650 57:-0.356170 58:-0.640779 59:0.833012 60:-1.617409 61:-0.325169 62:1.713804 63:-1.190566 64:-1.342951 65:-0.301622
-1 1:-0.289948 2:0.465862 3:0.773546 4:-1.210072 5:1.075120 6:0.405131 7:0.163114 8:0.743589 9:-0.051876 10:0.915733 11:1.018826 12:0.563837 13:1.036593 14:-1.664474 15:0.594506 16:-0.006523 17:0.131019 18:0.288774 19:-1.366810 20:-0.336719 21:0.264795 22:0.838086 23:-0.134043 24:0.138545 25:0.845063 26:-0.323375 27:0.765318 28:1.459461 29:-1.519793 30:0.481501 31:-0.533760 32:0.956704 33:0.554988 34:-0.251453 35:1.958970 36:-0.235025 37:0.272017 38:-0.240374 39:0.597483 40:1.101158 41:0.528347 42:1.045801 43:1.273240 44:-0.445586 45:-1.449626 46:-0.976150 47:-0.323012 48:-2.003733 49:0.759542 50:-0.729641 51:-0.584168 52:1.552086 53:0.071228 54:-0.319338 55:-0.359901 56:0.182693 57:0.156137 58:-0.031700 59:1.157232 60:-0.095158 61:0.832302 62:1.059359 63:2.082487 64:1.347011 65:0.421017
-1 1:0.077441 2:0.877368 3:1.727764 4:-0.582745 5:0.578028 6:0.430461 7:1.560589 8:-0.497664 9:0.142838 10:-0.713721 11:-0.635009 12:-2.418723 13:-0.155620 14:-1.704965 15:1.504721 16:0.155579 17:0.857850 18:0.545001 19:-1.970206 20:-0.853304 21:0.294329 22:-0.814296 23:-0.031260 24:-0.523326 25:-1.023572 26:-0.423292 27:0.210356 28:-0.997738 29:-1.473144 30:0.967351 31:-0.471798 32:-0.178487 33:-0.109116 34:-0.732525 35:-1.054380 36:1.348329 37:-0.533834 38:-1.973635 39:1.058245 40:-0.004891 41:0.237518 42:1.121103 43:-0.236795 44:0.908949 45:0.469968 46:0.542141 47:0.111833 48:0.693507 49:1.152435 50:-1.177523 51:-1.069323 52:1.000783 53:1.227896 54:-0.681288 55:-1.106353 56:-1.459925 57:-0.545543 58:-1.524293 59:-0.532101 60:0.598273 61:-0.259003 62:-0.779095 63:0.361120 64:-0.281909 65:-2.083261
-1 1:2.564129 2:1.460873 3:-1.001789 4:-2.030174 5:0.833615 6:0.702327 7:0.164940 8:-1.354401 9:0.916310 10:1.048412 11:-1.422531 12:-0.625877 13:-0.022673 14:0.008585 15:2.216488 16:-2.079490 17:-0.681130 18:0.760156 19:0.451391 20:-1.933660 21:1.708138 22:0.345597 23:0.292848 24:0.840102 25:0.063084 26:0.824915 27:0.380625 28:0.345230 29:-1.179047 30:-0.862580 31:-1.741449 32:-0.000495 33:0.041016 34:-0.186790 35:2.232181 36:1.981043 37:0.630649 38:1.253715 39:0.005691 40:-0.970180 41:-0.131131 42:0.885243 43:0.267072 44:0.435773 45:0.533518 46:-1.223124 47:-0.005105 48:-0.754931 49:0.664483 50:-1.077728 51:0.062426 52:-0.735776 53:0.533143 54:-0.066728 55:-0.101819 56:0.273781 57:0.098743 58:-0.830692 59:0.675952 60:2.160913 61:-0.692330 62:-0.092191 63:-1.611843 64:0.761895 65:1.011787
-1 1:0.443309 2:0.081281 3:0.143441 4:-1.326264 5:-0.871168 6:-1.588954 7:-0.006236 8:0.045338 9:0.824239 10:-1.453661 11:-0.876497 12:-1.059596 13:-0.430116 14:0.084253 15:1.186229 16:-0.544388 17:1.856608 18:-1.628206 19:-0.218252 20:-0.482758 21:-1.338987 22:-0.474580 23:0.875359 24:1.037700 25:0.695157 26:0.079901 27:1.016647 28:0.735746 29:-0.668236 30:-0.290543 31:0.528759 32:-0.218137 33:-2.854473 34:0.293766 35:0.752536 36:-1.219506 37:2.465114 38:-1.179541 39:0.725422 40:0.483059 41:0.392227 42:-0.405420 43:0.823522 44:0.390329 45:-0.649973 46:-1.288884 47:-0.629971 48:0.092355 49:0.824263 50:0.073549 51:-1.906496 52:1.419279 53:0.070730 54:0.483392 55:1.291174 56:-0.067715 57:-0.410986 58:-1.511736 59:1.934721 60:1.064839 61:0.157445 62:-0.697517 63:-0.300235 64:0.634888 65:-0.167426
-1 1:-0.284697 2:0.640928 3:1.420284 4:0.360215 5:-0.015568 6:-1.719650 7:0.778793 8:-0.473411 9:0.048563 10:1.431611 11:-0.361123 12:0.645240 13:-1.149766 14:-0.050582 15:2.275617 16:1.434747 17:-1.384947 18:-0.477618 19:-0.204132 20:-0.625378 21:-0.628026 22:-1.151021 23:-1.471028 24:0.524703 25:-0.954739 26:-0.014014 27:0.354634 28:0.375463 29:-1.722364 30:0.918336 31:-0.802080 32:0.302799 33:1.491766 34:0.498725 35:0.285814 36:-0.176161 37:0.919022 38:-0.332316 39:2.251543 40:-0.116154 41:-0.500068 42:-0.506764 43:-0.689914 44:-0.108910 45:0.597575 46:0.269462 47:-0.561636 48:1.760022 49:0.492273 50:-0.407470 51:-1.674167 52:-0.715152 53:0.525151 54:-0.743685 55:-0.801162 56:0.636483 57:-0.777283 58:0.691059 59:1.434253 60:1.876598 61:0.481301 62:-0.925335 63:-0.384167 64:0.104158 65:-0.613273
-1 1:0.784852 2:1.227557 3:-1.829669 4:0.029623 5:-1.093969 6:-1.402684 7:-0.568669 8:0.624523 9:2.020745 10:-0.269648 11:0.262550 12:2.069422 13:0.734524 14:-0.458049 15:-0.112706 16:0.860955 17:-0.031529 18:0.051102 19:-0.535588 20:-0.727091 21:-0.044160 22:-1.368661 23:0.564351 24:-0.092291 25:-0.454655 26:-1.000783 27:2.700604 28:-1.144184 29:1.052430 30:1.459529 31:-0.424637 32:0.932493 33:2.033224 34:-2.487633 35:-1.390899 36:-0.290938 37:-0.478487 38:2.162327 39:0.177384 40:0.617853 41:-0.433246 42:-0.718108 43:-0.394198 44:1.129703 45:0.180643 46:0.435872 47:0.748177 48:-0.557141 49:-0.947851 50:-0.458610 51:-0.063070 52:-0.263608 53:-0.373427 54:0.717914 55:0.087548 56:1.070502 57:-1.064408 58:-1.590914 59:-0.419946 60:-1.919408 61:0.697715 62:1.543070 63:-0.866790 64:0.860580 65:0.272780
-1 1:0.331571 2:0.393169 3:-2.122257 4:-0.131884 5:1.316793 6:0.732293 7:-0.410796 8:-0.751960 9:0.450768 10:-0.096914 11:1.534764 12:0.190516 13:-0.027766 14:1.546539 15:1.230956 16:0.806627 17:-2.284241 18:0.846310 19:-0.728431 20:-0.116039 21:-0.063708 22:-1.059474 23:0.992973 24:0.020684 25:-0.944814 26:-0.808139 27:-1.226095 28:-0.074571 29:-0.757294 30:0.443230 31:-1.074943 32:2.973694 33:0.162947 34:0.131834 35:-0.088299 36:-0.298875 37:0.953209 38:0.863877 39:-0.291110 40:1.176773 41:1.197562 42:1.245500 43:-1.409000 44:-0.120712 45:-0.921123 46:-1.217337 47:-0.606995 48:0.934543 49:1.654533 50:-1.275905 51:-1.284005 52:0.073410 53:0.740241 54:-2.610815 55:0.205328 56:1.754493 57:0.756589 58:-0.086514 59:-1.103270 60:-0.136462 61:1.074554 62:0.007557 63:-0.750871 64:0.217713 65:1.706741
-1 1:-1.497412 2:0.158953 3:-0.132836 4:0.032804 5:2.180202 6:0.559630 7:-1.753733 8:0.173748 9:-0.103909 10:0.351722 11:1.432828 12:0.266209 13:-1.257348 14:0.677129 15:-0.175997 16:-1.123585 17:0.382188 18:2.068181 19:-0.887527 20:-0.622979 21:2.081876 22:-1.159176 23:-1.598586 24:-0.733697 25:-1.412107 26:-0.122139 27:0.192991 28:-1.083810 29:-0.436420 30:-0.175614 31:-1.274212 32:-0.410567 33:-0.912596 34:-0.227225 35:1.344188 36:-0.709076 37:-0.237272 38:-0.958442 39:0.579468 40:0.656649 41:-0.293264 42:-0.496721 43:0.566489 44:0.691305 45:-0.502468 46:0.070926 47:0.256867 48:0.979361 49:0.774821 50:1.043601 51:0.467324 52:1.235976 53:0.457831 54:0.086992 55:-0.107727 56:-1.330065 57:-0.339236 58:1.346858 59:0.888963 60:-1.426184 61:-0.299057 62:-0.317149 63:-1.708957 64:-0.073763 65:-0.366860
-1 1:-0.290936 2:1.039638 3:1.560841 4:-1.366553 5:0.202114 6:-1.824179 7:-0.207089 8:-0.239558 9:1.770386 10:1.772357 11:-0.678013 12:-0.342949 13:1.701560 14:1.062989 15:0.386977 16:1.013017 17:-0.898567 18:-0.958393 19:-1.302063 20:-0.460178 21:-0.175752 22:0.090164 23:-0.995140 24:0.146018 25:1.104120 26:-0.070044 27:-1.034651 28:0.448251 29:0.042746 30:-0.011466 31:0.140837 32:-0.687989 33:-0.579022 34:-0.726038 35:-0.945574 36:0.098307 37:0.455409 38:0.461468 39:-0.875674 40:-0.845684 41:-1.459621 42:-0.166704 43:-0.207745 44:-0.264567 45:0.727826 46:0.345436 47:0.248535 48:-0.580689 49:0.043991 50:-0.726790 51:-2.029520 52:-1.606795 53:1.381046 54:-0.006705 55:-0.014152 56:0.440431 57:0.356840 58:0.522497 59:-0.548343 60:-0.181196 61:-1.099710 62:-0.373748 63:-0.110048 64:1.082492 65:1.338623
-1 1:0.112593 2:-0.222855 3:0.124328 4:0.138145 5:0.844522 6:0.754418 7:1.672295 8:0.506964 9:-1.217271 10:-0.462390 11:1.100011 12:-0.689597 13:-0.660243 14:-1.915421 15:0.526380 16:-0.221309 17:-0.809685 18:0.632800 19:-0.067881 20:0.198278 21:0.279239 22:-0.531713 23:0.037533 24:-1.354842 25:-0.367727 26:-0.664650 27:0.137133 28:1.347138 29:0.031981 30:-0.270612 31:0.200054 32:-0.873136 33:0.949712 34:-2.124102 35:0.315402 36:-1.706405 37:0.721086 38:0.032087 39:1.120717 40:0.864764 41:0.137574 42:-2.259350 43:0.876206 44:0.159367 45:-0.785621 46:0.369713 47:-0.533387 48:0.448606 49:0.159759 50:1.375980 51:0.704527 52:-1.258935 53:0.040385 54:-0.302346 55:-2.356034 56:-0.072177 57:1.022691 58:0.931482 59:-1.194889 60:-1.144757 61:1.174884 62:0.894486 63:0.670454 64:-0.494527 65:0.824840
-1 1:0.422051 2:0.249159 3:0.611813 4:-0.908795 5:-0.804875 6:-0.224841 7:0.103417 8:0.538578 9:0.352453 10:-0.081741 11:-1.096633 12:0.016620 13:-0.403284 14:-1.318997 15:1.296532 16:0.546313 17:-1.283988 18:-0.154273 19:0.758648 20:-0.629156 21:1.135951 22:0.464544 23:-1.518321 24:-1.288033 25:1.160425 26:0.010212 27:0.889571 28:-2.184985 29:1.799783 30:-1.718542 31:1.367600 32:2.306418 33:-0.450226 34:-1.629172 35:0.571928 36:-1.066555 37:-0.977066 38:1.410368 39:0.604345 40:-0.729468 41:2.084098 42:0.226699 43:-1.114216 44:0.094592 45:0.451427 46:-0.019916 47:1.082333 48:-1.705819 49:1.190014 50:-0.629620 51:1.060147 52:-1.065452 53:-1.245205 54:1.626998 55:-0.468050 56:0.813863 57:-0.635819 58:0.560558 59:-1.254772 60:0.930051 61:-1.163754 62:1.313456 63:0.338855 64:0.407879 65:1.437268
-1 1:-0.654979 2:-0.061729 3:-0.764683 4:1.882618 5:-0.250890 6:-0.424744 7:0.974187 8:0.422299 9:-1.550390 10:0.302899 11:-0.553987 12:-0.426042 13:0.222679 14:-0.695297 15:0.059229 16:-0.175805 17:-1.792685 18:1.214240 19:1.509692 20:-1.070254 21:-0.973456 22:-2.036695 23:0.115940 24:-1.154154 25:-0.969199 26:0.530418 27:-0.989936 28:-0.534031 29:0.326925 30:0.324201 31:0.935965 32:1.386809 33:-1.612742 34:-0.363714 35:-0.223071 36:0.010472 37:0.831003 38:0.376174 39:0.398001 40:1.277571 41:-0.991877 42:0.906022 43:-0.129042 44:0.792690 45:-0.443257 46:-1.126683 47:0.174220 48:0.458150 49:1.767157 50:-0.797427 51:1.306046 52:0.031065 53:2.082904 54:1.119164 55:1.209069 56:0.767527 57:0.670458 58:1.466167 59:0.034704 60:0.342974 61:-0.108615 62:1.036216 63:0.179241 64:0.277304 65:-0.765067
-1 1:-0.063896 2:-1.277508 3:0.621947 4:1.005085 5:0.906944 6:0.321882 7:-0.497766 8:-0.838982 9:0.288836 10:-1.391965 11:0.604754 12:-1.784208 13:-0.126014 14:-0.000806 15:-1.523349 16:0.216977 17:1.193538 18:-0.135752 19:2.227272 20:2.593874 21:-0.689949 22:-0.535847 23:-0.494305 24:-1.929753 25:0.843460 26:0.947577 27:1.494825 28:-0.510837 29:0.008817 30:-1.018312 31:0.403329 32:2.268717 33:0.356865 34:-1.877810 35:0.906768 36:0.926908 37:0.669648 38:-0.354509 39:-0.043910 40:1.190963 41:0.342674 42:-0.242469 43:-0.649952 44:-1.605652 45:-0.129681 46:1.886908 47:0.050883 48:0.203940 49:-0.049006 50:0.729923 51:-0.465200 52:-0.872397 53:-0.712663 54:1.121757 55:0.835336 56:-0.052547 57:-1.597157 58:0.697495 59:2.483756 60:-0.550855 61:-1.329665 62:-0.455689 63:0.752534 64:1.487214 65:-0.282545
-1 1:-1.219684 2:-0.966208 3:0.005265 4:1.567740 5:-0.037389 6:0.328583 7:-0.075689 8:-1.986623 9:-1.214096 10:0.958216 11:-0.475086 12:-2.959328 13:-0.051144 14:0.189137 15:-0.635071 16:-1.183334 17:-0.506084 18:-0.417838 19:0.247149 20:1.781625 21:0.690069 22:0.305000 23:1.491714 24:-0.644663 25:0.274677 26:-0.799934 27:-0.803360 28:-0.156541 29:1.194144 30:-0.926792 31:0.925166 32:0.339380 33:-0.243469 34:0.850115 35:1.824577 36:-1.270497 37:1.039837 38:0.568585 39:0.875342 40:-0.868901 41:-0.578318 42:-1.277137 43:-0.433279 44:-0.274588 45:1.699097 46:-0.592969 47:-0.360033 48:-0.446090 49:-1.242610 50:-0.552411 51:-1.443676 52:-0.861284 53:0.010160 54:-0.563396 55:-1.067081 56:0.239008 57:0.400625 58:0.023995 59:-0.366265 60:0.908861 61:-1.486638 62:-1.118737 63:-1.667816 64:-0.693675 65:-0.570644
-1 1:0.473870 2:0.151535 3:0.663603 4:-0.579156 5:-1.597750 6:1.247188 7:-0.234757 8:0.373349 9:-0.407599 10:0.193642 11:-0.243269 12:1.176426 13:0.006336 14:0.064486 15:1.921791 16:0.141909 17:0.153125 18:0.969026 19:-0.397936 20:-3.051002 21:0.242142 22:0.070740 23:-0.044195 24:0.651529 25:-0.846724 26:-0.627600 27:0.283915 28:0.869019 29:-0.485398 30:-0.364267 31:-0.912042 32:1.413739 33:0.934202 34:-0.405864 35:-0.163867 36:0.963541 37:-1.484294 38:-0.495387 39:-0.892449 40:0.004969 41:0.676303 42:0.709551 43:-0.783881 44:1.175255 45:0.025347 46:0.592408 47:0.288823 48:-1.172080 49:-0.746817 50:2.003697 51:0.263183 52:0.006736 53:-0.047704 54:0.768442 55:0.154013 56:-0.741446 57:1.404473 58:0.622095 59:1.500084 60:-0.661584 61:-0.320951 62:-0.968615 63:0.373991 64:-0.773634 65:-0.697447
-1 1:0.047982 2:-0.540595 3:0.803594 4:-0.326823 5:-0.478389 6:0.307039 7:-0.876305 8:0.456851 9:0.888157 10:0.479337 11:1.191123 12:-1.306072 13:1.152750 14:0.155310 15:0.639778 16:0.719027 17:-0.045568 18:-1.362641 19:-0.372681 20:-1.579510 21:0.721374 22:0.451709 23:0.086779 24:-0.577852 25:-0.903125 26:-0.338013 27:-1.008580 28:-1.097061 29:-0.094872 30:0.084498 31:-0.403073 32:-1.203189 33:0.214449 34:2.577168 35:-2.025176 36:0.228340 37:-1.256548 38:-0.465441 39:0.907862 40:0.329652 41:-0.308666 42:-0.485980 43:1.222837 44:0.938435 45:2.498773 46:-1.027247 47:0.601460 48:0.389779 49:0.441861 50:-0.451568 51:0.554256 52:-0.936837 53:1.419760 54:0.030790 55:0.180779 56:-0.082952 57:1.192590 58:-1.278287 59:-0.718197 60:-1.251139 61:-0.243594 62:-1.507285 63:0.018394 64:-1.783267 65:0.126159
-1 1:0.844660 2:0.522877 3:-1.165379 4:0.447939 5:3.271741 6:-0.098384 7:0.724902 8:-0.723859 9:-0.361071 10:1.189950 11:-0.784547 12:2.455650 13:-2.279706 14:-0.523190 15:0.219140 16:0.643819 17:0.904694 18:-0.390541 19:-0.544099 20:0.283135 21:0.170691 22:0.019698 23:0.136082 24:-0.808677 25:0.492272 26:0.184823 27:-0.033333 28:0.442555 29:1.510137 30:1.280142 31:-0.823876 32:1.975529 33:-0.178764 34:-0.862590 35:0.442830 36:-1.432490 37:0.992729 38:-1.180956 39:-0.970800 40:-1.210898 41:-1.460650 42:0.804244 43:0.947023 44:0.515464 45:1.064837 46:0.925581 47:1.422741 48:0.088725 49:-1.705446 50:1.957326 51:-0.780114 52:1.109382 53:0.784768 54:1.779571 55:-1.410252 56:-0.962970 57:0.076273 58:-0.816540 59:1.689306 60:-0.121547 61:0.516041 62:-2.413374 63:-0.540962 64:-0.770576 65:0.504293
-1 1:1.705605 2:0.423642 3:-0.507082 4:-1.645993 5:1.450342 6:-1.156193 7:0.344918 8:0.506367 9:-1.220545 10:-0.317126 11:1.057324 12:-1.313355 13:-0.467896 14:1.734035 15:0.425903 16:-1.273959 17:-0.480514 18:1.519704 19:-1.074441 20:-0.470000 21:0.907485 22:-1.299714 23:0.494727 24:1.152289 25:-0.840815 26:-0.375551 27:-0.453459 28:1.090162 29:0.259538 30:0.594257 31:1.128096 32:0.507366 33:-1.629271 34:-0.177605 35:-0.608749 36:-1.716642 37:0.527439 38:1.180262 39:-0.794296 40:-0.968952 41:1.987694 42:-1.573081 43:0.078784 44:-0.534306 45:-1.614592 46:-0.323919 47:0.986971 48:-0.701564 49:0.071066 50:-0.284471 51:-1.535279 52:0.856601 53:0.032445 54:0.633375 55:-0.198344 56:0.940302 57:-0.841529 58:0.935147 59:1.218810 60:0.995562 61:-0.551432 62:-0.318122 63:-0.889993 64:0.636605 65:0.321836
-1 1:-0.533010 2:1.640424 3:0.742327 4:-0.623712 5:-0.355622 6:-2.547550 7:0.787960 8:-1.477656 9:0.668723 10:-0.270916 11:-1.299072 12:1.309367 13:-0.900505 14:0.512212 15:-0.830252 16:-1.286007 17:1.133318 18:-0.419280 19:-0.057567 20:-0.179361 21:-1.509184 22:0.178606 23:-0.402692 24:0.183808 25:2.269548 26:0.214664 27:0.957712 28:-0.048662 29:0.403795 30:1.060876 31:-1.187258 32:0.188482 33:0.665815 34:-0.122391 35:-0.488623 36:-1.403098 37:-1.095053 38:0.340442 39:1.249878 40:-0.015949 41:0.497286 42:-0.247835 43:-0.021796 44:0.810995 45:-1.065671 46:0.134886 47:1.199374 48:-0.437607 49:-0.179231 50:-0.868194 51:1.622680 52:-0.649972 53:1.005302 54:-1.393833 55:-0.953427 56:-0.808330 57:-0.071658 58:0.646848 59:0.411075 60:-0.865529 61:-0.541860 62:-0.774968 63:0.346623 64:1.936566 65:0.006123
-1 1:-0.607511 2:-0.203143 3:-0.807056 4:0.560088 5:-1.524962 6:-0.186986 7:-0.681703 8:-1.673686 9:0.217519 10:-1.461490 11:1.521412 12:2.336769 13:0.186741 14:0.506289 15:-1.284257 16:0.661813 17:-1.998960 18:0.138418 19:-1.577916 20:1.954518 21:-0.047068 22:-1.128866 23:0.108133 24:-0.717911 25:-0.473778 26:-0.016090 27:0.379887 28:-1.945570 29:0.323050 30:0.892162 31:1.321239 32:-0.222788 33:1.006888 34:-2.436314 35:0.697593 36:2.254089 37:-0.514116 38:0.643578 39:1.183740 40:1.194687 41:0.060531 42:-0.818851 43:0.454055 44:-1.714882 45:-0.367435 46:0.751256 47:0.305362 48:-0.626200 49:-0.000696 50:1.679749 51:-0.882495 52:-1.700473 53:0.038365 54:0.853943 55:1.852894 56:0.640105 57:0.942262 58:1.356684 59:0.061069 60:0.455783 61:0.398236 62:1.231199 63:0.446236 64:0.873633 65:-0.849857
-1 1:-0.110351 2:-1.074390 3:-0.202547 4:0.065326 5:0.582361 6:0.439016 7:0.845718 8:-0.538558 9:0.477433 10:0.760445 11:-0.436106 12:-0.922841 13:-0.466539 14:0.647845 15:-1.701942 16:0.578166 17:0.089901 18:0.758221 19:-0.587544 20:0.234981 21:1.672913 22:-1.005181 23:-0.245081 24:-0.600208 25:2.979561 26:0.026898 27:-0.073957 28:-0.870006 29:-0.073198 30:-1.088372 31:-0.763252 32:1.105543 33:-0.588817 34:-0.406158 35:0.109203 36:2.888671 37:0.284714 38:-1.222574 39:-0.283011 40:-0.968297 41:-0.492000 42:0.817858 43:1.099519 44:0.344962 45:0.485511 46:-1.214118 47:0.303528 48:-0.005983 49:0.810347 50:-1.180946 51:1.396591 52:1.252377 53:-0.274716 54:1.612641 55:-0.624284 56:-0.379407 57:0.320164 58:-0.060710 59:-1.183041 60:1.345988 61:-1.182586 62:-0.773044 63:-0.908516 64:-0.336242 65:-1.173385
-1 1:-0.520105 2:-0.392694 3:-1.052490 4:0.420217 5:0.355665 6:1.985265 7:-0.241561 8:-0.280842 9:1.666596 10:0.549568 11:-1.013543 12:-0.750173 13:-0.420828 14:0.184657 15:1.452117 16:-0.328925 17:-0.166070 18:-0.961045 19:-1.128637 20:-0.108580 21:-0.230676 22:0.118488 23:-0.584840 24:-0.792660 25:0.827336 26:0.739789 27:0.194507 28:-0.291062 29:-0.261233 30:-0.458832 31:1.264716 32:-1.063374 33:-0.419707 34:-0.047103 35:0.425547 36:0.171693 37:0.956080 38:0.069897 39:-0.569986 40:0.156273 41:-1.294639 42:-0.898791 43:-0.770133 44:0.627603 45:-0.645280 46:0.460928 47:0.596468 48:-1.645978 49:-0.300500 50:1.688389 51:0.836053 52:-0.869483 53:0.696718 54:-1.646952 55:-1.140940 56:-0.153447 57:-0.713165 58:0.356628 59:-1.475555 60:0.440149 61:-0.117279 62:-0.323774 63:0.310442 64:0.828501 65:-0.343735
-1 1:1.278979 2:-0.534357 3:-0.832313 4:-0.048263 5:-0.297160 6:1.199008 7:-0.302339 8:1.060217 9:1.056125 10:0.883942 11:0.908713 12:-0.643444 13:0.077379 14:-1.534298 15:-1.048222 16:-0.137705 17:-1.584218 18:0.220027 19:0.751757 20:-0.079231 21:-0.937112 22:1.994254 23:0.330377 24:-1.465024 25:0.094380 26:0.181938 27:-0.457102 28:-0.395714 29:-0.813690 30:0.882424 31:-0.130995 32:2.239829 33:-1.640923 34:-0.856758 35:0.069139 36:-0.587878 37:-0.240579 38:-0.864662 39:0.256799 40:0.039277 41:1.564092 42:1.368746 43:0.583520 44:1.116187 45:0.426186 46:1.068611 47:2.283698 48:0.327912 49:0.600375 50:-0.835262 51:-0.109170 52:-0.861012 53:0.682177 54:-0.535985 55:-1.169437 56:-0.772407 57:0.469421 58:0.409930 59:0.321849 60:-0.183075 61:1.368761 62:-0.868784 63:1.372040 64:0.515411 65:-0.067835
-1 1:0.511575 2:-1.573960 3:0.320324 4:1.011329 5:2.631384 6:2.160999 7:-1.403362 8:1.641473 9:-1.654572 10:0.758948 11:0.017964 12:0.962695 13:-0.227275 14:-0.141268 15:-0.616391 16:-0.718716 17:-0.756733 18:-0.940049 19:-0.169383 20:-0.267181 21:-1.357220 22:-1.069300 23:1.080248 24:2.246219 25:-0.147068 26:2.208648 27:0.668900 28:0.605336 29:1.066722 30:-2.383370 31:-0.030608 32:1.715410 33:-1.052200 34:0.270013 35:1.979713 36:-0.083781 37:-0.656285 38:-0.443991 39:0.432423 40:-0.195686 41:2.076546 42:1.062059 43:0.153584 44:1.359800 45:-0.092070 46:1.020525 47:0.229084 48:1.882815 49:0.551198 50:-1.427578 51:0.110312 52:1.292993 53:-0.274941 54:-0.247455 55:0.767828 56:1.390802 57:-0.217027 58:1.628652 59:0.865111 60:-0.957123 61:0.824183 62:0.368609 63:-1.121999 64:-1.605134 65:0.937939
-1 1:-1.523800 2:-0.332195 3:0.438926 4:-0.100354 5:0.171271 6:-1.121794 7:-1.966973 8:-1.204009 9:-0.312925 10:0.602299 11:-0.867777 12:1.720766 13:0.883610 14:-1.313930 15:0.193336 16:-0.451506 17:-0.628555 18:0.002444 19:-1.023494 20:-1.081944 21:-0.092200 22:-0.089707 23:0.311608 24:-0.326171 25:0.395276 26:-0.969174 27:-1.765874 28:-1.330888 29:1.630812 30:-1.678840 31:-1.804383 32:-0.257851 33:-0.864262 34:-0.003936 35:0.848175 36:0.038155 37:-0.230930 38:0.844287 39:-0.633963 40:-0.826525 41:0.240974 42:1.496760 43:0.301756 44:0.362919 45:-0.462402 46:-0.034688 47:0.794165 48:2.087606 49:-1.875938 50:-0.537696 51:-0.104281 52:-1.547802 53:0.401857 54:0.300453 55:-0.222403 56:0.008814 57:0.875518 58:-1.000322 59:2.416442 60:0.519394 61:0.722392 62:1.073989 63:-0.522806 64:0.978254 65:-0.542585
-1 1:0.488678 2:-0.248207 3:3.036402 4:0.794448 5:-0.824756 6:0.881466 7:0.585981 8:0.314864 9:-0.356851 10:0.949713 11:0.441663 12:-0.159885 13:0.124949 14:-0.943915 15:-1.449207 16:0.646098 17:0.359377 18:1.953601 19:-0.581453 20:1.351173 21:0.830165 22:-0.395028 23:-0.819948 24:-1.369236 25:1.806184 26:-0.663121 27:0.896495 28:0.637305 29:-0.101378 30:-0.318071 31:-0.189100 32:-1.499782 33:0.546460 34:-0.387571 35:0.659803 36:0.764468 37:1.976105 38:0.622245 39:-0.442169 40:1.424982 41:0.606440 42:0.177750 43:0.963330 44:-0.042110 45:0.215972 46:-1.604019 47:-0.500259 48:-0.379374 49:-1.365621 50:0.006314 51:0.188460 52:1.363489 53:0.824879 54:-0.030047 55:0.335783 56:0.669568 57:-1.481210 58:0.106374 59:0.453233 60:-0.774864 61:-1.331100 62:0.001041 63:-0.671885 64:-1.027250 65:-0.894713
-1 1:1.023969 2:-2.101837 3:0.549947 4:-0.753162 5:-0.607836 6:-0.196446 7:-0.085326 8:-2.974378 9:-1.067468 10:-0.600358 11:-0.504289 12:0.694810 13:1.405783 14:0.730434 15:-0.260070 16:-0.150212 17:0.614883 18:-0.188398 19:1.179619 20:0.330855 21:-0.655240 22:0.523144 23:-0.670755 24:-0.494114 25:0.361223 26:0.608300 27:0.799966 28:0.642489 29:-0.376028 30:-0.414859 31:-0.835858 32:0.753654 33:1.440072 34:-0.776894 35:-0.504510 36:-0.503760 37:1.801041 38:-2.247582 39:-0.257986 40:1.948818 41:1.590608 42:0.131858 43:-1.385590 44:1.381518 45:-0.121023 46:0.453327 47:-0.025370 48:-0.013773 49:-0.792924 50:-0.388839 51:2.511899 52:0.814993 53:2.917983 54:-1.755218 55:-0.406029 56:1.874796 57:1.211413 58:0.730586 59:0.563659 60:1.311951 61:0.102872 62:0.791689 63:-0.008247 64:-1.646622 65:0.048563
-1 1:-2.871744 2:-0.732864 3:-1.778991 4:-1.321734 5:0.218445 6:1.124146 7:-0.311513 8:0.429676 9:-0.796469 10:-0.315383 11:-2.127637 12:0.658296 13:-2.211376 14:-0.849132 15:-0.371530 16:-1.128437 17:0.487059 18:-1.759709 19:-0.900706 20:0.435881 21:-1.482541 22:0.691779 23:-1.427091 24:-0.577637 25:1.092996 26:0.785131 27:-0.834476 28:-1.398309 29:-0.518522 30:-1.249352 31:0.149148 32:0.370564 33:1.792214 34:-1.145818 35:1.228480 36:0.344888 37:-0.060778 38:0.055362 39:-0.627696 40:-2.034533 41:0.095894 42:-0.278034 43:2.305514 44:0.329448 45:1.849464 46:-0.219954 47:0.504309 48:1.018542 49:0.821222 50:0.453809 51:0.525127 52:-0.794820 53:-1.181409 54:-0.501552 55:-0.012770 56:0.734861 57:-0.929958 58:0.586155 59:0.469514 60:0.101366 61:0.517554 62:-0.113810 63:-0.974999 64:1.666792 65:0.471568
-1 1:1.294367 2:-0.606166 3:-1.554994 4:-0.398374 5:0.390371 6:1.047130 7:1.481935 8:-0.358779 9:1.416678 10:0.299211 11:0.402469 12:-0.005689 13:-0.460197 14:-0.673014 15:1.841204 16:1.421901 17:0.130922 18:1.328275 19:1.472623 20:-2.159294 21:-0.975483 22:-0.404156 23:-1.523910 24:0.594523 25:-0.990844 26:0.645718 27:-1.086404 28:0.269463 29:-1.390525 30:1.337057 31:-0.414325 32:1.594232 33:-1.712897 34:-0.910455 35:-0.570906 36:0.782427 37:-0.965655 38:0.381042 39:-0.836861 40:0.434741 41:0.177272 42:-0.313962 43:-1.523141 44:0.873281 45:-0.701172 46:-0.802689 47:1.254943 48:0.950418 49:-0.882672 50:0.327755 51:-0.160807 52:0.558425 53:0.798535 54:-0.177363 55:-2.097501 56:0.959154 57:-0.277701 58:-1.565830 59:-0.091143 60:0.044217 61:-0.909620 62:-0.230319 63:0.193785 64:1.193133 65:-1.173980
-1 1:-0.520939 2:0.461879 3:-0.320073 4:1.438525 5:-0.822036 6:0.365287 7:1.433141 8:0.060718 9:-1.110734 10:-0.683051 11:1.005153 12:-2.001751 13:1.285849 14:-1.138732 15:-1.452353 16:0.581400 17:0.270371 18:0.265890 19:0.451752 20:-0.521110 21:0.160777 22:0.039636 23:-1.496376 24:1.024552 25:-0.747147 26:-0.054496 27:-1.034146 28:0.482288 29:-1.191030 30:1.204228 31:-0.299223 32:0.345195 33:-0.463458 34:-0.814562 35:-1.414953 36:-0.584121 37:1.218336 38:-0.211835 39:0.115271 40:0.181951 41:-0.923442 42:-1.483494 43:-0.965961 44:0.908899 45:1.707756 46:2.058456 47:0.909510 48:-1.145728 49:-2.157321 50:0.084867 51:1.013834 52:-0.024744 53:-0.234367 54:-0.715760 55:-1.023701 56:-1.731000 57:-0.668809 58:-2.132273 59:-1.294134 60:1.443164 61:1.196619 62:-1.226553 63:-0.374331 64:-0.644520 65:-1.160316
-1 1:-0.141212 2:-1.632807 3:-0.211679 4:-1.214564 5:1.515103 6:0.643978 7:0.196013 8:0.389827 9:-0.974092 10:-1.069524 11:-0.712540 12:0.911242 13:-0.841867 14:-0.111302 15:0.522908 16:-0.388635 17:-0.504782 18:1.535422 19:-0.240017 20:1.003002 21:-1.037945 22:-0.689649 23:-0.418512 24:1.487760 25:-1.052034 26:-0.517479 27:1.008142 28:-0.863287 29:-0.311140 30:1.863564 31:0.456151 32:-0.812325 33:0.712750 34:-2.307567 35:-0.483861 36:0.248874 37:0.433304 38:-1.821419 39:-1.765566 40:0.879774 41:0.078477 42:0.231519 43:0.331063 44:-1.787978 45:0.292600 46:0.628051 47:-1.376208 48:0.675761 49:-0.348487 50:0.094388 51:-1.080377 52:0.280915 53:-0.717274 54:0.501726 55:0.025817 56:0.513355 57:-0.039808 58:0.461295 59:-0.338147 60:-0.771551 61:-0.901731 62:1.570992 63:0.548025 64:0.719849 65:-0.124008
-1 1:0.660653 2:0.674626 3:-0.282731 4:1.024990 5:0.568596 6:-1.144253 7:0.300742 8:0.108070 9:-0.230863 10:-0.305494 11:0.105971 12:-1.810911 13:0.550445 14:0.166096 15:-0.205494 16:1.040898 17:0.310385 18:-0.659420 19:0.304117 20:0.621311 21:0.107983 22:-0.007312 23:1.124436 24:1.657580 25:-0.699042 26:1.217209 27:-0.827223 28:-1.078704 29:-0.916683 30:0.502306 31:-1.008518 32:1.274768 33:0.644723 34:0.473647 35:-0.328776 36:-0.429846 37:0.012122 38:-1.293682 39:-2.134127 40:2.494625 41:0.768667 42:-0.662986 43:0.603163 44:-0.761455 45:-1.160516 46:-1.621013 47:-0.396510 48:-0.451415 49:-0.485109 50:1.286403 51:0.485357 52:0.106612 53:-0.527053 54:0.278689 55:-1.742828 56:0.230212 57:0.028868 58:-0.498630 59:-0.786963 60:-0.215456 61:1.013232 62:0.469664 63:1.106367 64:-0.046972 65:-0.610986
-1 1:0.441145 2:0.883627 3:-1.787264 4:-0.554237 5:-0.929685 6:0.052765 7:-0.508099 8:-1.201182 9:0.463542 10:-0.008784 11:-0.046799 12:0.121546 13:0.613445 14:0.541677 15:0.130009 16:0.002160 17:-0.244728 18:-1.156277 19:-0.536365 20:0.082958 21:-0.151156 22:-0.269051 23:-1.445741 24:-0.646025 25:0.966893 26:-1.691210 27:-1.631728 28:1.454359 29:-1.013880 30:-1.206685 31:-1.140491 32:-0.251257 33:0.152743 34:1.246680 35:-0.722132 36:1.223140 37:1.893996 38:-0.407169 39:1.112220 40:-0.061947 41:-0.515637 42:-0.669142 43:0.201888 44:1.920577 45:0.259273 46:-0.041476 47:1.183418 48:-2.193190 49:2.148198 50:-0.824923 51:-1.234917 52:1.131873 53:-0.219926 54:0.712578 55:0.496334 56:-0.556203 57:0.746160 58:0.004424 59:1.816365 60:0.365892 61:-1.883208 62:0.847997 63:0.836831 64:-0.185719 65:-0.790781
-1 1:1.735046 2:1.240068 3:0.306987 4:0.413861 5:-1.751146 6:0.013755 7:0.483553 8:-0.229841 9:0.111138 10:0.498812 11:-0.756746 12:-2.959709 13:0.131963 14:-0.522658 15:0.607574 16:-1.216059 17:-1.070246 18:-0.778194 19:0.108964 20:0.732529 21:-1.325127 22:-0.341701 23:-0.420561 24:0.742323 25:-0.496615 26:-1.220889 27:0.288417 28:-0.592980 29:-0.076934 30:1.104572 31:1.399772 32:-0.979462 33:-0.725589 34:2.623239 35:1.636073 36:0.228240 37:-0.022817 38:-1.148868 39:1.471801 40:0.417305 41:0.262818 42:-0.156818 43:1.039081 44:-1.526909 45:1.447419 46:1.470955 47:0.991117 48:-1.841138 49:-0.009590 50:-1.541261 51:0.056478 52:-0.182663 53:0.137499 54:0.525648 55:-0.122331 56:0.463945 57:-1.979090 58:0.438116 59:-2.689764 60:-1.933985 61:-0.069676 62:-0.276944 63:-1.232684 64:1.357088 65:-0.988823
-1 1:0.536585 2:1.085399 3:-0.433976 4:-0.254460 5:-0.211607 6:-0.237602 7:1.482417 8:0.109272 9:0.663439 10:-0.891606 11:1.041379 12:-1.413355 13:-2.097563 14:1.098278 15:-1.120657 16:-0.080532 17:1.226543 18:-2.507673 19:-1.730076 20:-0.435602 21:-0.594317 22:0.835785 23:2.752577 24:1.487921 25:0.538196 26:0.737533 27:1.208489 28:0.543890 29:-0.507650 30:-0.633879 31:2.607286 32:0.752649 33:1.682971 34:-1.221903 35:-0.002914 36:0.627004 37:0.659024 38:0.095362 39:-1.573231 40:-0.975161 41:-0.556168 42:1.481229 43:-0.052077 44:-0.013235 45:-1.187457 46:-0.636701 47:-1.044707 48:-0.072229 49:-0.567728 50:-0.508343 51:2.389903 52:-1.160840 53:1.468668 54:1.112232 55:-0.553379 56:-0.496071 57:0.096097 58:1.534806 59:0.754093 60:0.751411 61:-0.231093 62:-0.536064 63:-0.550795 64:-1.575365 65:-0.660844
-1 1:-0.843985 2:0.971535 3:-1.135169 4:0.618727 5:-0.205711 6:0.512256 7:-1.087844 8:0.983150 9:1.084767 10:-0.509793 11:-0.240535 12:0.664107 13:0.167163 14:-0.885211 15:-1.605072 16:0.466227 17:-0.674675 18:-0.988019 19:-0.110096 20:1.375195 21:-1.620237 22:-2.359715 23:1.284834 24:-1.646788 25:-1.563201 26:-1.732085 27:1.654849 28:-0.923344 29:0.182262 30:0.119009 31:-0.053887 32:2.030029 33:-0.002463 34:0.657484 35:0.475028 36:-1.236974 37:-0.785928 38:0.331711 39:1.175761 40:-0.344365 41:0.751969 42:-2.461964 43:0.952294 44:-0.066772 45:-0.727234 46:-2.309431 47:-0.724691 48:1.822986 49:1.774369 50:0.849190 51:0.357941 52:-0.753917 53:0.123457 54:-0.474289 55:0.735942 56:-0.653150 57:-0.545377 58:0.495295 59:0.910437 60:0.645680 61:-0.653054 62:0.289752 63:-1.546567 64:0.334825 65:0.027160
-1 1:-1.550203 2:-0.841687 3:0.463619 4:-0.590756 5:2.761871 6:-0.378774 7:0.877998 8:-0.781877 9:1.197950 10:-0.068537 11:-0.660217 12:-1.484435 13:-2.154398 14:2.344675 15:0.449797 16:-2.091964 17:1.183714 18:-0.637372 19:-1.431239 20:0.985007 21:0.156185 22:0.836864 23:1.051756 24:-1.733047 25:-0.147627 26:-1.643520 27:-0.140696 28:0.607787 29:0.049160 30:0.740295 31:0.276051 32:-1.115345 33:-0.399588 34:-0.515062 35:-1.963197 36:1.512085 37:0.825532 38:1.267053 39:-0.332529 40:-0.095599 41:0.820016 42:-1.099854 43:1.529570 44:2.008717 45:1.565778 46:-1.507471 47:-0.665045 48:-0.772840 49:0.082585 50:-0.275609 51:-0.941053 52:0.715398 53:0.996957 54:-0.118555 55:1.940825 56:0.508203 57:0.730969 58:-2.013848 59:-0.917711 60:1.446817 61:1.625894 62:0.396457 63:-0.155343 64:-1.470989 65:-0.730141
-1 1:0.568688 2:-0.937070 3:-1.598245 4:2.838014 5:-1.634686 6:1.700006 7:-0.034935 8:-0.724441 9:0.667563 10:-0.653248 11:-1.955116 12:0.675338 13:0.649906 14:-1.210422 15:-1.183616 16:0.550831 17:0.016411 18:-0.494841 19:0.553502 20:-1.085253 21:0.844665 22:-0.413447 23:-1.466099 24:-1.710484 25:-2.598576 26:0.919454 27:-0.458080 28:2.683758 29:-2.631336 30:-0.773668 31:0.759006 32:-0.107184 33:0.288728 34:-1.154704 35:-1.870155 36:-0.557240 37:0.144100 38:-0.487560 39:0.922134 40:-0.757524 41:-0.907302 42:-0.084302 43:-1.529927 44:-1.426370 45:3.470070 46:0.315302 47:0.984313 48:-0.526362 49:0.341088 50:1.095720 51:-0.049532 52:0.907460 53:1.199011 54:-0.561048 55:-0.430791 56:0.531491 57:-0.630537 58:0.167033 59:-0.741047 60:1.271574 61:-0.998245 62:-1.286943 63:0.717628 64:-0.966631 65:0.765720
-1 1:0.148133 2:-0.930780 3:0.443250 4:1.365084 5:-0.214571 6:-0.393813 7:1.021803 8:0.178949 9:0.062619 10:0.363265 11:-2.001447 12:1.121883 13:-1.972802 14:0.301833 15:1.102209 16:-0.849544 17:-0.634518 18:0.871416 19:-0.210837 20:-0.208893 21:-0.743449 22:2.698907 23:-0.478436 24:0.489137 25:1.270109 26:-0.421121 27:-0.608820 28:0.605253 29:0.150928 30:-1.619210 31:-0.710412 32:0.763911 33:0.730071 34:0.858230 35:-1.527856 36:0.160426 37:1.553345 38:-0.720874 39:-0.573908 40:-0.706821 41:-2.233412 42:1.243267 43:0.383241 44:-0.814580 45:-2.383131 46:-0.295944 47:2.525341 48:-1.304436 49:1.016001 50:0.748975 51:0.209340 52:0.442647 53:0.712510 54:-0.835751 55:-0.300186 56:0.130273 57:2.809261 58:0.561305 59:0.742713 60:-0.560022 61:0.066518 62:2.096654 63:-0.687399 64:0.538704 65:-0.028417
-1 1:0.547963 2:2.540483 3:0.544568 4:-0.091273 5:1.388852 6:-0.822822 7:0.614999 8:0.753180 9:-0.447906 10:0.118749 11:2.509055 12:-0.805461 13:-0.328648 14:0.256543 15:-0.924252 16:-0.937979 17:2.476468 18:0.224692 19:-1.013295 20:-0.035894 21:-0.738662 22:-0.017869 23:0.200485 24:0.047853 25:-0.407312 26:-0.653194 27:-0.751473 28:-1.106993 29:-0.293726 30:-0.461287 31:-1.162766 32:-3.212368 33:-0.376372 34:0.439096 35:-0.735507 36:-0.715308 37:-0.584353 38:0.343454 39:-0.469264 40:1.258009 41:-0.179158 42:-0.817441 43:-0.422751 44:0.121914 45:-1.843069 46:1.008804 47:0.745989 48:1.466920 49:-0.028515 50:-0.756956 51:0.150472 52:0.852800 53:1.613044 54:1.902456 55:-0.926853 56:-1.102487 57:0.074044 58:1.901013 59:-1.296467 60:-0.284674 61:1.228361 62:-0.855387 63:-1.821882 64:-0.245396 65:0.939611
-1 1:1.704498 2:-0.341957 3:-0.582747 4:1.045093 5:0.456026 6:-0.056921 7:-0.945060 8:-0.330782 9:-0.300535 10:-0.998554 11:-0.847615 12:-1.365782 13:-0.222549 14:-0.167957 15:-1.408388 16:0.268633 17:0.114067 18:-0.229402 19:0.447198 20:-0.877000 21:-1.473919 22:-0.678840 23:-0.196819 24:-2.739410 25:-0.186074 26:-1.092186 27:0.717001 28:2.938345 29:-1.861941 30:-0.413532 31:-0.629240 32:0.181774 33:-0.360658 34:0.344021 35:-0.951690 36:-1.329613 37:0.002010 38:-0.468517 39:0.635361 40:1.110949 41:0.384418 42:-0.060867 43:-0.499783 44:-0.063351 45:1.439760 46:-0.312913 47:-0.434144 48:0.429894 49:0.336838 50:0.813311 51:-0.811547 52:0.877340 53:0.175460 54:-2.024413 55:1.315985 56:1.740544 57:-0.272737 58:1.872714 59:-0.982422 60:1.199265 61:1.699202 62:-0.126534 63:1.112990 64:-1.257019 65:-0.377839
-1 1:0.488983 2:1.071874 3:0.098160 4:-0.263274 5:0.542228 6:1.672926 7:-1.099939 8:-0.650745 9:-0.171307 10:1.081012 11:-0.905116 12:-2.371655 13:0.569006 14:0.527575 15:0.663244 16:-0.827499 17:-1.108845 18:-0.221800 19:-0.920522 20:-0.080976 21:-0.794903 22:1.761098 23:0.371193 24:0.055772 25:1.028997 26:0.377157 27:2.045863 28:-1.185814 29:-1.423929 30:0.299035 31:0.063466 32:0.327179 33:0.262464 34:-0.214544 35:-1.910501 36:-0.392434 37:-0.081678 38:0.769290 39:0.781470 40:0.261991 41:1.148817 42:-0.322241 43:0.892607 44:0.059211 45:-1.308543 46:0.412534 47:0.710237 48:0.653685 49:-0.441484 50:-0.025234 51:0.443749 52:1.213404 53:0.350544 54:0.292979 55:0.766096 56:-0.167854 57:-0.425634 58:0.832499 59:1.152211 60:-0.052761 61:0.122385 62:2.768546 63:0.399811 64:0.340200 65:-0.121509
-1 1:0.459527 2:-1.604180 3:0.869765 4:0.469263 5:1.024071 6:0.312315 7:1.088052 8:0.644413 9:-0.556499 10:-1.823010 11:-0.280340 12:-0.691572 13:-0.235261 14:-1.804480 15:-0.196458 16:1.660887 17:0.971953 18:0.571157 19:0.051535 20:0.412970 21:-0.730809 22:0.859231 23:-0.811991 24:-0.109361 25:0.280982 26:0.015671 27:0.886156 28:-1.942058 29:1.048772 30:1.123172 31:-1.732452 32:-0.777404 33:0.814388 34:-0.524246 35:-0.600032 36:-0.108437 37:-0.123261 38:0.817195 39:0.774196 40:0.523673 41:-1.373774 42:-0.380905 43:0.478756 44:0.350070 45:-0.215392 46:-0.259964 47:0.294055 48:0.299294 49:-0.320728 50:-1.025338 51:0.207572 52:-0.617200 53:-0.863645 54:0.912514 55:-0.174599 56:0.516954 57:-1.553593 58:1.547352 59:-0.899922 60:0.865626 61:-0.864829 62:-1.183638 63:1.110952 64:0.220187 65:0.156958
-1 1:0.036480 2:0.008945 3:0.430184 4:1.304565 5:-1.188923 6:-0.696271 7:0.025064 8:-1.241244 9:-0.392968 10:-0.630353 11:0.690181 12:2.360993 13:-1.460751 14:-0.163412 15:-1.332953 16:0.880734 17:1.903535 18:0.489482 19:-0.030028 20:0.181038 21:0.964170 22:-0.272889 23:-0.309770 24:0.422824 25:1.552291 26:1.191539 27:-0.872881 28:-2.221923 29:0.679190 30:-0.466100 31:1.397117 32:0.292700 33:-0.002270 34:1.152038 35:0.824518 36:1.175598 37:0.478048 38:1.123090 39:0.008342 40:0.798060 41:-1.194784 42:-0.278406 43:-1.159646 44:0.570037 45:0.270657 46:0.729707 47:2.164433 48:-0.693439 49:-1.045985 50:-0.695181 51:0.386573 52:0.260257 53:-1.365238 54:-1.200016 55:-0.355194 56:-2.650461 57:-0.713231 58:-0.175412 59:-0.033063 60:-0.521328 61:-0.079656 62:-0.309077 63:0.915920 64:0.151414 65:-0.482174
-1 1:-1.445318 2:0.127083 3:-1.516156 4:0.061906 5:-0.413542 6:2.376189 7:0.991355 8:0.448046 9:0.773202 10:0.663652 11:0.206355 12:0.914600 13:-1.295043 14:-0.755154 15:1.096085 16:0.001445 17:-0.389710 18:-0.099310 19:0.194811 20:1.404059 21:1.327622 22:0.631178 23:1.710622 24:-0.495957 25:-0.863227 26:-0.810220 27:-1.479985 28:0.990208 29:-0.580363 30:-0.655225 31:0.219615 32:-0.985521 33:1.152552 34:1.174138 35:1.162693 36:0.201380 37:1.603051 38:0.033500 39:0.963853 40:0.908343 41:0.389475 42:-1.010573 43:-0.420581 44:-0.019353 45:1.300881 46:0.665793 47:-1.897654 48:-1.679748 49:1.917462 50:-0.491115 51:0.335129 52:-1.365141 53:0.337061 54:-0.566475 55:-0.985422 56:-0.041008 57:-0.000018 58:0.335842 59:0.773248 60:1.490541 61:-0.162945 62:1.444618 63:-0.029102 64:-0.991773 65:-0.035126
-1 1:-0.555898 2:-1.563033 3:1.328887 4:-2.509382 5:1.219868 6:-0.211462 7:0.266881 8:-0.473785 9:1.110515 10:-0.691959 11:-0.057580 12:0.019467 13:-0.785613 14:-1.352780 15:0.385985 16:-1.356513 17:-0.948661 18:0.024833 19:0.335441 20:-0.558692 21:-1.755210 22:0.633887 23:-0.708266 24:1.251422 25:-0.546064 26:0.586549 27:-0.357857 28:-0.512449 29:0.503620 30:0.692197 31:1.296184 32:-0.657545 33:-1.086483 34:0.796019 35:-0.859299 36:-0.156132 37:-0.198457 38:-1.032884 39:-2.220315 40:-1.201736 41:-0.597434 42:-0.395973 43:-1.456048 44:0.832941 45:1.887634 46:-0.125691 47:0.557989 48:-0.380517 49:-0.979724 50:0.632472 51:0.298775 52:0.307725 53:0.548186 54:-0.790342 55:-0.300741 56:-1.334811 57:1.164730 58:-0.099510 59:-0.136820 60:-1.318389 61:-0.104902 62:0.708118 63:-0.258556 64:-0.682636 65:-0.339350
-1 1:-1.471609 2:0.078245 3:0.367850 4:-0.710088 5:-0.023392 6:0.255302 7:0.145147 8:-1.110058 9:0.744868 10:-0.860371 11:0.028737 12:-0.427499 13:-0.737448 14:-1.132735 15:0.215859 16:0.333344 17:1.283850 18:0.059171 19:0.850869 20:1.056247 21:-0.154122 22:0.271138 23:0.721356 24:-0.776560 25:0.144520 26:-0.521532 27:-0.092052 28:-1.469217 29:0.899758 30:-1.063702 31:0.708144 32:-0.587699 33:-0.875215 34:-0.599154 35:-0.452600 36:1.144564 37:-0.805594 38:-0.212670 39:0.302653 40:-0.040900 41:-0.668035 42:0.833342 43:-0.288346 44:1.006703 45:0.386652 46:0.986499 47:-0.006185 48:0.906821 49:-0.055558 50:-1.713710 51:0.728069 52:1.154160 53:-0.111914 54:1.881134 55:-0.117142 56:-0.387834 57:-0.165646 58:0.816611 59:1.344328 60:0.771045 61:-1.097371 62:1.977453 63:-2.382892 64:1.978582 65:0.711209
-1 1:1.494730 2:0.830868 3:3.281827 4:-0.003714 5:0.913744 6:2.266879 7:2.012852 8:-0.193590 9:-0.015046 10:1.130369 11:-1.800653 12:0.635400 13:1.069583 14:0.576200 15:-0.092379 16:0.801435 17:-0.723567 18:-0.513813 19:-1.336000 20:0.232056 21:0.824020 22:0.370140 23:0.709119 24:-1.834765 25:0.599400 26:-0.600714 27:-0.289743 28:0.720490 29:-0.001215 30:-0.802615 31:0.114187 32:0.400179 33:-0.794100 34:-1.577383 35:-0.723112 36:0.512501 37:0.286032 38:-0.064055 39:0.435146 40:0.828711 41:-0.094917 42:0.031284 43:0.010223 44:0.676486 45:-0.191631 46:-1.692660 47:0.131747 48:-0.367025 49:-0.357686 50:-1.015749 51:-0.214439 52:0.536868 53:-0.832464 54:1.040783 55:1.113754 56:0.842765 57:-2.027753 58:0.119977 59:0.030248 60:-0.655937 61:0.540891 62:-0.602522 63:0.580287 64:0.700912 65:-0.496189
-1 1:-1.358052 2:0.485033 3:0.327933 4:0.647809 5:0.906339 6:1.887627 7:1.069911 8:-0.982483 9:0.353681 10:0.083155 11:0.747666 12:1.550134 13:0.135892 14:1.981829 15:-0.733296 16:-1.579465 17:1.006070 18:-0.462952 19:-0.281991 20:0.739315 21:-1.504004 22:-1.116706 23:1.332111 24:0.461689 25:1.546688 26:-0.344954 27:-0.601191 28:-1.279539 29:0.153236 30:-0.379872 31:1.943600 32:0.018621 33:0.469120 34:-0.173066 35:0.148596 36:-1.570714 37:0.170817 38:1.334052 39:-0.520975 40:0.615441 41:-0.167616 42:-0.297874 43:-1.052286 44:-0.261534 45:0.351056 46:0.748007 47:-0.466337 48:-1.647128 49:0.107462 50:-0.975459 51:-0.465045 52:-0.258233 53:1.962429 54:0.449410 55:0.410410 56:1.264914 57:0.242142 58:-1.822626 59:0.011994 60:-0.916365 61:0.956873 62:-1.176875 63:2.473002 64:-1.426487 65:-1.343317
-1 1:1.138131 2:0.149826 3:0.005454 4:0.371327 5:0.098600 6:-0.250637 7:0.089313 8:-0.024900 9:0.499512 10:0.248295 11:-1.073356 12:1.761626 13:-0.759453 14:0.636562 15:1.190568 16:-0.853505 17:1.749183 18:0.041085 19:0.863567 20:0.042330 21:0.113109 22:-0.427367 23:0.871225 24:-0.187355 25:1.310054 26:-0.251517 27:-0.209415 28:0.884229 29:0.331032 30:0.058861 31:0.043902 32:0.290496 33:-0.141486 34:-0.911963 35:0.294637 36:-1.277414 37:0.953246 38:0.711570 39:-0.089094 40:0.846626 41:1.135563 42:0.490747 43:-0.000239 44:-2.439637 45:-0.503665 46:0.172411 47:1.221661 48:0.244158 49:0.061741 50:-1.907077 51:-0.506478 52:0.676020 53:-1.183839 54:-0.889499 55:-0.876595 56:0.148204 57:-0.385597 58:0.340814 59:0.161974 60:0.286779 61:1.549389 62:-0.636071 63:-0.994226 64:0.892988 65:0.010008
-1 1:-0.193594 2:-0.483587 3:-1.067467 4:-0.859451 5:0.925310 6:0.376006 7:0.683385 8:-0.671215 9:1.177019 10:0.842134 11:-0.314480 12:1.879318 13:0.699754 14:0.648662 15:-1.045712 16:-0.246773 17:-1.103839 18:0.099781 19:0.598110 20:1.314894 21:-0.157053 22:1.146158 23:-0.256783 24:-0.296460 25:1.209295 26:-0.868209 27:0.710123 28:-1.348585 29:-0.772646 30:1.265529 31:-1.068048 32:1.657568 33:-0.684788 34:0.270602 35:-0.207032 36:-0.712576 37:-0.677097 38:0.162415 39:0.740267 40:0.635973 41:-0.024132 42:-0.759186 43:-0.049381 44:1.034089 45:0.138438 46:1.482938 47:0.263915 48:0.024352 49:-0.238169 50:-0.941678 51:-0.619573 52:0.120167 53:0.448612 54:0.570768 55:-1.693652 56:-0.846750 57:1.007475 58:0.406647 59:0.540464 60:0.198159 61:0.465204 62:2.777823 63:-0.444453 64:-0.224379 65:1.236189
-1 1:-0.334297 2:-0.204271 3:-0.041044 4:0.385391 5:-0.422096 6:-0.514572 7:0.328447 8:0.744627 9:1.225889 10:-0.994453 11:0.592164 12:-0.902853 13:0.093965 14:-1.232590 15:0.567717 16:-0.745098 17:-0.091159 18:1.214056 19:1.646457 20:-1.240390 21:-0.268224 22:-0.900738 23:1.527972 24:-0.715135 25:0.152187 26:0.053118 27:-1.006024 28:-0.578018 29:-0.061481 30:-0.909240 31:-1.767055 32:2.206310 33:-1.448535 34:0.680922 35:-0.953189 36:0.020947 37:-1.337694 38:-1.519742 39:0.107124 40:-0.916769 41:-1.151516 42:0.404114 43:-0.015444 44:-1.543713 45:0.391570 46:-0.875806 47:-0.474041 48:0.199999 49:0.072494 50:-1.075287 51:-0.282648 52:-0.294127 53:-1.113917 54:1.815627 55:0.102876 56:-1.051201 57:0.519121 58:-0.714943 59:-0.280912 60:1.386213 61:-0.095347 62:0.346729 63:-0.759975 64:0.450302 65:0.375450
-1 1:-1.176445 2:-0.201391 3:-0.191918 4:0.187602 5:0.219359 6:1.480400 7:0.406853 8:1.206374 9:0.331520 10:-0.279263 11:-0.506488 12:-1.040427 13:-1.384849 14:-1.129824 15:-1.305480 16:-1.315279 17:0.402389 18:-1.058630 19:0.467172 20:1.006764 21:-0.600791 22:0.429179 23:0.475178 24:0.333702 25:1.014914 26:0.131768 27:-0.740919 28:-0.412724 29:-1.270464 30:-0.733002 31:-1.775835 32:-0.211212 33:0.510465 34:0.241214 35:-1.401741 36:-0.389173 37:-0.966226 38:-0.238990 39:1.330197 40:-0.613747 41:0.284465 42:0.454505 43:0.375527 44:-0.971339 45:-3.666440 46:1.757306 47:-0.602815 48:-0.105427 49:-1.663886 50:-0.015412 51:-0.607168 52:1.006532 53:-0.447044 54:-0.585206 55:-0.167931 56:-0.223625 57:0.685301 58:0.100642 59:0.250920 60:-0.506205 61:0.695525 62:0.408704 63:1.179272 64:1.171350 65:0.429114
-1 1:-0.417506 2:-0.366847 3:-0.841692 4:-0.919476 5:0.106933 6:-1.052054 7:-0.460107 8:-1.127723 9:0.545295 10:0.131826 11:0.037786 12:0.268116 13:0.738613 14:-1.372610 15:0.920911 16:0.773314 17:-0.159888 18:-0.190877 19:-1.392332 20:-0.973860 21:-0.341959 22:-1.523458 23:-0.312650 24:0.687397 25:1.635457 26:-0.245926 27:-0.815110 28:0.609955 29:-0.521996 30:2.405517 31:0.518454 32:-0.394912 33:0.551992 34:0.569810 35:-0.915603 36:-0.888204 37:-0.297584 38:1.730445 39:-0.414152 40:0.424510 41:0.110782 42:0.570808 43:-1.555664 44:0.039045 45:0.723289 46:-1.102165 47:-0.658661 48:0.062612 49:0.815642 50:-0.966792 51:-0.254063 52:0.532476 53:0.524009 54:0.708225 55:-0.721766 56:-0.957465 57:-0.747027 58:0.860446 59:-0.098541 60:0.921057 61:0.834579 62:1.352748 63:0.689786 64:0.340601 65:1.057079
-1 1:0.679463 2:0.218672 3:-0.530669 4:-1.419903 5:-0.865644 6:0.555801 7:2.566477 8:0.197088 9:-3.800010 10:-0.496027 11:0.456654 12:1.477131 13:-1.454023 14:-1.703538 15:0.034602 16:0.222470 17:1.183747 18:-0.093029 19:0.520389 20:2.426215 21:-0.353546 22:0.170974 23:0.754801 24:-0.330435 25:-0.747456 26:2.399173 27:0.563700 28:-0.106938 29:0.800630 30:-0.352722 31:0.201917 32:0.384726 33:-0.625991 34:1.265657 35:-1.228261 36:0.694000 37:-0.650247 38:-1.060542 39:0.927289 40:-0.484377 41:0.032445 42:1.977802 43:-1.581204 44:-2.656360 45:-0.618805 46:-1.582320 47:1.289443 48:1.960839 49:0.354716 50:0.547592 51:0.251823 52:-0.346773 53:-0.112863 54:-0.776814 55:1.761932 56:-0.366863 57:0.799810 58:0.828539 59:-0.107993 60:0.520602 61:1.846885 62:-0.210979 63:-1.504273 64:0.042061 65:1.508853
-1 1:-0.245833 2:1.686770 3:1.377747 4:-0.207932 5:-0.610281 6:-0.468206 7:0.536742 8:3.031524 9:-0.010894 10:-0.639601 11:-0.331967 12:-0.178759 13:0.538310 14:-0.019427 15:-0.284264 16:0.947433 17:0.362467 18:0.322776 19:-0.142677 20:-2.098367 21:0.367465 22:1.412697 23:-0.424312 24:-1.220544 25:-0.197841 26:0.936340 27:-0.863386 28:0.378664 29:1.166668 30:0.698893 31:0.754360 32:-0.059887 33:-0.107528 34:1.406975 35:1.158970 36:-0.239563 37:-1.090721 38:-1.041703 39:0.012655 40:1.026663 41:0.065879 42:1.941525 43:1.819806 44:0.719155 45:0.709877 46:0.734980 47:-1.828055 48:0.324328 49:0.266166 50:-1.307477 51:-1.097178 52:-1.406845 53:-0.090734 54:0.912535 55:1.264376 56:-0.301589 57:1.199682 58:0.261049 59:-1.207251 60:-0.378358 61:-1.089793 62:1.887807 63:1.282345 64:0.401806 65:0.300526
-1 1:-1.134158 2:2.236985 3:0.753377 4:0.233989 5:-1.371586 6:-0.739214 7:-0.492283 8:1.021641 9:-0.786878 10:0.060989 11:1.817385 12:0.429709 13:-0.468180 14:-1.462219 15:0.239921 16:-1.088667 17:-0.606171 18:-2.148836 19:0.801912 20:0.579462 21:-0.386079 22:-1.086444 23:-0.332046 24:0.003749 25:0.601828 26:0.209695 27:-0.864391 28:-0.824931 29:1.076639 30:1.444416 31:0.785974 32:0.225325 33:-1.475692 34:-1.260891 35:1.409794 36:-0.697261 37:0.399887 38:0.780408 39:-0.524436 40:-0.208041 41:-0.409821 42:-0.201090 43:1.101158 44:1.220073 45:-0.003406 46:-0.758978 47:-2.446730 48:-1.178719 49:1.702034 50:1.357318 51:-1.787723 52:0.344744 53:-1.202259 54:0.593361 55:0.140435 56:-0.706910 57:-0.411394 58:0.620936 59:0.348226 60:0.366072 61:0.894523 62:1.647298 63:1.345745 64:0.851841 65:0.398205
-1 1:-1.848661 2:0.025214 3:-0.484111 4:1.074127 5:-1.296555 6:1.855389 7:1.990999 8:-0.622942 9:0.767623 10:-0.075061 11:0.021795 12:0.706704 13:0.129767 14:-0.829040 15:-1.907941 16:-0.321684 17:-0.438768 18:-1.157436 19:-0.282828 20:1.125305 21:0.291356 22:-1.264895 23:1.197319 24:-1.138101 25:-0.834158 26:-0.240139 27:0.152500 28:0.393676 29:0.037505 30:-1.541998 31:0.436003 32:-1.791069 33:-0.826340 34:-1.251232 35:1.277655 36:1.406171 37:0.786272 38:-0.913557 39:0.047732 40:-0.892569 41:-0.100284 42:0.107140 43:-1.699739 44:0.030378 45:0.108545 46:-0.009528 47:2.430812 48:-1.396080 49:1.496460 50:-0.229852 51:-2.325342 52:-0.339959 53:-2.132486 54:0.103000 55:0.805997 56:0.682160 57:0.261681 58:0.400307 59:-1.694108 60:0.521236 61:-0.433619 62:-0.239446 63:-0.430283 64:1.043503 65:0.654167
-1 1:-0.276406 2:-0.395517 3:1.069747 4:0.164034 5:-0.040294 6:-1.221783 7:-0.429441 8:-1.272119 9:1.503011 10:-0.932254 11:-0.906465 12:0.883188 13:0.210864 14:0.259015 15:1.489300 16:1.595984 17:-1.242261 18:-0.002274 19:1.766951 20:0.651438 21:1.445655 22:0.488354 23:0.988583 24:0.645036 25:0.048270 26:-0.991303 27:-0.689303 28:-0.473894 29:-0.763825 30:-0.386823 31:-0.166816 32:0.915497 33:-0.990206 34:-2.742424 35:-0.544027 36:-0.514227 37:1.042144 38:1.029659 39:0.022853 40:-0.319096 41:-0.002232 42:-1.342473 43:0.839808 44:0.168833 45:0.359971 46:0.100346 47:-0.012529 48:-0.769210 49:-0.312600 50:0.392444 51:-1.315060 52:0.912511 53:-0.430229 54:0.242040 55:0.776042 56:0.681942 57:0.179604 58:1.827532 59:0.828611 60:-0.054424 61:-1.093842 62:0.172526 63:0.467443 64:0.461396 65:1.064896
-1 1:-0.421258 2:-0.520611 3:-0.654246 4:-0.845867 5:-0.572265 6:0.086841 7:-0.192471 8:2.071262 9:-0.928916 10:0.914203 11:1.460407 12:-0.131781 13:-1.841837 14:0.685874 15:1.364727 16:-0.950510 17:0.929582 18:1.258193 19:0.486298 20:0.984955 21:1.677122 22:-0.067573 23:0.170468 24:0.364489 25:0.361441 26:0.767138 27:-0.153903 28:0.532719 29:-0.254151 30:2.083472 31:0.559661 32:-1.484746 33:0.308875 34:-0.528873 35:0.902042 36:-2.468099 37:-1.580724 38:-0.545630 39:1.097712 40:-0.562239 41:-0.704658 42:0.105754 43:-0.315203 44:-1.034630 45:-0.351404 46:0.685433 47:-1.468403 48:-2.010076 49:0.514518 50:1.671940 51:-0.850652 52:0.160934 53:0.964922 54:-0.269610 55:0.781550 56:0.772001 57:0.784791 58:0.430110 59:1.382478 60:1.162830 61:-0.770082 62:-1.756122 63:0.252833 64:-1.764548 65:-0.052603
-1 1:0.513456 2:0.112871 3:-2.131960 4:-0.285367 5:-0.589876 6:0.873501 7:1.080628 8:-1.932334 9:1.129346 10:1.120722 11:-0.570698 12:1.305429 13:0.537007 14:-1.358138 15:1.673106 16:-1.265311 17:-1.328853 18:0.758889 19:1.839987 20:-0.094709 21:0.092195 22:0.638399 23:-1.813361 24:-0.245307 25:1.452217 26:-1.227814 27:0.440544 28:0.290918 29:0.065215 30:0.410414 31:-0.648837 32:-2.275809 33:-0.163891 34:0.584157 35:-1.784017 36:0.458002 37:-0.021646 38:-0.327159 39:-0.930423 40:-0.422485 41:0.292962 42:-2.101634 43:0.786280 44:0.239708 45:-0.621163 46:1.278681 47:-0.220660 48:-1.075875 49:-0.181728 50:-0.332590 51:0.061192 52:-0.466159 53:-1.061839 54:0.402975 55:-1.527764 56:-0.418319 57:-0.330279 58:0.418820 59:-0.476946 60:0.360364 61:-0.352347 62:-0.860359 63:-0.489501 64:-0.244125 65:-0.485060
-1 1:1.020882 2:-1.857470 3:-0.936629 4:-0.638256 5:-0.222343 6:1.505373 7:1.957609 8:0.266284 9:0.936223 10:1.470210 11:-0.554224 12:-0.741652 13:-0.863835 14:0.693520 15:1.094913 16:1.817960 17:0.717248 18:-0.253718 19:-1.348056 20:0.645563 21:-0.533662 22:-3.405831 23:-0.526456 24:-1.682037 25:-0.187687 26:0.246501 27:-1.265109 28:-2.007105 29:1.907058 30:1.580247 31:2.705489 32:0.345875 33:-0.735095 34:1.555549 35:0.021331 36:-0.613933 37:-1.127018 38:-1.611719 39:-1.016989 40:2.130176 41:1.274086 42:-0.884600 43:-1.506080 44:0.897777 45:-0.057989 46:-0.877240 47:0.390229 48:-0.323692 49:0.762772 50:-0.342461 51:0.032310 52:0.016479 53:0.281950 54:0.373471 55:0.436648 56:1.681492 57:-1.589875 58:-2.599747 59:0.494035 60:-1.687878 61:0.462530 62:-0.306052 63:-1.140356 64:1.106494 65:-0.597116
-1 1:1.624073 2:0.706758 3:-1.034144 4:-0.972717 5:0.040177 6:-1.038899 7:-0.367632 8:0.999339 9:0.045946 10:-0.488929 11:1.242385 12:0.998696 13:1.134727 14:1.949674 15:0.157618 16:1.077721 17:-2.077030 18:0.503488 19:0.546220 20:-0.097475 21:1.013994 22:-1.690794 23:0.052052 24:-1.123537 25:0.612978 26:1.103093 27:1.754672 28:-0.824317 29:-0.079303 30:-1.350732 31:1.183129 32:-1.234198 33:-0.123212 34:1.836178 35:2.098323 36:-1.160505 37:0.568963 38:0.672032 39:-0.377939 40:0.635453 41:0.666557 42:0.797430 43:0.007257 44:1.334241 45:0.145429 46:0.508712 47:-1.327858 48:0.885171 49:-0.867583 50:-0.590981 51:0.847859 52:-2.066365 53:0.038435 54:-0.481386 55:-0.275915 56:1.445925 57:1.740815 58:0.215553 59:-0.437805 60:1.427984 61:1.710646 62:-0.342217 63:-0.067819 64:0.643030 65:-0.159488
-1 1:-1.622861 2:0.973833 3:-1.250585 4:1.478916 5:0.011868 6:-0.309518 7:0.157244 8:1.218094 9:0.471887 10:0.620321 11:-1.137228 12:0.005956 13:0.496354 14:-0.003362 15:0.173097 16:-0.874857 17:1.423866 18:0.865066 19:0.440221 20:-2.511947 21:-0.522383 22:-1.633716 23:-1.336241 24:0.283914 25:-0.284016 26:-0.147909 27:1.047640 28:-0.174004 29:0.639000 30:0.070553 31:-0.393257 32:-0.215304 33:-1.421973 34:1.039273 35:-0.892244 36:0.210574 37:-0.371225 38:-0.267980 39:-0.666055 40:1.228247 41:0.680934 42:0.643003 43:-0.319048 44:0.624338 45:-0.437463 46:-0.301750 47:-0.864719 48:-1.510234 49:0.608336 50:-0.438664 51:0.745349 52:0.514486 53:-0.514680 54:-0.757075 55:-0.410450 56:0.818315 57:-1.116698 58:0.380614 59:-0.720433 60:0.464582 61:-0.688423 62:0.744681 63:1.129678 64:-1.137955 65:-0.317574
-1 1:0.301167 2:0.171403 3:1.120138 4:-0.219094 5:1.015043 6:-0.607612 7:0.629189 8:-1.004073 9:-0.118985 10:-0.089695 11:-1.695435 12:-0.121417 13:0.013084 14:0.448118 15:-0.678738 16:1.594403 17:0.727909 18:0.510044 19:0.360681 20:-1.013574 21:0.364561 22:-2.815470 23:-0.044657 24:0.363474 25:1.156402 26:0.314101 27:0.676921 28:0.060187 29:1.212273 30:0.084555 31:-1.122163 32:-0.550763 33:-0.739953 34:0.680073 35:-0.572991 36:-0.092597 37:-1.444651 38:-0.226953 39:-0.298945 40:1.723264 41:1.083278 42:-0.037453 43:2.233623 44:-1.026266 45:-0.249379 46:-0.763540 47:-0.157371 48:1.764981 49:0.693560 50:0.933737 51:-0.587967 52:-0.650581 53:1.675748 54:-0.828711 55:-1.423613 56:1.960392 57:-0.313245 58:0.718387 59:-0.264006 60:-1.269386 61:-0.348310 62:-1.047717 63:0.458950 64:-0.775002 65:-0.926830
-1 1:-0.180551 2:2.373321 3:0.756380 4:0.635038 5:0.600155 6:-1.077930 7:-0.648571 8:0.194162 9:-1.479089 10:0.003535 11:-0.774546 12:-0.762200 13:0.968912 14:-0.823787 15:0.995978 16:0.191941 17:0.647328 18:0.796630 19:-1.144780 20:-1.602099 21:2.234174 22:0.666771 23:1.653062 24:0.296439 25:-0.977244 26:0.190963 27:0.958974 28:-1.971247 29:1.966194 30:1.048369 31:-0.732290 32:0.051411 33:1.857209 34:0.729733 35:1.008522 36:-0.063152 37:-1.759184 38:0.541296 39:1.543342 40:1.735101 41:-0.004357 42:-0.586345 43:1.971596 44:1.271328 45:0.964190 46:0.578660 47:-0.929384 48:-0.360856 49:0.539957 50:0.736695 51:-1.294756 52:0.666123 53:-0.291034 54:-0.616545 55:0.116128 56:0.192634 57:-0.143501 58:-0.254526 59:1.126231 60:-0.999684 61:-0.029403 62:0.692644 63:-0.124304 64:0.046895 65:-0.908720
-1 1:-0.850867 2:0.006630 3:-0.454097 4:-1.488447 5:1.588930 6:1.831204 7:-1.229099 8:0.606526 9:-0.124448 10:-0.381028 11:-0.055042 12:0.271611 13:-0.228868 14:1.385202 15:-2.568914 16:1.320008 17:0.261845 18:-0.833072 19:-0.847153 20:-1.312366 21:-1.374592 22:-0.274376 23:-0.370827 24:0.015768 25:-1.630904 26:2.064220 27:-1.966837 28:-1.520612 29:-0.448355 30:-0.953831 31:0.556766 32:1.394431 33:0.447998 34:0.699870 35:1.220522 36:0.213813 37:-0.792588 38:0.490546 39:-1.030039 40:0.993124 41:-0.707443 42:-1.221050 43:1.278403 44:-1.574742 45:-0.292257 46:-1.309671 47:0.452523 48:-0.620527 49:0.403733 50:-0.603863 51:-0.196684 52:-1.102451 53:-0.843415 54:0.946635 55:-0.002050 56:-0.341534 57:-1.322824 58:-0.332448 59:-0.422909 60:0.604105 61:-0.843831 62:1.419448 63:1.251885 64:-1.031163 65:-2.352981
-1 1:0.898433 2:1.159096 3:1.600033 4:0.298766 5:-1.856550 6:1.125763 7:-0.008155 8:-0.797355 9:0.933453 10:-0.143835 11:-0.582745 12:1.448482 13:-0.871518 14:-0.787851 15:-1.115429 16:0.677051 17:-1.422778 18:1.453312 19:0.272696 20:-0.092314 21:1.664035 22:0.730686 23:0.013018 24:0.228153 25:0.280414 26:0.946821 27:-0.964767 28:-0.469690 29:0.325547 30:-2.032556 31:0.387878 32:1.471987 33:1.045655 34:-1.039592 35:0.902658 36:-0.472848 37:-0.207465 38:0.572885 39:-0.688452 40:-0.537934 41:-1.571873 42:-1.265869 43:-1.309315 44:0.430190 45:2.456796 46:1.519986 47:-0.407650 48:-0.984857 49:1.008600 50:-0.881189 51:1.128643 52:-1.150594 53:-0.325291 54:0.520588 55:-0.194497 56:-0.048295 57:0.554153 58:-0.357771 59:-0.347664 60:-0.675968 61:1.048507 62:-1.196261 63:-1.391413 64:0.394803 65:0.072534
-1 1:0.938194 2:0.025249 3:1.307870 4:0.673332 5:1.090639 6:-0.019895 7:1.270562 8:-0.203970 9:0.318445 10:-1.785590 11:-0.842340 12:1.015077 13:-0.121770 14:1.177385 15:0.017472 16:-2.134831 17:-0.911612 18:0.513703 19:-1.932244 20:-1.399908 21:0.992116 22:-0.116699 23:0.307887 24:0.401887 25:-1.076059 26:1.902136 27:-1.328747 28:0.357739 29:0.040537 30:1.256127 31:-1.174090 32:0.784362 33:0.617580 34:1.649906 35:-0.098490 36:0.588804 37:-1.923427 38:0.813337 39:-0.428365 40:-0.960119 41:0.129021 42:1.437515 43:-0.973327 44:0.400982 45:-0.464264 46:-0.803662 47:-0.826051 48:-0.437441 49:-1.165180 50:0.641505 51:-0.468162 52:1.326019 53:0.457511 54:-0.821660 55:1.154634 56:1.870878 57:0.090869 58:2.026582 59:-0.153134 60:-2.226197 61:0.020721 62:0.299884 63:-0.058139 64:0.573957 65:-1.582094
-1 1:0.731681 2:-1.304297 3:0.140212 4:-1.075470 5:0.225031 6:-0.190104 7:-0.973316 8:1.180290 9:0.583061 10:0.510294 11:0.128535 12:-1.124265 13:0.645355 14:1.093362 15:-1.447994 16:1.429604 17:1.462707 18:1.192595 19:0.967329 20:-0.707428 21:0.345133 22:-1.364057 23:1.129909 24:1.611233 25:0.355573 26:-0.770450 27:-1.131623 28:0.559371 29:-0.108887 30:0.257374 31:1.251055 32:-1.071772 33:0.710969 34:0.872830 35:0.545777 36:0.949057 37:0.277608 38:-0.663636 39:0.497104 40:-0.146683 41:0.122955 42:1.411331 43:-0.518306 44:0.139888 45:-0.634819 46:-0.938051 47:-0.666221 48:1.576735 49:2.065078 50:-0.598579 51:-1.526584 52:-2.088140 53:0.302676 54:-0.965764 55:0.371209 56:-1.616739 57:0.035551 58:-0.065344 59:-2.455309 60:0.408080 61:-0.127232 62:1.604587 63:-0.493186 64:1.547038 65:-0.118690
-1 1:-1.383579 2:-1.182050 3:-0.193179 4:-0.740516 5:-1.091016 6:-0.525480 7:-1.399113 8:-0.223873 9:-0.956503 10:0.489572 11:0.002756 12:-0.868986 13:-0.351827 14:-1.561895 15:-0.710792 16:0.793263 17:1.226375 18:-0.129862 19:-1.596401 20:1.457916 21:-0.308240 22:-0.330124 23:0.936524 24:-0.749505 25:0.721559 26:-0.688524 27:1.274924 28:-0.303970 29:-1.674873 30:-2.240858 31:3.437233 32:-0.531471 33:-1.123769 34:0.101878 35:-1.090521 36:-0.035229 37:-1.723248 38:0.958889 39:0.581452 40:0.657075 41:0.259002 42:1.439628 43:1.407942 44:-0.053710 45:-0.104274 46:0.667879 47:-0.677302 48:0.212174 49:1.097764 50:0.304810 51:-0.751202 52:0.963678 53:-0.050017 54:-0.117156 55:0.196297 56:0.069728 57:1.408177 58:0.091415 59:-0.631507 60:1.062899 61:0.352309 62:-0.332512 63:-0.834763 64:-0.732547 65:-0.001709
-1 1:0.121826 2:0.319730 3:-0.560917 4:-0.813838 5:2.067232 6:-0.741360 7:-1.128600 8:0.031748 9:0.293398 10:-1.645536 11:0.031963 12:-1.224710 13:-0.717091 14:0.454331 15:-1.157040 16:1.921039 17:0.499385 18:-0.490267 19:0.025530 20:-1.034159 21:0.928748 22:0.400144 23:0.193604 24:-0.010303 25:-1.011318 26:-0.779620 27:1.531320 28:0.785704 29:0.127731 30:-0.648449 31:-0.168322 32:-0.195867 33:-0.085000 34:0.771765 35:-0.832784 36:-0.814250 37:-0.034836 38:-1.164679 39:-1.214453 40:-1.291816 41:-0.054457 42:0.231308 43:-0.098017 44:-0.690510 45:-1.252053 46:1.368494 47:0.380313 48:-0.718713 49:-0.482458 50:-0.359512 51:0.391486 52:-0.151963 53:1.684696 54:0.203407 55:-0.482709 56:0.896082 57:1.018942 58:0.175215 59:0.320353 60:-1.687382 61:-0.257787 62:1.112815 63:-1.007600 64:0.561866 65:0.946931
-1 1:1.627596 2:-0.659872 3:0.657424 4:1.055659 5:1.847263 6:0.953442 7:0.310121 8:0.577348 9:0.927786 10:-1.050863 11:0.356113 12:-0.895916 13:-0.553240 14:0.140586 15:-0.609099 16:0.273357 17:0.696492 18:-0.087695 19:0.351474 20:1.127839 21:-0.737084 22:1.150951 23:-0.165887 24:-1.642196 25:0.537323 26:0.202328 27:-1.765904 28:0.231694 29:0.027487 30:-0.617475 31:0.492043 32:-0.162840 33:1.383526 34:1.158908 35:1.383852 36:0.951699 37:-0.811610 38:-0.446515 39:0.360269 40:0.904395 41:-0.348583 42:-0.718052 43:2.654253 44:-0.869335 45:2.365050 46:0.436255 47:-1.278192 48:-0.408466 49:-0.660881 50:0.027381 51:-0.626582 52:-0.046315 53:0.551581 54:0.669398 55:0.089688 56:-0.312235 57:0.680541 58:-0.115212 59:0.642361 60:0.513082 61:-0.181945 62:0.580336 63:-1.344402 64:0.525326 65:-0.488034
-1 1:1.604113 2:0.314649 3:-0.873937 4:1.964355 5:-1.113516 6:0.636233 7:0.954991 8:0.190736 9:2.308861 10:1.757433 11:-0.042650 12:-0.754299 13:-0.149305 14:-0.952674 15:0.734878 16:-0.305338 17:-1.774490 18:0.546332 19:-0.676020 20:-0.969005 21:1.239613 22:-1.118453 23:0.176666 24:0.285279 25:-0.054942 26:-1.510013 27:0.412537 28:-1.604303 29:1.137421 30:1.881434 31:0.487331 32:-0.440559 33:-1.825358 34:1.535601 35:-0.959743 36:-0.596514 37:-0.682072 38:1.142064 39:-1.294879 40:-2.037595 41:-0.630923 42:-0.655628 43:0.039692 44:-0.527671 45:0.230797 46:0.990637 47:-0.550564 48:0.544411 49:-0.436534 50:-0.275839 51:0.317736 52:-1.198219 53:0.545435 54:0.661789 55:-0.084486 56:0.838055 57:-1.247037 58:1.319859 59:-1.160515 60:0.216009 61:0.420196 62:0.376655 63:-1.190022 64:-1.202841 65:0.275448
-1 1:0.017884 2:-0.343499 3:0.978375 4:0.246647 5:2.073822 6:-0.181000 7:0.862134 8:-0.997400 9:0.722516 10:-0.256637 11:0.273464 12:-1.366588 13:-1.858577 14:-0.631853 15:-2.357208 16:-0.054972 17:1.210034 18:-0.716734 19:0.725153 20:0.694837 21:1.054201 22:0.022905 23:-0.825459 24:-0.402138 25:-0.336177 26:1.287301 27:0.579755 28:0.704438 29:-0.342671 30:0.672370 31:1.845891 32:1.447789 33:0.417257 34:-0.151091 35:-1.670341 36:-0.115172 37:0.129845 38:1.044821 39:-1.816830 40:0.382691 41:0.055790 42:-1.528378 43:0.577227 44:-0.400022 45:1.402588 46:-1.128535 47:1.539128 48:0.126465 49:0.438062 50:0.290104 51:0.061884 52:-0.874410 53:0.663172 54:-0.259865 55:1.151872 56:0.588133 57:2.105339 58:-0.748984 59:0.636909 60:-2.263805 61:-0.155715 62:1.758506 63:-1.165015 64:-0.261160 65:1.768985
-1 1:-0.526694 2:1.151727 3:-0.707412 4:-0.842224 5:-0.364086 6:1.843321 7:-0.843587 8:-0.290156 9:0.566204 10:-0.194154 11:-0.182947 12:0.452206 13:-0.691100 14:0.761153 15:-0.876146 16:-1.186297 17:-0.524225 18:-1.275291 19:0.743890 20:1.816847 21:-0.162979 22:0.868104 23:-0.967429 24:1.894444 25:-1.176349 26:-0.053732 27:-1.882253 28:-1.257778 29:1.071601 30:-1.924568 31:-0.380867 32:-1.291625 33:0.421116 34:-1.804567 35:-1.309026 36:0.480758 37:-0.125365 38:-0.711613 39:0.515739 40:2.356779 41:0.933816 42:-1.073263 43:0.502218 44:1.134505 45:-1.158239 46:-0.403458 47:-1.370108 48:-2.263151 49:0.779722 50:-0.285506 51:-0.293459 52:-0.182850 53:-0.050014 54:-0.486605 55:-3.124662 56:0.307990 57:-0.272643 58:0.964888 59:0.558718 60:0.159600 61:0.171948 62:0.294999 63:-1.020108 64:0.573663 65:-0.388912
-1 1:0.738313 2:0.215022 3:0.180544 4:-0.873981 5:-1.873814 6:-0.540390 7:-0.326394 8:-0.396764 9:1.335181 10:-0.534435 11:0.204986 12:2.826404 13:-0.761019 14:2.052954 15:0.173761 16:0.032184 17:0.751921 18:0.718945 19:-1.637231 20:-0.710672 21:-1.127606 22:-0.344946 23:-0.358008 24:-1.083486 25:0.379122 26:-0.858480 27:-0.424134 28:1.000552 29:-0.731208 30:0.576106 31:-1.938174 32:0.993578 33:-0.856595 34:-0.702325 35:-0.229544 36:0.822527 37:1.956877 38:-0.683957 39:1.362658 40:-0.519891 41:-0.611031 42:0.198472 43:1.791918 44:-0.087707 45:0.047558 46:-0.100344 47:0.324010 48:-1.648560 49:-0.474499 50:-0.930151 51:1.828181 52:-0.038321 53:0.800173 54:-0.555371 55:0.566215 56:1.624990 57:1.779695 58:1.330195 59:-0.503947 60:-0.954742 61:0.847602 62:1.215564 63:-0.537851 64:0.256577 65:-0.852618
-1 1:-1.797504 2:-1.998048 3:0.414060 4:-0.078596 5:0.110162 6:0.184835 7:-1.125209 8:-0.411891 9:-1.678488 10:0.364809 11:-0.371975 12:-0.411129 13:-2.536421 14:0.760543 15:-0.824588 16:0.178760 17:0.752590 18:-0.271272 19:0.036274 20:-0.454384 21:0.945872 22:1.104977 23:-0.274928 24:0.611769 25:-0.070603 26:-0.317036 27:-1.163553 28:-0.561416 29:-1.161920 30:-0.671601 31:-0.978608 32:1.049948 33:0.743139 34:-0.418956 35:1.140566 36:0.667312 37:-0.637917 38:-1.458911 39:0.072889 40:-0.468176 41:0.648336 42:0.903714 43:-0.384667 44:-0.945454 45:1.028158 46:0.181818 47:0.023118 48:-0.815562 49:-1.050146 50:0.450742 51:0.202519 52:-0.579392 53:-0.867293 54:1.659933 55:-0.793736 56:0.018565 57:-2.071084 58:0.752990 59:0.288995 60:0.145037 61:0.521488 62:-0.227725 63:1.795423 64:-0.198367 65:-0.380215
-1 1:0.056941 2:-0.206341 3:-0.006019 4:0.165625 5:1.562519 6:-0.802170 7:-0.163319 8:1.313373 9:-0.321966 10:0.154544 11:0.633251 12:0.210568 13:0.465299 14:-0.816225 15:-1.427572 16:-1.018405 17:-0.923787 18:1.503534 19:0.592821 20:0.977279 21:0.401233 22:-0.392881 23:3.071303 24:-0.587213 25:-1.383482 26:0.598730 27:-1.756733 28:0.570003 29:1.541578 30:0.544179 31:1.365602 32:0.174167 33:0.316013 34:0.820437 35:-0.303453 36:1.499398 37:0.452175 38:-0.594946 39:-0.607988 40:1.648880 41:0.199868 42:1.469721 43:0.480488 44:-1.561327 45:-1.334495 46:0.145616 47:1.318828 48:0.583542 49:-1.074592 50:-1.631965 51:0.346769 52:-0.582210 53:0.072396 54:1.568614 55:-0.341466 56:1.524929 57:-1.453506 58:-0.957525 59:0.181710 60:-0.032962 61:-0.280768 62:0.811590 63:1.494803 64:-0.113253 65:0.926705
-1 1:1.114643 2:-0.649838 3:0.044687 4:-0.546322 5:2.213212 6:1.240889 7:1.004353 8:1.685960 9:0.372865 10:-0.426354 11:0.533189 12:1.583456 13:2.401183 14:0.156264 15:-0.466629 16:0.457058 17:0.057071 18:-0.831912 19:0.056470 20:1.621582 21:-0.231082 22:1.945089 23:0.241894 24:-0.452811 25:0.134307 26:0.191940 27:-0.040938 28:-0.209690 29:-0.785655 30:-0.591261 31:0.722972 32:-0.280741 33:-1.703931 34:-0.616493 35:-0.094600 36:0.756081 37:0.308596 38:-0.899256 39:0.750579 40:0.673923 41:-0.429121 42:-0.905968 43:0.990332 44:-0.749848 45:-0.024446 46:-1.327187 47:-1.117902 48:-0.095272 49:-0.584019 50:-1.962556 51:-0.423239 52:0.028756 53:-0.655685 54:0.093842 55:-1.010850 56:-0.077334 57:-0.339912 58:-0.440701 59:-0.320688 60:-1.121022 61:-0.687829 62:-0.339866 63:-1.992018 64:-3.128321 65:-0.881375
-1 1:-0.783187 2:0.239700 3:0.035321 4:-1.979784 5:0.075218 6:0.488662 7:-0.275934 8:-1.433759 9:-2.313933 10:-0.072784 11:0.631042 12:0.276209 13:0.103420 14:-0.016423 15:0.522236 16:1.194908 17:-0.573716 18:0.922454 19:0.772636 20:-0.983077 21:-0.437657 22:0.763682 23:0.897187 24:-1.465103 25:1.911254 26:-1.104035 27:-0.080111 28:0.406541 29:0.841153 30:-1.764195 31:0.070027 32:-0.601460 33:0.147208 34:-0.804548 35:-0.679075 36:0.028087 37:-1.174168 38:-0.635850 39:-3.093979 40:1.433341 41:-1.056825 42:0.173076 43:-1.495180 44:2.171512 45:0.881725 46:0.666396 47:-0.208886 48:0.603043 49:0.490576 50:-1.073927 51:-1.092231 52:-0.467525 53:-1.549977 54:0.842911 55:0.518196 56:-0.770532 57:-0.134153 58:0.848987 59:-0.940743 60:0.058489 61:2.220589 62:-0.768503 63:0.477500 64:-0.509962 65:2.940532
-1 1:0.453008 2:-1.033132 3:1.181037 4:2.076574 5:-0.095819 6:1.997869 7:-1.711879 8:0.544067 9:-0.614386 10:-0.650960 11:-0.301467 12:1.379555 13:0.382909 14:1.323639 15:0.140061 16:1.614018 17:0.198155 18:0.284727 19:1.307979 20:0.010395 21:1.180784 22:1.434451 23:1.657565 24:0.449993 25:-1.513815 26:-0.515192 27:-0.483715 28:1.096880 29:0.221302 30:-0.807329 31:-0.635941 32:-1.178562 33:1.634613 34:-2.350117 35:1.038677 36:-0.955681 37:-0.240007 38:0.571345 39:0.732648 40:2.550722 41:0.698086 42:0.735656 43:0.825365 44:-0.813363 45:-0.689211 46:0.369172 47:-1.196600 48:0.445515 49:-0.149622 50:0.056861 51:0.963554 52:0.015830 53:1.150622 54:0.215327 55:0.577687 56:-0.072160 57:-1.276369 58:-2.061430 59:-2.146972 60:-0.332022 61:-0.050819 62:0.802006 63:-0.728203 64:1.117359 65:-0.767427
-1 1:-0.390833 2:-0.744395 3:-0.428108 4:-1.285592 5:-0.688216 6:-1.194220 7:0.527077 8:-0.139840 9:-2.679006 10:-0.745598 11:0.434193 12:0.256401 13:-0.581748 14:0.521218 15:-0.343655 16:0.903555 17:1.129149 18:-0.465086 19:0.108262 20:0.631807 21:1.248925 22:-0.389515 23:1.395177 24:-1.374696 25:0.374477 26:0.038507 27:0.206926 28:1.358790 29:-1.458106 30:0.348724 31:-0.668665 32:-0.319689 33:0.244597 34:1.335017 35:0.401821 36:1.257990 37:-0.409080 38:-0.786773 39:1.222157 40:-1.519810 41:-1.398017 42:0.860664 43:0.384966 44:1.276125 45:-0.093092 46:-1.407163 47:-0.344345 48:0.074460 49:0.593508 50:1.205105 51:-1.327015 52:0.497017 53:1.378253 54:-0.161898 55:-0.237911 56:0.094406 57:2.109344 58:1.652559 59:-0.612784 60:-0.508046 61:-1.106624 62:0.656804 63:-0.088165 64:-0.180200 65:-0.638488
-1 1:0.271938 2:1.804481 3:-0.032675 4:0.637306 5:-1.493190 6:-0.212546 7:1.560864 8:0.446177 9:0.415435 10:-1.079644 11:0.546840 12:-0.359900 13:-0.363399 14:-0.836117 15:-0.082784 16:-1.067421 17:-0.776986 18:0.606103 19:-1.049639 20:-0.115117 21:0.533234 22:1.458228 23:0.094399 24:0.817793 25:0.499465 26:-0.796286 27:-0.023284 28:-0.797962 29:0.086269 30:-0.645570 31:0.193360 32:0.996438 33:-0.401569 34:-1.548077 35:-0.278938 36:0.123635 37:0.743094 38:1.100089 39:0.008363 40:-0.318470 41:-1.211091 42:0.406498 43:-0.354025 44:0.683567 45:-0.362638 46:-0.523252 47:0.066654 48:-0.623461 49:1.397719 50:-1.045896 51:-2.075422 52:0.358626 53:1.313519 54:-0.002454 55:0.584707 56:1.891919 57:1.328607 58:-0.601232 59:1.254021 60:0.948630 61:0.192442 62:0.333948 63:0.068216 64:-1.198540 65:-2.055870
-1 1:1.239864 2:0.332066 3:-0.537088 4:-1.101565 5:1.064460 6:0.532887 7:0.372286 8:-0.442605 9:-0.383853 10:-0.448086 11:0.360292 12:-1.095089 13:-0.293924 14:-0.515642 15:-1.571932 16:0.647484 17:-0.915660 18:2.559178 19:0.642017 20:0.255973 21:1.450893 22:-0.137873 23:0.267847 24:1.431846 25:-0.462291 26:1.254680 27:-0.430035 28:-2.555862 29:-0.588769 30:0.166604 31:-0.244158 32:1.126406 33:0.909120 34:1.891830 35:-0.706109 36:1.422249 37:-0.765619 38:0.299873 39:0.442730 40:-1.443746 41:1.691513 42:-0.483956 43:-0.287660 44:-0.872173 45:1.200176 46:-2.160079 47:1.269025 48:-0.050451 49:-0.630597 50:1.202573 51:-0.585027 52:-0.088800 53:-0.105062 54:-0.655675 55:-1.401443 56:0.698133 57:-0.273469 58:0.147793 59:-1.081282 60:0.211875 61:-0.320357 62:0.367196 63:0.621408 64:0.993770 65:-1.312125
-1 1:-0.786985 2:0.052898 3:-0.564621 4:-0.365966 5:0.399482 6:0.915858 7:-0.234378 8:-1.720496 9:-0.623217 10:0.348297 11:0.986571 12:0.493750 13:0.252650 14:-0.114501 15:0.347739 16:0.159603 17:1.673273 18:0.049737 19:-0.277179 20:-0.036482 21:0.487170 22:-0.031414 23:-0.755583 24:0.051390 25:-1.845626 26:-1.150758 27:0.259757 28:-0.950873 29:0.372050 30:0.760566 31:0.730235 32:-0.952516 33:1.161948 34:0.059730 35:-0.912034 36:-0.827922 37:-1.157290 38:0.220246 39:1.584344 40:-2.138216 41:0.558688 42:0.103805 43:-0.812699 44:-0.361361 45:-2.179799 46:-2.393578 47:0.166652 48:-0.548442 49:0.257599 50:-0.269452 51:-1.243576 52:-1.979313 53:-1.368918 54:2.008396 55:0.526657 56:0.252905 57:0.284273 58:0.465547 59:-2.249601 60:0.449298 61:-0.311648 62:0.985335 63:-1.203202 64:-0.167921 65:-1.269315
-1 1:0.882759 2:1.038051 3:0.057558 4:0.462024 5:0.747133 6:-1.060043 7:0.631989 8:2.437874 9:0.682929 10:-0.280935 11:2.216338 12:-0.321877 13:-1.022643 14:0.047546 15:-0.690490 16:0.392914 17:-1.328444 18:1.524887 19:0.121565 20:-1.024670 21:0.055948 22:1.083731 23:-1.311244 24:0.886167 25:0.099113 26:0.053612 27:-0.045481 28:-2.543744 29:0.481000 30:-1.251832 31:0.704505 32:1.184254 33:0.890033 34:0.293200 35:1.268355 36:-0.364703 37:-0.417955 38:0.001822 39:0.244516 40:-0.288706 41:-0.748717 42:0.104265 43:0.007774 44:-0.027648 45:0.300778 46:-0.179852 47:-0.449185 48:1.293738 49:-0.339859 50:0.583882 51:-0.488323 52:2.255396 53:1.031528 54:-1.039903 55:-0.069354 56:1.779925 57:-0.634566 58:0.748835 59:0.490395 60:-0.007763 61:0.977674 62:2.010642 63:-0.585922 64:1.724868 65:-0.145483
-1 1:0.546497 2:3.494298 3:-1.315931 4:-0.285146 5:-0.850613 6:0.831488 7:-0.102025 8:0.747617 9:0.443975 10:-2.640736 11:-0.093273 12:2.108780 13:-0.690929 14:0.173481 15:-0.303501 16:0.783259 17:1.211624 18:0.208583 19:0.182049 20:-0.787164 21:0.870128 22:0.909215 23:-0.224826 24:0.646411 25:1.599039 26:-2.305134 27:1.648958 28:0.719108 29:0.311896 30:-1.332745 31:0.546195 32:-0.632256 33:1.187020 34:1.527619 35:0.114936 36:0.074626 37:2.358560 38:-0.183437 39:0.496670 40:-0.694654 41:-0.542652 42:2.634976 43:0.221186 44:-1.488647 45:1.596738 46:1.077836 47:0.074872 48:-0.340494 49:-1.141488 50:-1.528971 51:0.281106 52:-0.315220 53:-0.088701 54:1.340355 55:0.612196 56:0.675707 57:0.468854 58:-0.489608 59:-0.081434 60:-0.488677 61:-0.873826 62:0.236504 63:0.944616 64:1.338848 65:0.480224
-1 1:0.187126 2:1.497011 3:2.225373 4:-0.274462 5:-0.516624 6:1.092629 7:-0.862120 8:-0.232105 9:1.189468 10:-0.185534 11:0.726973 12:1.029172 13:1.750166 14:0.047281 15:0.352285 16:0.223873 17:0.016096 18:-0.464715 19:1.462862 20:-0.767851 21:1.917965 22:1.104910 23:-1.803495 24:0.014566 25:-0.480307 26:0.496587 27:0.163896 28:0.784937 29:-1.791944 30:-0.533998 31:0.774469 32:0.142347 33:1.448218 34:1.756690 35:-1.117056 36:0.645897 37:-0.504543 38:0.796629 39:-1.317148 40:0.377674 41:-0.421238 42:-1.356351 43:-0.380630 44:0.609968 45:0.776999 46:0.551006 47:0.767949 48:0.243856 49:-0.052664 50:-1.253204 51:-1.593583 52:-0.490985 53:-0.116840 54:1.430279 55:2.102125 56:-0.737208 57:0.677617 58:1.135040 59:-0.885852 60:-1.447130 61:1.984010 62:-2.882778 63:-0.583541 64:-1.679485 65:-1.143081
-1 1:-0.326072 2:-1.417677 3:-0.631951 4:-1.803193 5:1.881415 6:0.227126 7:0.197286 8:0.715751 9:-0.303550 10:0.445836 11:-0.109956 12:1.050565 13:0.812901 14:-1.576107 15:0.683797 16:0.182098 17:0.332157 18:0.598859 19:-0.996904 20:0.077485 21:-0.055790 22:-0.179546 23:-0.337594 24:-0.482112 25:-0.119599 26:0.326316 27:0.405332 28:-0.650751 29:0.035308 30:-0.318376 31:-0.720516 32:0.955712 33:-1.399307 34:-0.941938 35:-0.434556 36:-1.017250 37:1.115304 38:1.208687 39:-1.627220 40:0.409815 41:-1.766472 42:-0.981909 43:-0.762429 44:-0.540270 45:-0.707895 46:0.207338 47:0.925810 48:-0.593925 49:1.462588 50:-0.389858 51:-1.499004 52:-0.590524 53:0.975693 54:-0.945037 55:0.554083 56:1.061138 57:-0.055695 58:0.700831 59:1.833492 60:-0.370691 61:-1.561049 62:0.482755 63:2.195713 64:-0.164008 65:1.211006
-1 1:0.597323 2:0.512172 3:1.547542 4:0.648528 5:0.199806 6:-0.756601 7:-0.454699 8:1.188193 9:-0.960798 10:1.026622 11:1.270975 12:-1.009525 13:0.172923 14:0.071334 15:-2.673952 16:0.246833 17:0.395820 18:0.197343 19:0.460766 20:0.581278 21:-1.326222 22:0.187171 23:-1.308376 24:-0.081865 25:1.363313 26:-0.338312 27:-0.197487 28:2.426910 29:0.817552 30:-1.358321 31:-0.948175 32:-0.137286 33:-0.544099 34:-0.049860 35:0.777287 36:-0.811971 37:0.642349 38:1.464178 39:-0.476738 40:-1.464503 41:-2.535254 42:0.385882 43:1.279486 44:0.309131 45:0.161347 46:1.194315 47:-1.093015 48:-0.155368 49:-0.197441 50:-0.500349 51:0.347611 52:-1.322297 53:-0.211003 54:-0.817101 55:-0.774172 56:0.573811 57:-1.397455 58:-1.104842 59:1.502926 60:-0.393297 61:-0.618266 62:-0.323087 63:-0.713594 64:0.163613 65:0.016500
-1 1:0.841934 2:0.123882 3:-1.388078 4:1.864596 5:-0.009267 6:0.771031 7:0.063661 8:-0.410638 9:1.665995 10:-0.365620 11:-0.817225 12:-0.081827 13:-0.244786 14:0.294079 15:1.929619 16:0.887527 17:-1.142724 18:-0.632962 19:-0.363052 20:-0.748107 21:-0.494044 22:-0.155712 23:0.448621 24:-1.254412 25:0.813664 26:1.136998 27:-0.223176 28:1.065261 29:-0.847363 30:1.244742 31:-0.312558 32:-1.057368 33:-0.279705 34:0.267309 35:0.638192 36:-1.710955 37:0.006102 38:-0.613153 39:-0.873587 40:1.321310 41:-0.751072 42:2.180856 43:1.060638 44:-0.580234 45:-0.743707 46:-0.152744 47:0.771723 48:1.723576 49:0.353038 50:0.689389 51:-0.130895 52:-0.049777 53:0.453449 54:2.704591 55:0.475210 56:1.522179 57:2.233239 58:-0.419998 59:-0.486803 60:0.901692 61:-0.251210 62:0.607945 63:-1.568704 64:-0.507397 65:0.081402
-1 1:0.549320 2:-0.878855 3:0.100235 4:2.049017 5:0.023127 6:0.433777 7:-0.348145 8:0.685668 9:-0.426667 10:1.446663 11:2.068874 12:-1.172755 13:-1.095698 14:-2.669168 15:-1.027249 16:0.777004 17:-2.036446 18:-1.094688 19:1.957630 20:-0.503377 21:-0.282093 22:0.716766 23:2.540498 24:0.190235 25:-0.104807 26:-0.915555 27:0.930424 28:0.067725 29:0.507114 30:0.785761 31:0.984870 32:-0.441047 33:-1.320503 34:2.272368 35:0.313487 36:2.020842 37:1.440669 38:-2.112790 39:-0.837192 40:1.327752 41:-0.213551 42:0.778146 43:-0.380199 44:-1.005431 45:-0.653371 46:1.607998 47:1.603611 48:-0.591347 49:0.462618 50:-0.586016 51:-1.657667 52:0.525307 53:-0.456547 54:0.286097 55:1.018369 56:1.069434 57:-0.501940 58:-2.064091 59:1.695380 60:-1.128771 61:0.358018 62:-1.221752 63:-1.089065 64:0.041701 65:0.742353
-1 1:1.421493 2:1.178526 3:0.157674 4:1.066963 5:0.231068 6:0.371379 7:-0.665724 8:0.190235 9:0.425461 10:-0.406753 11:-0.629942 12:2.139192 13:-0.301542 14:-0.481377 15:1.589425 16:1.632079 17:-0.411687 18:-1.852302 19:-0.600931 20:-0.318503 21:1.519621 22:-0.404755 23:1.938467 24:-0.108746 25:0.717706 26:-1.478031 27:-2.266400 28:0.458027 29:-2.375193 30:-0.346679 31:1.111129 32:0.609703 33:-0.824736 34:0.772920 35:-0.298709 36:-0.258594 37:-0.119936 38:-0.448779 39:0.976179 40:1.888603 41:0.300175 42:-0.678805 43:-0.657491 44:0.762762 45:-0.206664 46:-2.336743 47:0.025849 48:0.128310 49:0.381703 50:0.336905 51:0.244843 52:-1.551057 53:0.251571 54:1.073021 55:0.117716 56:-0.732852 57:0.434879 58:0.051697 59:-0.638568 60:-0.741456 61:-1.131842 62:-0.956044 63:-2.386915 64:-0.024062 65:-0.138268
-1 1:0.300545 2:1.392226 3:0.140174 4:0.226520 5:0.595828 6:1.360311 7:-1.008621 8:0.902757 9:-2.309248 10:-0.415548 11:-0.341256 12:0.050596 13:-0.092209 14:-0.756531 15:1.159270 16:-0.667349 17:0.745416 18:-0.074435 19:0.217086 20:0.308614 21:-1.382375 22:2.076110 23:1.021033 24:0.861095 25:-0.408149 26:0.115880 27:1.249040 28:-0.465181 29:0.035490 30:-0.440580 31:0.188534 32:-0.275712 33:1.246462 34:1.173022 35:-0.825447 36:0.817061 37:0.433183 38:-0.203838 39:-1.206083 40:-1.462611 41:0.162473 42:-0.060803 43:0.641233 44:-0.414119 45:0.555679 46:-0.800757 47:-0.265474 48:-0.588672 49:1.480270 50:-0.428368 51:1.051847 52:2.076488 53:-0.426563 54:-0.016815 55:0.514015 56:-0.702607 57:-0.371971 58:-2.295544 59:-1.166358 60:-0.571384 61:1.032964 62:-0.010528 63:1.730560 64:2.068539 65:1.622345
-1 1:1.257665 2:-0.495647 3:-0.798881 4:-1.659933 5:-1.832933 6:-0.256152 7:-0.899218 8:-0.435170 9:-0.013829 10:0.889751 11:-0.754590 12:-0.698259 13:1.196439 14:-0.938467 15:-1.904286 16:-0.024003 17:1.155082 18:-0.932998 19:-0.753006 20:-1.541880 21:0.189856 22:-0.265568 23:-1.100053 24:-0.037276 25:-0.041256 26:-0.873619 27:-0.631834 28:0.617095 29:0.443213 30:-1.579424 31:0.014059 32:1.028953 33:0.795296 34:-0.417090 35:-0.339009 36:0.391125 37:2.920994 38:0.130132 39:-0.401366 40:-0.173445 41:0.525564 42:0.994546 43:-0.826511 44:1.238720 45:-1.103712 46:0.074473 47:0.672700 48:2.428467 49:-1.595776 50:0.171194 51:-0.707308 52:0.157100 53:-0.676605 54:-1.590401 55:0.774253 56:0.101790 57:-0.130382 58:-0.022991 59:-0.138378 60:-0.212748 61:-1.107076 62:1.169059 63:1.137125 64:-0.617441 65:-0.617958
-1 1:1.179246 2:-1.130951 3:0.181993 4:0.918593 5:2.366567 6:0.132120 7:0.492559 8:-0.911834 9:-0.283464 10:0.701569 11:0.038376 12:-0.300476 13:0.611458 14:-1.133692 15:0.422618 16:0.086025 17:-0.555401 18:0.442463 19:-0.935686 20:0.354881 21:0.966587 22:1.393848 23:0.190135 24:-1.536408 25:-0.771152 26:-0.231841 27:0.090131 28:-0.783436 29:-1.338749 30:-1.157408 31:-1.850416 32:0.198845 33:-1.196333 34:0.932494 35:1.100224 36:-1.294056 37:-1.867537 38:-0.240011 39:0.970126 40:0.442456 41:0.579344 42:0.008597 43:1.044814 44:-0.534826 45:0.024167 46:-1.834302 47:-0.349054 48:0.320608 49:-0.411484 50:-1.583941 51:-0.385205 52:-1.028730 53:-0.350665 54:0.928250 55:0.157341 56:1.120945 57:-1.383286 58:2.517440 59:-0.454535 60:-1.260158 61:1.133795 62:0.418647 63:0.021753 64:0.072473 65:-1.036715
-1 1:-0.367515 2:-0.121367 3:-0.162993 4:0.601148 5:-0.302138 6:0.458320 7:1.265912 8:0.116239 9:1.719699 10:-0.376156 11:0.511973 12:-2.536916 13:-0.485192 14:0.683911 15:-0.809293 16:-0.670319 17:-0.553615 18:0.667247 19:1.061975 20:0.383103 21:-2.315647 22:1.721407 23:0.330515 24:-0.619487 25:1.612491 26:-0.898192 27:-1.093766 28:0.451351 29:-0.242020 30:-1.652883 31:0.077846 32:-1.180219 33:-0.249104 34:1.288893 35:1.517375 36:0.986743 37:-0.293927 38:2.608623 39:-0.753307 40:1.129467 41:-0.525318 42:0.071057 43:-0.547699 44:-0.132481 45:0.314831 46:0.644708 47:-1.608445 48:-1.875358 49:0.495893 50:-0.798513 51:-0.371029 52:1.165937 53:-0.404004 54:-0.343322 55:-0.581422 56:-1.346779 57:-0.744973 58:0.079506 59:0.979724 60:0.347413 61:0.318807 62:0.113587 63:-1.314458 64:-0.972588 65:1.046238
-1 1:0.507224 2:0.064873 3:1.763099 4:-0.753701 5:-1.580621 6:0.822984 7:0.679146 8:0.033213 9:-0.695844 10:1.295958 11:0.406257 12:0.259604 13:0.264088 14:0.604700 15:-1.155961 16:-0.049463 17:-0.448496 18:-0.364875 19:-0.298699 20:0.943153 21:-1.532670 22:-0.313673 23:2.498982 24:0.474696 25:0.113657 26:1.283379 27:0.456833 28:0.469689 29:0.129837 30:-1.080511 31:-0.081208 32:-0.683877 33:-0.036694 34:-0.888842 35:-0.270028 36:-0.229223 37:0.653756 38:0.950524 39:1.479055 40:0.275037 41:-1.132320 42:-0.583169 43:0.640019 44:-0.628442 45:0.703839 46:-1.992775 47:0.536484 48:-1.217625 49:0.201217 50:-0.966340 51:0.797088 52:1.232393 53:-1.224081 54:-0.622460 55:0.303389 56:-1.001950 57:0.780634 58:-0.105120 59:1.446094 60:-0.812150 61:0.188810 62:-0.774121 63:1.390944 64:0.761215 65:-1.084049
-1 1:0.485543 2:0.605395 3:-0.051965 4:0.361829 5:-0.320298 6:-0.976482 7:1.254477 8:-0.763136 9:-1.061351 10:-0.194803 11:-0.111855 12:0.431581 13:0.698097 14:1.856969 15:0.209403 16:-0.004393 17:-1.751793 18:0.864745 19:-0.247426 20:-0.378490 21:0.093961 22:0.048282 23:-0.713454 24:0.083366 25:2.208473 26:-0.741214 27:-1.174752 28:2.242800 29:-0.425104 30:0.095149 31:-0.881924 32:0.690133 33:-0.539456 34:-0.964312 35:-0.140958 36:0.990674 37:-0.477302 38:-0.285752 39:0.608868 40:-0.225037 41:0.433952 42:0.554609 43:-0.340636 44:0.192765 45:0.839388 46:-0.525778 47:-1.742357 48:1.103453 49:0.599760 50:1.603058 51:-0.462103 52:0.591973 53:-1.083469 54:-0.551013 55:-0.142013 56:1.175158 57:0.428144 58:1.054738 59:1.101594 60:-1.334357 61:-1.099827 62:-0.456544 63:-0.261007 64:0.184551 65:0.946587
-1 1:-0.719730 2:0.167394 3:-0.666201 4:0.626500 5:0.765616 6:0.065652 7:0.771475 8:1.766873 9:-0.294439 10:-1.132282 11:0.218251 12:-1.371112 13:-0.758342 14:1.131283 15:1.116654 16:-0.602080 17:0.952184 18:0.924933 19:-1.975025 20:-0.592280 21:-0.884845 22:-0.898701 23:-1.351144 24:-0.277492 25:-0.118208 26:-0.711142 27:-1.678263 28:-1.284734 29:0.161469 30:-0.321825 31:-2.518994 32:-0.116105 33:-0.831030 34:2.248345 35:-1.315040 36:-0.056706 37:-0.959243 38:-1.695166 39:-1.234390 40:-0.624658 41:2.052458 42:0.896709 43:-0.914741 44:0.046093 45:-1.037426 46:-2.444299 47:1.805514 48:-0.638785 49:0.500599 50:-0.298745 51:0.955936 52:-0.077197 53:2.312697 54:0.518174 55:0.211329 56:-0.816946 57:0.632224 58:-1.437093 59:-0.219983 60:-1.528300 61:0.148545 62:1.039068 63:0.762935 64:0.448188 65:0.492177
-1 1:1.905606 2:0.076501 3:-0.370246 4:-1.121408 5:0.386862 6:0.393025 7:0.660941 8:-0.277238 9:0.966095 10:-0.136480 11:0.202395 12:2.571858 13:2.261739 14:-1.685899 15:-0.428347 16:-0.155300 17:-0.620213 18:0.299245 19:-0.234195 20:1.357960 21:0.896215 22:-0.132006 23:0.213471 24:-0.547808 25:1.104164 26:-0.780575 27:1.224854 28:0.227456 29:-1.334217 30:-0.195252 31:0.569625 32:-0.510907 33:-0.681916 34:0.659690 35:-0.639556 36:-0.599040 37:0.635544 38:-1.136081 39:-0.390518 40:-0.463806 41:2.518931 42:-0.035875 43:2.240208 44:-0.128400 45:0.853174 46:0.560169 47:1.548633 48:0.204855 49:-0.035314 50:0.367946 51:0.961868 52:1.575904 53:-1.424242 54:-2.607638 55:-1.617484 56:-1.564358 57:-0.589183 58:1.005605 59:-0.095337 60:-0.979834 61:0.781399 62:-0.146130 63:-2.348008 64:-0.793548 65:1.925498
-1 1:0.476521 2:0.204032 3:1.700574 4:1.074419 5:-0.209456 6:1.038245 7:0.696029 8:0.158291 9:-0.485517 10:0.339268 11:-0.608380 12:-1.233791 13:-1.303918 14:0.693868 15:-0.732350 16:-1.476809 17:0.398300 18:-1.403921 19:-0.048759 20:0.473654 21:-0.129420 22:0.228685 23:1.876451 24:-1.785256 25:0.432957 26:-1.040779 27:1.753730 28:0.263060 29:0.609344 30:-1.203782 31:-0.013354 32:-1.214884 33:-0.527210 34:-1.086088 35:-0.120248 36:-0.441387 37:0.311938 38:1.597459 39:0.200391 40:0.388088 41:-2.233535 42:0.030847 43:0.196214 44:-0.011562 45:-0.067015 46:0.043245 47:0.139429 48:0.366424 49:-0.329220 50:1.115768 51:-1.992344 52:-0.389856 53:-0.043934 54:-0.345117 55:-1.610048 56:-0.100084 57:-1.142914 58:-0.590428 59:-2.793448 60:1.011587 61:0.371925 62:0.776273 63:-0.431801 64:1.317223 65:0.105307
-1 1:1.456871 2:-0.262611 3:-1.517832 4:1.195290 5:-0.196382 6:-0.742835 7:1.244717 8:0.602055 9:0.613217 10:-1.002416 11:-0.637520 12:0.490315 13:0.077868 14:-1.069815 15:-1.120301 16:0.819739 17:-0.063431 18:-0.225409 19:2.089192 20:-1.291149 21:-0.038382 22:0.051065 23:-0.274165 24:0.402641 25:-0.258588 26:0.277214 27:0.623155 28:-0.721631 29:-0.989398 30:-0.423259 31:-1.351784 32:1.161944 33:-1.520827 34:0.355982 35:-0.517440 36:-0.647039 37:0.375589 38:1.009649 39:1.396478 40:0.858889 41:-0.840930 42:-0.555228 43:0.664936 44:0.664522 45:1.527213 46:-0.219392 47:-0.243016 48:-1.469621 49:0.021586 50:0.227021 51:1.872997 52:1.848682 53:-0.859191 54:2.227868 55:1.552868 56:-1.748723 57:0.040776 58:-0.145408 59:0.541508 60:-1.516570 61:-0.782379 62:-1.304892 63:0.107580 64:1.604137 65:0.761543
-1 1:1.088203 2:2.697068 3:-0.091048 4:-0.977204 5:-0.375556 6:1.284531 7:-1.833375 8:2.185503 9:0.230728 10:-1.048418 11:-1.428731 12:0.276209 13:-1.700518 14:-0.061211 15:0.597928 16:-0.714864 17:-0.481639 18:-0.256343 19:-1.958936 20:-0.082344 21:0.198243 22:0.858678 23:1.720367 24:-0.452028 25:0.058794 26:-1.484708 27:0.453486 28:-2.039670 29:-1.679318 30:0.142665 31:0.202739 32:-0.592703 33:1.580842 34:-0.065732 35:-0.462375 36:-0.468377 37:-2.095406 38:-0.452654 39:-1.145826 40:-0.149280 41:-0.748028 42:0.085162 43:-1.601546 44:0.092014 45:-1.897992 46:0.645119 47:-0.490284 48:0.736415 49:-0.565925 50:-0.349759 51:-0.173831 52:-0.559964 53:1.248447 54:-0.204613 55:0.508821 56:0.362237 57:0.465709 58:0.563523 59:0.033914 60:0.964123 61:-0.825587 62:0.914907 63:-1.697252 64:1.332607 65:0.900033
-1 1:0.029582 2:0.887960 3:-0.886896 4:0.798025 5:0.272813 6:2.031899 7:0.361146 8:-1.039648 9:-0.023847 10:0.121745 11:1.371357 12:-0.006850 13:-0.166391 14:-0.301591 15:1.063352 16:-0.802413 17:-0.462839 18:-0.902574 19:-0.771599 20:-0.855075 21:0.112588 22:0.169225 23:-0.923618 24:-1.151016 25:1.459836 26:-0.774340 27:0.501112 28:0.630341 29:-0.826372 30:-0.531430 31:-0.023646 32:-0.397680 33:0.387134 34:0.620976 35:0.801100 36:-0.074310 37:1.489996 38:1.583448 39:-0.437154 40:1.092992 41:-0.327873 42:0.019586 43:-0.944560 44:1.038768 45:-0.459752 46:-0.315338 47:-0.457290 48:0.084089 49:0.023784 50:0.393524 51:-1.737569 52:-0.148167 53:0.136790 54:0.164587 55:-1.438389 56:-0.841066 57:-1.292472 58:1.023907 59:-0.235793 60:1.353071 61:0.080460 62:-1.445399 63:1.362910 64:1.935425 65:-0.031833
-1 1:-0.722493 2:0.236357 3:0.108976 4:-0.544211 5:-0.268089 6:1.426779 7:0.932924 8:-0.503628 9:-1.700685 10:1.221467 11:-0.361950 12:-1.218191 13:0.685347 14:0.419826 15:-1.109251 16:0.677507 17:0.249665 18:-0.205998 19:0.020289 20:-0.062639 21:-0.111832 22:0.893046 23:0.648472 24:0.162928 25:-0.153003 26:-0.597225 27:-0.199829 28:1.629542 29:-0.855984 30:-1.184064 31:-0.795007 32:-1.506614 33:-0.855417 34:0.948540 35:1.482298 36:1.072456 37:0.511816 38:-1.012500 39:1.701331 40:0.327664 41:-2.510850 42:-0.995231 43:0.084002 44:-0.424109 45:0.168427 46:0.097733 47:-0.032805 48:-1.407107 49:1.705237 50:-0.400883 51:0.086453 52:1.131633 53:-0.573293 54:-1.241344 55:-1.381199 56:-1.434095 57:0.251966 58:0.265122 59:-0.946122 60:2.053457 61:0.080702 62:0.491557 63:0.000070 64:-1.256634 65:0.047470
-1 1:-1.031363 2:0.304629 3:1.331992 4:0.394158 5:-0.645095 6:-0.731567 7:-0.339443 8:-0.758478 9:-0.810295 10:-0.286926 11:0.286190 12:1.178267 13:0.171258 14:0.958346 15:0.950958 16:-1.396801 17:-1.018600 18:-0.417912 19:0.653811 20:1.084524 21:0.108165 22:0.563078 23:0.890369 24:0.459092 25:-0.723730 26:0.483173 27:1.897674 28:-2.175144 29:-0.707195 30:1.192818 31:1.979151 32:-0.483527 33:-0.381861 34:-0.789842 35:-0.163409 36:1.570030 37:0.833318 38:-1.315082 39:0.665265 40:0.992973 41:0.869725 42:-1.149507 43:0.025662 44:0.962003 45:-0.079995 46:1.546275 47:-0.815641 48:1.478480 49:-0.961306 50:-1.804020 51:-0.121096 52:0.258758 53:-1.540961 54:0.808195 55:0.993593 56:0.099702 57:0.136169 58:0.443355 59:-0.189771 60:0.682009 61:1.000684 62:-0.604744 63:1.529540 64:0.568980 65:1.381700
-1 1:-0.646953 2:0.642876 3:0.898644 4:-0.097336 5:-0.992725 6:-1.488489 7:-0.801252 8:1.426425 9:1.021892 10:1.373767 11:0.011897 12:-0.979015 13:0.805896 14:-1.300293 15:1.505859 16:-0.431357 17:-2.148266 18:-0.092395 19:0.510748 20:0.748888 21:-0.613962 22:2.499296 23:0.018738 24:-0.699043 25:-1.296902 26:-0.377080 27:0.831066 28:-0.801441 29:-0.714545 30:-0.958094 31:-0.084887 32:-0.432956 33:-0.802669 34:0.115786 35:-0.329562 36:2.525698 37:-1.637506 38:-0.032449 39:0.101734 40:1.214034 41:0.143616 42:-0.417160 43:-0.026568 44:0.379517 45:0.452503 46:0.060502 47:-2.201859 48:1.134481 49:-0.637157 50:1.943658 51:-2.237009 52:-0.509675 53:-1.216658 54:0.163077 55:-0.336982 56:-0.219463 57:0.605101 58:-0.697337 59:0.513933 60:-1.471168 61:0.128949 62:0.182233 63:0.520065 64:-0.913954 65:-0.309517
-1 1:0.977268 2:1.142041 3:-0.247809 4:-1.861302 5:0.782349 6:-1.127941 7:-1.295194 8:-1.076570 9:-0.202972 10:0.153896 11:-0.257223 12:-0.886198 13:-0.268251 14:1.809276 15:0.729896 16:-1.635289 17:-0.624542 18:-0.129216 19:-0.700252 20:0.150181 21:-0.575243 22:1.125316 23:1.207748 24:-0.494701 25:0.367089 26:-0.282360 27:1.854040 28:0.276063 29:-0.063855 30:-0.784770 31:-1.335441 32:-1.205950 33:-1.033104 34:1.298555 35:-0.313996 36:1.151059 37:-0.509933 38:0.950571 39:-0.365253 40:0.473467 41:-0.101303 42:0.673969 43:0.511836 44:-0.723594 45:-0.635321 46:-0.666678 47:-1.461071 48:-0.330410 49:0.301966 50:0.039220 51:1.862620 52:-0.373092 53:1.199583 54:-0.285226 55:-1.752686 56:-0.891219 57:-0.729898 58:-0.994311 59:-1.238964 60:-0.646446 61:0.251636 62:-0.414905 63:0.649252 64:0.923098 65:1.837255
-1 1:-1.127863 2:0.419175 3:0.023236 4:1.499167 5:0.854791 6:-1.031948 7:0.142661 8:1.427780 9:1.504028 10:-0.341865 11:-1.086104 12:1.017370 13:-0.033867 14:0.085352 15:1.839690 16:0.111262 17:-1.958176 18:1.264235 19:-0.184561 20:0.184842 21:-0.717941 22:1.574169 23:0.063562 24:0.326730 25:-0.756081 26:2.035561 27:1.533808 28:0.593584 29:-0.064895 30:-0.138225 31:1.177161 32:-1.128894 33:-0.354792 34:1.329998 35:-0.614097 36:-0.846087 37:1.154190 38:-0.112807 39:1.942992 40:0.554213 41:0.438502 42:0.475109 43:0.490424 44:0.154650 45:1.859264 46:-1.115241 47:-1.082076 48:1.022314 49:1.129724 50:1.164437 51:-1.279368 52:1.024207 53:-0.383014 54:-1.238041 55:-0.767655 56:0.658621 57:-0.504273 58:0.703173 59:-0.991671 60:1.043598 61:0.139428 62:0.985375 63:0.445439 64:0.447827 65:-0.235249
-1 1:0.072405 2:-0.905736 3:0.099022 4:-0.169686 5:0.103959 6:-0.608637 7:0.266709 8:-0.239592 9:0.865473 10:1.890701 11:-0.456199 12:0.591740 13:0.424832 14:1.141345 15:-1.087370 16:0.309006 17:-0.290076 18:-0.968210 19:-0.573215 20:1.908410 21:1.604493 22:1.558689 23:0.746122 24:-0.107258 25:1.144516 26:-0.060643 27:-0.270088 28:-0.726200 29:-1.394973 30:-0.670404 31:-1.206543 32:-0.670765 33:1.415843 34:0.937630 35:-0.822546 36:0.834598 37:0.130468 38:-0.355890 39:-0.973209 40:-1.449741 41:0.304477 42:-0.548257 43:-0.074338 44:-0.806637 45:-1.403883 46:0.048103 47:-0.156616 48:0.282746 49:-0.458410 50:-1.435681 51:0.355668 52:-0.002767 53:-0.538480 54:0.950468 55:-0.971966 56:0.788532 57:0.412264 58:0.887848 59:1.151611 60:0.055024 61:2.078581 62:-0.198606 63:-0.273691 64:-0.812101 65:-1.162803
-1 1:-1.911135 2:0.825134 3:0.560304 4:0.129998 5:-1.397569 6:0.594625 7:1.290087 8:-0.848691 9:0.155238 10:-1.031110 11:-0.931913 12:-1.669324 13:-0.901885 14:2.131251 15:0.581987 16:-0.561549 17:-0.681321 18:-1.063200 19:0.409527 20:-0.670496 21:-0.145642 22:-1.791464 23:0.091842 24:-0.683119 25:-0.391307 26:-0.119979 27:0.060072 28:-0.376538 29:0.013786 30:0.025506 31:0.366226 32:-1.551794 33:-0.637210 34:0.290293 35:0.296771 36:-0.189476 37:-0.506073 38:1.527541 39:1.510524 40:-0.009257 41:1.380921 42:-0.266400 43:1.978949 44:0.673516 45:1.244296 46:0.192029 47:0.465826 48:-0.473172 49:-1.266005 50:-0.019088 51:0.639025 52:0.423808 53:0.851484 54:1.157050 55:-0.648657 56:-0.010926 57:0.185254 58:-0.025682 59:0.806623 60:-1.913165 61:-0.694671 62:-1.625796 63:1.086942 64:-0.763711 65:-0.907297
-1 1:0.331003 2:0.145271 3:-0.177388 4:1.590981 5:-0.724464 6:-0.691820 7:0.464218 8:0.442216 9:-0.379718 10:-0.744880 11:0.131426 12:-1.659814 13:0.558295 14:-1.156947 15:-0.174170 16:1.083165 17:-1.513627 18:-0.299420 19:0.821215 20:-0.217105 21:-0.266185 22:-0.561827 23:0.210156 24:0.207032 25:-0.561032 26:0.440282 27:-2.518300 28:0.458528 29:0.115540 30:-0.123280 31:0.464033 32:1.831081 33:0.901559 34:-0.952639 35:-0.605569 36:0.754975 37:-0.551011 38:-0.199337 39:-0.997582 40:-0.977211 41:0.863667 42:-0.264252 43:-1.757399 44:0.496410 45:0.063049 46:0.323541 47:-0.374950 48:-1.581447 49:-0.890732 50:-0.893617 51:0.892933 52:0.217904 53:0.326721 54:-0.382508 55:1.726103 56:0.391047 57:0.794122 58:-0.056677 59:0.550934 60:1.083692 61:0.149870 62:-0.011134 63:-0.366364 64:0.632076 65:-0.203080
-1 1:-1.422046 2:-0.099783 3:0.140323 4:-0.408892 5:-1.179776 6:-0.153853 7:0.038166 8:-1.778373 9:0.694510 10:-0.149327 11:1.497717 12:0.431881 13:0.466400 14:0.621264 15:-0.932738 16:0.235627 17:-0.164537 18:0.238183 19:-0.394297 20:-0.880906 21:-0.345835 22:-0.442055 23:0.053971 24:-0.197274 25:-0.154623 26:-0.268929 27:-0.818374 28:0.201789 29:-0.179304 30:-1.598261 31:-0.498388 32:1.817889 33:0.652034 34:0.564027 35:-0.816183 36:0.134793 37:-0.190921 38:0.716095 39:-2.848970 40:0.066083 41:0.438031 42:1.186066 43:-0.485457 44:-0.017990 45:-1.302606 46:1.103096 47:-0.249211 48:0.289111 49:-0.415000 50:0.746809 51:-0.422024 52:-0.315021 53:1.709057 54:-1.442540 55:-0.913029 56:-0.025631 57:0.311511 58:-0.724780 59:-0.063867 60:0.760413 61:2.134147 62:0.694295 63:-1.412940 64:-0.627095 65:-1.242763
-1 1:0.248878 2:0.846498 3:1.577123 4:-0.387765 5:0.157351 6:0.611687 7:0.910861 8:-0.210482 9:0.288443 10:0.865456 11:1.660784 12:0.727354 13:0.766240 14:0.507589 15:0.157379 16:1.350067 17:-0.801989 18:1.721519 19:-0.058894 20:-1.347692 21:-1.580518 22:0.455742 23:-0.576463 24:0.276916 25:0.052900 26:0.523550 27:-1.350215 28:-0.279101 29:0.269892 30:-0.963666 31:-0.217334 32:0.409351 33:1.287305 34:0.161170 35:-0.920579 36:-0.676280 37:-0.566193 38:0.001996 39:-1.771385 40:1.765607 41:-0.955131 42:-0.175378 43:0.073331 44:-0.463288 45:1.180953 46:0.122228 47:2.104616 48:-0.044855 49:-0.187609 50:0.170739 51:-0.185142 52:-0.042918 53:0.661712 54:1.008820 55:-0.331747 56:-0.492633 57:-0.516409 58:1.517970 59:1.631117 60:-0.131584 61:0.533039 62:1.487896 63:1.035634 64:-0.152603 65:0.553129
-1 1:2.109190 2:-0.685737 3:1.392363 4:-0.554434 5:-0.421380 6:1.768142 7:0.175184 8:0.019229 9:1.633998 10:-0.952195 11:-0.871487 12:-1.079382 13:0.519499 14:1.413272 15:-1.098057 16:-1.136053 17:1.363223 18:-0.013338 19:0.187721 20:-1.685250 21:-0.038385 22:-0.746133 23:1.723612 24:0.275412 25:-0.259648 26:-0.769862 27:0.706633 28:-0.209993 29:-0.110311 30:0.658322 31:-0.535677 32:2.255839 33:0.910045 34:0.141888 35:-0.095073 36:-1.208736 37:-0.456232 38:-0.427803 39:0.021447 40:1.257501 41:0.062606 42:1.181011 43:0.337463 44:0.088224 45:0.840722 46:0.216647 47:-0.221199 48:-1.840244 49:-0.979886 50:-0.814929 51:0.987514 52:-0.856682 53:-0.014136 54:-1.274712 55:-0.601184 56:0.421951 57:0.219283 58:-0.414421 59:-0.898651 60:0.605764 61:-0.457577 62:0.277266 63:1.925650 64:-0.530073 65:-1.352277
-1 1:1.004013 2:0.776949 3:0.683519 4:-0.833214 5:-0.558556 6:-0.658466 7:0.837602 8:1.136644 9:1.934530 10:-0.983048 11:-1.776087 12:0.602203 13:0.826960 14:-1.217243 15:0.251271 16:-0.986326 17:-1.159587 18:0.545098 19:0.345697 20:-0.892367 21:0.272695 22:0.386079 23:0.595880 24:-0.566136 25:-0.654413 26:0.063466 27:-2.044768 28:0.605513 29:0.050601 30:-0.182312 31:-1.170954 32:-0.222640 33:-0.119726 34:-1.482099 35:-1.157540 36:-1.219082 37:0.039215 38:2.265683 39:-0.079737 40:1.270409 41:-1.845506 42:-1.331201 43:0.438771 44:-1.398285 45:0.817592 46:-1.362726 47:0.198970 48:-0.677542 49:-0.813601 50:-0.751248 51:-1.427225 52:0.402689 53:0.777177 54:0.166894 55:-0.046950 56:0.721004 57:0.874201 58:-0.717648 59:1.006987 60:-1.190741 61:1.487110 62:-0.052119 63:-0.282191 64:-0.018751 65:-0.880016
-1 1:0.913726 2:0.287905 3:-1.089943 4:-0.775652 5:0.322155 6:-0.961371 7:0.124303 8:0.840578 9:0.547765 10:-0.608850 11:-0.041905 12:0.646301 13:-1.697494 14:0.250853 15:0.166853 16:0.827080 17:-0.910191 18:-0.200785 19:-0.779111 20:0.886927 21:0.910047 22:2.250285 23:-0.539802 24:0.453560 25:1.001760 26:-0.910267 27:-1.599021 28:-1.271027 29:0.217044 30:-0.778395 31:-0.036940 32:-1.590267 33:0.142779 34:0.695112 35:-0.187480 36:1.108425 37:1.418706 38:0.806188 39:-1.271618 40:-0.364075 41:1.028028 42:-2.431889 43:-0.327823 44:0.952907 45:-0.739658 46:1.285220 47:1.034273 48:-0.169239 49:-0.345586 50:-0.194800 51:-0.810544 52:0.739060 53:-0.235287 54:0.464933 55:-0.796026 56:1.231974 57:0.119958 58:-0.322820 59:-0.421318 60:0.462477 61:-0.369105 62:0.032117 63:-1.081218 64:0.781347 65:-0.812618
-1 1:0.573110 2:-0.097534 3:0.631645 4:-2.165333 5:0.270799 6:-0.334173 7:0.685643 8:0.369197 9:-1.037716 10:-1.380290 11:0.899479 12:-0.788593 13:-0.035113 14:0.012020 15:-0.577934 16:1.415305 17:-0.070708 18:-0.267700 19:0.927576 20:-0.563648 21:0.148837 22:0.365417 23:0.020737 24:-1.164372 25:0.375835 26:0.057614 27:0.051491 28:1.774586 29:0.124725 30:1.138763 31:0.382634 32:1.166991 33:0.338410 34:-2.566294 35:-0.143010 36:1.265161 37:2.013145 38:-1.037036 39:0.004724 40:1.647276 41:0.363800 42:-0.440665 43:-0.848063 44:-1.846826 45:0.397327 46:-0.957172 47:-0.523095 48:-0.492449 49:1.778171 50:-0.929925 51:-0.586208 52:0.200074 53:0.781110 54:-0.474303 55:0.701911 56:0.581069 57:-0.143373 58:-0.312467 59:-0.521118 60:-0.660644 61:0.635441 62:-0.570603 63:0.673234 64:1.910322 65:0.326936
-1 1:1.520380 2:-0.392645 3:-0.690046 4:0.199283 5:-0.255221 6:1.202376 7:-1.517592 8:0.577420 9:0.653701 10:-0.102390 11:-2.616872 12:-0.102582 13:1.306588 14:2.032681 15:-0.795822 16:1.708601 17:0.675111 18:-0.903210 19:0.045392 20:0.756333 21:-0.737119 22:-1.190162 23:0.547953 24:-0.149146 25:-1.040911 26:-0.402328 27:0.879231 28:1.873502 29:0.030750 30:-0.642041 31:1.061920 32:-1.056539 33:0.823310 34:-0.754822 35:1.167156 36:0.025999 37:-0.014104 38:-0.656501 39:0.130353 40:-0.144581 41:0.043950 42:-0.418056 43:0.295904 44:-1.473648 45:0.764843 46:-0.969376 47:0.496400 48:1.028150 49:-0.025224 50:0.312842 51:-0.794455 52:-0.643768 53:-1.420607 54:-0.281777 55:1.991767 56:0.203360 57:-0.334591 58:-1.563192 59:-0.147760 60:0.811163 61:-0.990695 62:-0.569413 63:1.293693 64:1.955763 65:-0.197642
-1 1:-0.255416 2:-0.594794 3:-0.438054 4:-0.126664 5:0.009896 6:2.201058 7:-1.883554 8:-0.509704 9:0.922574 10:0.992048 11:1.497727 12:-1.036208 13:-0.222927 14:0.906053 15:0.518198 16:-0.144385 17:-0.128398 18:0.284756 19:1.318443 20:0.868125 21:1.151484 22:-1.908888 23:-0.483437 24:0.365504 25:-0.198519 26:0.595622 27:1.474304 28:0.776708 29:0.448076 30:0.484184 31:1.031168 32:1.803580 33:-1.040164 34:0.523470 35:-1.637739 36:1.348101 37:1.237672 38:0.632095 39:-0.427123 40:1.518489 41:-1.314307 42:0.512501 43:-0.624149 44:-0.679943 45:1.144206 46:-0.269749 47:0.093014 48:1.398365 49:1.590701 50:0.316687 51:-0.636769 52:-1.408766 53:-0.256003 54:-0.657115 55:-1.474132 56:-0.645278 57:-0.529863 58:-1.274827 59:-0.035488 60:-0.592573 61:0.523060 62:-0.937918 63:-0.220588 64:-2.056439 65:-0.635667
-1 1:0.746659 2:-0.415306 3:0.901643 4:-0.795180 5:0.038340 6:-1.132234 7:-0.610251 8:0.484290 9:1.561218 10:1.712135 11:-1.446027 12:-1.947515 13:-0.462356 14:-1.322852 15:-0.004714 16:1.275234 17:-1.029295 18:0.510013 19:1.750173 20:0.333986 21:-0.480286 22:1.215284 23:0.560657 24:-0.061035 25:-1.612972 26:0.523849 27:1.406606 28:2.385232 29:0.466567 30:0.035425 31:-0.471179 32:1.401568 33:1.609593 34:1.020364 35:2.474312 36:-0.399849 37:-0.890371 38:0.282066 39:-1.481365 40:-0.935337 41:0.534686 42:1.413429 43:-0.172159 44:-1.015879 45:-1.472374 46:0.867182 47:-2.357200 48:1.656697 49:1.402498 50:-1.770291 51:-0.020807 52:-0.064957 53:1.353306 54:-0.374801 55:0.244268 56:0.954475 57:0.445381 58:-0.224356 59:-0.767826 60:1.730896 61:0.664722 62:0.478185 63:1.215691 64:0.546350 65:0.290358
-1 1:-1.697587 2:0.734581 3:-0.429579 4:-1.348257 5:-0.072274 6:0.999878 7:-1.712921 8:1.380458 9:0.674354 10:2.295969 11:0.449048 12:-0.700862 13:-0.115179 14:-0.779071 15:0.467642 16:0.059484 17:0.176984 18:-0.072963 19:-0.822853 20:0.423122 21:-0.708862 22:-0.395328 23:-0.729021 24:-0.320410 25:-0.427750 26:-0.623512 27:0.141628 28:1.329077 29:1.061822 30:-1.178030 31:0.445706 32:-0.088320 33:-0.922535 34:-0.381535 35:-0.235894 36:0.021863 37:0.239737 38:0.821075 39:0.019160 40:-1.085555 41:1.551757 42:1.999497 43:-0.772452 44:1.650985 45:0.164081 46:-1.044400 47:-0.391296 48:-0.880895 49:0.151303 50:-0.008109 51:-0.198370 52:-0.196551 53:0.079662 54:-0.130260 55:1.574787 56:-1.817452 57:-0.065867 58:0.435026 59:0.634107 60:-0.898109 61:-0.656836 62:0.572757 63:0.075902 64:-2.171131 65:-0.045641
-1 1:0.021458 2:1.365260 3:0.755658 4:0.071925 5:0.703433 6:0.564852 7:-0.707819 8:-0.571578 9:-2.319063 10:1.434758 11:1.130197 12:-2.181794 13:-0.377355 14:0.171321 15:0.363194 16:-0.881083 17:-0.415253 18:1.048618 19:-1.571914 20:-1.718652 21:-0.269794 22:2.019285 23:-0.486162 24:-0.686694 25:-0.074474 26:2.734083 27:0.025802 28:-0.112236 29:-0.173238 30:0.830252 31:1.300285 32:-0.863748 33:-0.864182 34:-0.904506 35:-1.841335 36:0.008344 37:0.571847 38:-0.204190 39:-1.395033 40:0.624218 41:-1.135809 42:-0.236423 43:0.899847 44:0.664430 45:-0.774569 46:-1.460082 47:-0.247841 48:1.059749 49:0.470345 50:0.449013 51:0.090459 52:0.909525 53:1.325801 54:-0.220470 55:-0.342978 56:1.533619 57:-1.074298 58:-1.086730 59:0.543970 60:0.099677 61:-0.782750 62:0.830174 63:-1.408436 64:1.250676 65:1.555088
-1 1:1.630230 2:-0.881071 3:0.488644 4:-1.734781 5:-1.108077 6:0.737262 7:-0.804508 8:-0.831312 9:0.547248 10:1.209134 11:1.507006 12:-0.181372 13:-0.415843 14:2.219030 15:-1.132812 16:0.737418 17:1.769505 18:-2.571473 19:1.099153 20:1.257306 21:0.770743 22:-0.329808 23:1.198870 24:-0.382524 25:1.166094 26:2.761978 27:0.519133 28:1.146690 29:-0.079458 30:1.121820 31:1.281441 32:0.093915 33:-0.045674 34:-0.884277 35:0.167298 36:-1.056124 37:-0.218126 38:0.270168 39:1.628534 40:1.530710 41:-0.780466 42:-1.200282 43:-0.367612 44:-2.702211 45:0.772118 46:-0.628358 47:1.380683 48:1.064380 49:-1.233680 50:-0.232486 51:-2.082284 52:1.227563 53:0.871972 54:1.808332 55:-1.502776 56:0.721295 57:1.035863 58:-0.407500 59:-0.378375 60:0.006673 61:-1.604076 62:-1.524991 63:-0.145310 64:1.340658 65:-1.680570
-1 1:-1.118197 2:-2.070613 3:1.096077 4:-0.805540 5:-0.522848 6:0.914540 7:0.546296 8:-1.443226 9:-1.202517 10:0.606085 11:0.186193 12:0.375536 13:2.384105 14:1.694420 15:-0.000781 16:-1.512411 17:-0.290011 18:-0.065277 19:-1.454535 20:0.583367 21:-0.667938 22:-1.399229 23:0.894155 24:0.090208 25:-0.317533 26:1.500309 27:1.623197 28:0.852442 29:1.725740 30:0.483196 31:-0.518419 32:-2.001219 33:0.025023 34:-0.310853 35:-1.439912 36:-1.434929 37:-0.507977 38:-0.635376 39:-0.163609 40:-0.173443 41:1.737868 42:2.258061 43:-1.276659 44:0.134048 45:-0.538667 46:-0.257157 47:-0.471753 48:-2.574851 49:-1.364095 50:-0.635650 51:-0.640605 52:0.290859 53:0.210253 54:0.031746 55:1.243664 56:-2.152267 57:-1.503609 58:-0.576004 59:1.693273 60:-0.719842 61:1.145133 62:-0.003536 63:-2.880652 64:-0.338667 65:-1.079775
-1 1:0.570011 2:-0.408815 3:-0.401820 4:-0.021934 5:0.205654 6:-0.929923 7:1.533032 8:-0.281382 9:0.482722 10:-1.085888 11:-0.122913 12:-0.755224 13:-0.775904 14:0.042295 15:-0.512452 16:0.703375 17:-0.197749 18:2.060159 19:-2.361322 20:0.815893 21:-0.909382 22:0.026578 23:1.461926 24:-0.180771 25:-0.407497 26:0.348649 27:0.538628 28:-0.816526 29:-0.163805 30:1.419700 31:1.330967 32:0.302354 33:1.498672 34:1.370503 35:-1.346522 36:-0.268357 37:0.375624 38:1.658746 39:-0.364933 40:-0.553798 41:0.814087 42:2.204052 43:0.061508 44:1.310929 45:-0.574448 46:0.253817 47:0.627258 48:-1.028414 49:0.268757 50:0.068738 51:0.740838 52:-1.005761 53:-1.546528 54:1.073337 55:0.341532 56:-1.080978 57:0.950542 58:1.185675 59:-2.762007 60:1.961921 61:1.227503 62:1.597675 63:-0.325447 64:0.143016 65:-0.084330
-1 1:0.220451 2:0.974067 3:0.744879 4:-1.701286 5:-1.801559 6:-0.736059 7:-0.713698 8:0.143054 9:-0.711347 10:-1.677092 11:0.837976 12:0.558144 13:1.295818 14:0.433488 15:-0.814534 16:-1.254632 17:-0.043381 18:2.046749 19:-2.371503 20:-1.908429 21:-0.067845 22:-0.724611 23:-0.054364 24:0.633352 25:-0.124519 26:-0.169439 27:0.861507 28:0.781888 29:-0.146330 30:0.039983 31:-0.581755 32:-3.023008 33:-1.057227 34:-1.829910 35:-0.214170 36:-0.707123 37:-0.033514 38:0.359442 39:0.897351 40:0.732923 41:0.784713 42:0.806233 43:-0.237415 44:0.964633 45:-0.244233 46:0.572227 47:-1.424211 48:0.689839 49:-0.124766 50:1.787423 51:0.071595 52:-1.632584 53:1.048541 54:0.525909 55:-0.574215 56:-1.791820 57:2.334834 58:-0.731884 59:-0.333932 60:-0.943185 61:0.317713 62:0.348203 63:1.724065 64:-0.615691 65:0.993220
-1 1:-0.336665 2:0.399486 3:0.268393 4:-0.194717 5:0.140944 6:-0.558632 7:-1.340385 8:1.445299 9:-0.909574 10:-0.861113 11:-0.810796 12:0.459174 13:-1.987091 14:-0.454660 15:-0.864685 16:0.981630 17:-0.561951 18:-0.973362 19:-0.872110 20:0.382079 21:-1.172315 22:0.071829 23:2.016371 24:1.042070 25:-0.328204 26:0.213038 27:-0.639703 28:-0.367068 29:-0.288457 30:1.670373 31:-2.098082 32:-0.126390 33:0.103766 34:0.701336 35:1.164526 36:0.023079 37:-0.134670 38:-0.265676 39:-1.052535 40:-0.260154 41:-1.599290 42:-1.489916 43:0.938480 44:0.062166 45:-0.426961 46:1.974590 47:0.769886 48:1.183422 49:0.110316 50:-0.031242 51:-0.004730 52:-2.186413 53:-1.349256 54:-0.134252 55:-0.435638 56:-0.641933 57:0.381646 58:-0.324135 59:-0.093400 60:0.216475 61:0.339738 62:0.454127 63:0.548363 64:-1.773928 65:-0.675979
-1 1:-0.706639 2:1.838216 3:-0.401341 4:0.106016 5:-0.462928 6:0.045225 7:-0.494536 8:0.154780 9:0.288909 10:-0.674324 11:-0.331375 12:0.106093 13:1.622241 14:-0.844985 15:-1.024085 16:0.164761 17:-0.518619 18:1.150542 19:1.708415 20:1.274375 21:1.049705 22:1.804353 23:-1.578126 24:-0.675409 25:-1.393992 26:0.666497 27:-1.390412 28:-1.029331 29:1.375331 30:0.744661 31:0.148398 32:1.316651 33:-0.207060 34:-0.692016 35:-0.895986 36:1.489714 37:-0.936900 38:-1.190274 39:0.919207 40:-0.208614 41:-1.057176 42:0.360658 43:-1.007641 44:1.915630 45:-1.527308 46:1.270521 47:0.603957 48:0.876366 49:-0.669182 50:0.066190 51:-0.301505 52:0.022958 53:1.847128 54:-0.464619 55:1.627894 56:0.034057 57:0.735284 58:0.183594 59:-0.015696 60:2.075697 61:-0.757786 62:1.517510 63:-0.058183 64:-0.447137 65:0.484522
-1 1:1.614670 2:-0.347447 3:0.567159 4:-1.516385 5:-1.643813 6:0.666858 7:0.708884 8:-1.529596 9:-1.626061 10:-0.073283 11:-1.624548 12:-0.722869 13:1.864742 14:-0.904106 15:2.096475 16:-0.105907 17:-0.336675 18:0.620324 19:-1.377693 20:-0.821350 21:-1.214400 22:0.783079 23:-0.751079 24:1.543218 25:-1.597762 26:1.259640 27:-1.112137 28:-0.143611 29:-0.342044 30:-0.361132 31:0.097586 32:-1.929546 33:-0.214437 34:-0.083384 35:-0.304216 36:1.532099 37:0.198450 38:1.735924 39:-2.374315 40:-0.178465 41:-1.786298 42:-2.518578 43:0.657536 44:0.720962 45:0.561394 46:0.230582 47:0.286633 48:-0.501440 49:-1.425100 50:0.431108 51:1.046538 52:-1.437812 53:1.984634 54:1.537266 55:0.139024 56:-0.773616 57:0.615346 58:1.096557 59:2.402311 60:1.642153 61:0.467872 62:0.744976 63:-1.301154 64:0.863837 65:2.334397
-1 1:-0.085645 2:-0.108104 3:-1.165281 4:0.217012 5:-1.008195 6:-0.615719 7:1.900532 8:-0.255113 9:-1.614568 10:0.642371 11:-0.301446 12:-0.321573 13:0.748376 14:0.183683 15:0.467079 16:-0.999592 17:0.071015 18:-0.400676 19:0.522990 20:-0.361624 21:-0.036686 22:-1.511925 23:0.430513 24:-1.230840 25:-0.418436 26:-1.599899 27:-0.512678 28:1.422340 29:1.060035 30:1.340487 31:0.225458 32:1.095806 33:0.563639 34:1.501721 35:1.251303 36:-0.950486 37:3.685823 38:0.887625 39:1.042726 40:-0.546830 41:-1.048919 42:0.023380 43:1.342553 44:0.138124 45:-0.782323 46:-0.950350 47:2.897182 48:-1.171594 49:0.401842 50:1.179461 51:0.201600 52:0.490408 53:-0.734750 54:-1.373573 55:-0.150397 56:0.910911 57:-0.417449 58:-0.921322 59:0.620739 60:-0.603736 61:-0.567791 62:1.016790 63:2.129257 64:0.953937 65:-1.229692
-1 1:-0.206798 2:0.117789 3:-0.584911 4:-0.070611 5:-0.754451 6:-0.598134 7:-1.147698 8:0.079996 9:1.386464 10:-1.156244 11:-0.216216 12:0.324868 13:0.156945 14:1.169366 15:2.493461 16:-0.869126 17:0.195299 18:-0.893755 19:-0.406212 20:-0.434267 21:1.542320 22:1.977517 23:0.361843 24:0.238777 25:-3.236794 26:0.789938 27:1.617379 28:0.944771 29:0.782349 30:0.686582 31:-1.089738 32:0.109714 33:0.818895 34:-0.097214 35:-0.371003 36:-0.820696 37:0.085414 38:0.092970 39:-0.259676 40:0.912248 41:-1.680026 42:0.772778 43:-0.037558 44:0.251374 45:1.140899 46:0.277267 47:0.587348 48:0.042654 49:0.262354 50:-0.136491 51:-0.534452 52:-0.344878 53:1.380586 54:-1.072432 55:-0.826039 56:0.233330 57:-1.368175 58:-0.474688 59:-1.255578 60:0.798192 61:1.684529 62:0.803031 63:0.293177 64:-0.078062 65:-0.678006
-1 1:1.032811 2:-0.595739 3:0.623799 4:0.456747 5:-0.483434 6:-1.578083 7:-1.669464 8:0.373880 9:-3.034456 10:0.014223 11:-0.566547 12:-0.667527 13:-0.539417 14:-1.613583 15:0.606088 16:1.494182 17:-0.218436 18:-1.962123 19:-0.192214 20:1.204544 21:-0.074083 22:0.603834 23:-0.176433 24:0.153504 25:-0.265914 26:0.232270 27:-1.069096 28:-1.695861 29:-1.542254 30:0.182701 31:0.141414 32:1.706550 33:1.628805 34:-0.294904 35:0.164128 36:-0.396285 37:-2.068467 38:-0.025356 39:0.101942 40:-0.970207 41:-1.907535 42:0.373379 43:-2.636580 44:-0.211421 45:3.268727 46:0.433935 47:-0.013348 48:-0.269850 49:1.865325 50:1.881603 51:1.031476 52:0.616071 53:-0.020300 54:-0.520504 55:-0.340244 56:-0.925469 57:0.281970 58:0.190974 59:-0.364338 60:-0.887337 61:0.471367 62:-0.269495 63:-0.082980 64:-0.113748 65:-1.184802
-1 1:0.000596 2:-0.638126 3:0.920545 4:1.057119 5:-1.281407 6:0.482836 7:1.217577 8:0.464648 9:-1.501888 10:-0.424623 11:1.012320 12:0.887993 13:0.551593 14:-0.095718 15:-0.773318 16:0.511315 17:-1.445973 18:-1.601582 19:1.149910 20:-1.544467 21:0.973047 22:0.770743 23:-0.465312 24:1.251754 25:0.998068 26:0.095543 27:0.520920 28:0.388814 29:0.362196 30:0.298582 31:-0.320651 32:0.233216 33:-1.522963 34:0.086355 35:0.491879 36:-1.131869 37:0.808726 38:1.076652 39:2.672910 40:-0.459089 41:0.555282 42:-0.440245 43:-0.512265 44:0.440839 45:0.123668 46:-0.709581 47:0.879206 48:-0.135238 49:0.778916 50:0.185269 51:0.346298 52:-0.139458 53:-0.321417 54:-0.043829 55:-0.862591 56:0.917941 57:-1.904012 58:-0.890366 59:-0.040423 60:0.226767 61:0.097079 62:0.165457 63:-0.979576 64:0.130873 65:1.154923
-1 1:-1.276166 2:-1.733756 3:-1.088176 4:0.695800 5:0.372527 6:0.326302 7:0.806800 8:-0.081014 9:-0.420175 10:-1.340885 11:1.093885 12:-0.948550 13:-0.569133 14:-0.943645 15:0.184252 16:-0.133204 17:-0.081217 18:0.873988 19:1.422540 20:-1.615629 21:0.483551 22:0.236523 23:-0.626692 24:-0.560586 25:-0.348376 26:-0.652448 27:0.037455 28:0.649682 29:0.804563 30:0.680595 31:-1.206786 32:-0.270632 33:-0.446633 34:-0.922830 35:-1.611230 36:0.264849 37:-0.919008 38:0.671939 39:0.767800 40:-1.169074 41:-0.374453 42:-0.848707 43:-0.879547 44:-0.316354 45:1.284004 46:1.856340 47:1.278249 48:-0.690708 49:0.676743 50:0.305179 51:-0.328042 52:-1.146950 53:-0.054669 54:-0.558722 55:1.433208 56:-0.354848 57:2.498220 58:-1.153359 59:-1.168140 60:-1.132166 61:0.112325 62:-0.493811 63:0.434783 64:-0.873231 65:-1.104547
-1 1:0.482649 2:1.271175 3:-0.800561 4:-0.294025 5:1.603416 6:1.861176 7:1.045885 8:-1.899143 9:0.211007 10:0.668577 11:0.509537 12:-0.329048 13:-1.011018 14:-0.417124 15:0.398202 16:1.149358 17:-0.072690 18:-0.428630 19:-1.217125 20:0.278842 21:-1.199567 22:1.058910 23:-0.266881 24:-1.547358 25:0.648945 26:-0.693547 27:1.772848 28:-0.388082 29:-0.147217 30:-0.208482 31:0.332920 32:2.321989 33:0.483784 34:-0.465045 35:0.272212 36:0.549885 37:-1.681639 38:0.031029 39:-0.317582 40:0.301912 41:-0.109642 42:0.246792 43:-0.451751 44:-0.649832 45:-1.859433 46:-0.818628 47:0.156275 48:-0.827574 49:-0.299886 50:0.511234 51:-0.661066 52:-0.774148 53:-0.754424 54:-1.183515 55:-1.312030 56:0.076245 57:2.189485 58:0.701339 59:1.009972 60:0.825817 61:-1.187756 62:0.635304 63:1.027037 64:-0.078520 65:0.330446
-1 1:0.274285 2:1.192713 3:-2.117858 4:-0.298533 5:0.495477 6:0.217784 7:0.579818 8:1.240227 9:0.827248 10:-1.127948 11:-1.223252 12:-2.026851 13:-0.536368 14:0.292618 15:-0.636896 16:1.277450 17:-0.332603 18:-0.547930 19:0.639960 20:-0.302755 21:-0.664871 22:-0.654199 23:-0.088090 24:-1.493231 25:0.718577 26:1.404298 27:-0.166814 28:1.323588 29:0.618754 30:-1.814604 31:-0.022984 32:0.815645 33:-0.663576 34:-2.059980 35:-0.464777 36:0.186955 37:-0.345455 38:-1.599455 39:1.020227 40:-0.850057 41:1.237921 42:1.089970 43:-0.090764 44:-1.591778 45:-0.147150 46:-2.011022 47:0.342991 48:0.369728 49:2.651360 50:0.691246 51:0.048462 52:1.686772 53:-0.335080 54:-0.458927 55:1.875173 56:1.217705 57:1.762127 58:-1.091084 59:-0.585282 60:-0.214363 61:-0.966911 62:-0.506134 63:-1.613136 64:-0.674283 65:-1.254846
-1 1:0.596907 2:-1.133096 3:2.263625 4:0.669545 5:0.538646 6:0.398525 7:1.014731 8:0.657430 9:-0.542557 10:0.596091 11:-0.003712 12:1.479812 13:-0.060346 14:0.400684 15:0.919358 16:1.168296 17:-1.560738 18:0.614215 19:-0.139592 20:-0.842659 21:-1.324221 22:-0.847089 23:1.433842 24:-1.114740 25:1.036041 26:-0.178580 27:2.128164 28:1.597586 29:1.090754 30:0.312733 31:0.875734 32:1.217533 33:-0.936371 34:-2.435253 35:0.386976 36:-0.018937 37:-1.751297 38:1.775619 39:0.007785 40:0.918128 41:-1.291199 42:-1.542963 43:0.733676 44:-0.047406 45:-1.227590 46:-1.756973 47:-0.948653 48:0.634194 49:1.580653 50:1.413372 51:-0.010446 52:0.223356 53:-2.130642 54:-0.620606 55:-0.148658 56:0.456007 57:-1.423718 58:-0.460104 59:-0.596153 60:0.688434 61:-0.742283 62:1.301784 63:-0.667767 64:-0.880552 65:0.598497
-1 1:2.072381 2:-0.146683 3:-1.040560 4:-1.213041 5:0.511443 6:-0.137217 7:1.071579 8:0.568406 9:-0.647582 10:1.066312 11:2.189133 12:-0.288247 13:0.502888 14:-0.452195 15:-0.099817 16:0.745452 17:-0.496075 18:-1.038102 19:-1.182529 20:-0.008249 21:0.716248 22:-0.274996 23:0.495251 24:-0.447629 25:1.669202 26:-1.009647 27:-0.545577 28:-1.003646 29:1.514963 30:0.890340 31:0.353432 32:0.981731 33:-1.195761 34:-0.766317 35:0.635536 36:-0.528355 37:0.225104 38:-0.770203 39:0.014887 40:-0.962542 41:0.215576 42:-0.663653 43:1.522427 44:-1.253908 45:0.756861 46:-0.890461 47:-1.916604 48:0.531818 49:1.701298 50:-0.165179 51:-0.906463 52:-0.942791 53:-0.552109 54:-0.029261 55:0.519220 56:-0.006142 57:0.933592 58:1.565116 59:-1.372527 60:0.199083 61:0.296305 62:0.162710 63:-0.444120 64:-1.173405 65:-0.003302
-1 1:0.045658 2:-1.748540 3:-0.212435 4:-0.801129 5:0.155955 6:-0.982710 7:-0.289670 8:-0.947465 9:-0.668799 10:-2.523883 11:0.837951 12:1.185460 13:0.838286 14:-2.919008 15:0.687999 16:0.644041 17:-0.015031 18:0.007250 19:-0.618838 20:-0.307630 21:-1.183677 22:0.138715 23:-0.108933 24:0.393802 25:0.186320 26:0.118781 27:0.941923 28:-0.575097 29:1.582968 30:-1.540794 31:-0.528330 32:0.950972 33:0.066109 34:0.002934 35:-0.271235 36:0.811828 37:-1.711139 38:0.137296 39:0.454419 40:-0.175110 41:-0.568772 42:0.965842 43:-1.572982 44:0.531714 45:0.556832 46:0.316724 47:-0.720879 48:0.247351 49:1.258103 50:-1.461193 51:-0.673789 52:-0.031682 53:0.799794 54:1.420032 55:0.786216 56:0.277554 57:0.446795 58:1.167898 59:1.224242 60:0.473845 61:0.191952 62:-1.945950 63:-0.251397 64:1.847995 65:0.065486
-1 1:-0.052750 2:-0.103787 3:0.868139 4:-0.961839 5:0.854609 6:1.452914 7:-0.904870 8:0.909464 9:-0.814200 10:-0.817869 11:-2.482028 12:0.329807 13:-1.942437 14:-1.258658 15:-0.214336 16:-0.631740 17:-0.099046 18:-1.383777 19:0.937727 20:0.527492 21:1.278355 22:-2.016008 23:-0.462645 24:0.664701 25:0.523277 26:-0.099654 27:0.092410 28:0.411960 29:-1.190241 30:-1.267489 31:0.465980 32:1.320347 33:-2.174915 34:-0.548428 35:-0.439177 36:1.351957 37:-1.624771 38:-0.396121 39:-0.359158 40:-2.118954 41:-0.172981 42:1.207672 43:-0.467161 44:1.890455 45:-0.554431 46:1.326952 47:-0.283660 48:-0.410248 49:1.406178 50:-0.961573 51:0.801585 52:-1.268746 53:0.993331 54:1.050733 55:-0.249690 56:0.202190 57:0.339995 58:0.426908 59:0.301819 60:0.726819 61:0.336946 62:-1.281443 63:-1.015473 64:-0.277954 65:0.280715
-1 1:0.409264 2:3.011058 3:1.805894 4:-0.290220 5:0.727922 6:0.385754 7:0.669781 8:-1.046195 9:-0.381374 10:1.452606 11:0.587049 12:0.763538 13:-0.893977 14:1.489858 15:-0.841885 16:-0.238239 17:-0.782541 18:-1.444301 19:1.477630 20:0.144108 21:-0.438470 22:0.312683 23:-0.146214 24:1.150977 25:0.966628 26:-1.560148 27:0.888327 28:-1.869539 29:-1.287070 30:-0.508649 31:0.753444 32:-1.106036 33:0.473199 34:0.175613 35:-0.363192 36:-0.948386 37:-0.560983 38:-0.630231 39:0.584585 40:0.319375 41:-0.221345 42:-0.661994 43:0.970591 44:-0.426197 45:-1.674851 46:-1.520497 47:1.329444 48:0.127588 49:0.500391 50:-0.304832 51:-1.334121 52:-0.472172 53:-0.085783 54:-1.446329 55:-0.382427 56:0.880406 57:-0.650652 58:1.878223 59:1.534159 60:1.065483 61:-0.333619 62:-0.881624 63:1.494494 64:0.835172 65:-0.007365
-1 1:0.160765 2:-0.192237 3:0.043252 4:1.232713 5:-0.210216 6:-0.139191 7:-0.577052 8:0.704582 9:1.037110 10:0.349073 11:0.759814 12:0.866506 13:0.725528 14:1.106372 15:-1.230412 16:-0.314623 17:1.068021 18:-1.225733 19:-0.680222 20:1.524903 21:-1.419845 22:-0.533402 23:0.737469 24:-0.487071 25:-1.283266 26:1.339697 27:1.228595 28:-0.028129 29:-0.026883 30:2.174715 31:0.402144 32:1.965105 33:0.765745 34:0.666839 35:0.317117 36:1.403368 37:-0.134392 38:-1.447612 39:0.387878 40:0.232924 41:0.938986 42:0.061772 43:0.745083 44:0.497991 45:0.844815 46:0.205460 47:-0.558038 48:0.141195 49:1.120430 50:0.307519 51:0.255201 52:-0.126291 53:0.249606 54:-0.763643 55:-1.152231 56:0.674703 57:0.178565 58:1.518057 59:-1.247383 60:0.653946 61:-0.802904 62:-1.847012 63:2.075910 64:1.294280 65:-1.579532
-1 1:0.990491 2:-0.861288 3:-0.889624 4:-0.573552 5:-1.329892 6:-0.230688 7:0.016309 8:-0.454528 9:-0.321322 10:-0.235998 11:-0.499903 12:1.663461 13:-0.551762 14:0.487273 15:-0.297377 16:2.864531 17:0.441033 18:0.571701 19:0.414653 20:-1.232181 21:-0.552490 22:-0.902152 23:-0.404831 24:-0.437197 25:-0.410477 26:-0.524712 27:0.718137 28:1.478601 29:-1.656670 30:0.719136 31:-1.538217 32:-0.626206 33:-1.542132 34:-0.538360 35:0.281901 36:1.063049 37:1.332519 38:1.785571 39:1.022397 40:-1.523176 41:0.891555 42:-0.712904 43:0.498429 44:-0.960116 45:0.081758 46:-0.483275 47:-2.273674 48:0.284598 49:-1.133881 50:-1.322929 51:0.009479 52:0.990279 53:1.953382 54:-0.732311 55:0.692198 56:-0.069665 57:-1.493238 58:-1.177872 59:0.093192 60:0.306072 61:-0.908266 62:0.770972 63:-0.407078 64:-0.536469 65:-0.285416
-1 1:-0.424829 2:-0.401645 3:0.876797 4:1.489495 5:2.296253 6:0.943670 7:0.777268 8:-0.492048 9:-0.431552 10:-1.408297 11:-1.573561 12:-1.056231 13:-1.285322 14:0.620379 15:-0.394628 16:-0.067419 17:-0.849610 18:-0.644651 19:1.289333 20:1.265988 21:-0.571813 22:0.146316 23:0.342805 24:0.485881 25:0.924901 26:-0.090933 27:-0.001745 28:0.559504 29:0.682304 30:1.276852 31:0.021418 32:0.439511 33:-0.084190 34:0.756516 35:-0.440828 36:-1.636074 37:-0.414800 38:-0.084812 39:-1.450642 40:-0.951859 41:-2.173745 42:0.589642 43:-0.517052 44:2.419071 45:0.336882 46:1.106690 47:0.316336 48:0.908475 49:-2.029415 50:0.040270 51:0.889473 52:0.349526 53:-0.443991 54:-0.063166 55:1.537385 56:1.030288 57:-0.430879 58:-0.654734 59:-0.379113 60:-1.540001 61:0.502380 62:0.389378 63:-0.052289 64:-1.060088 65:-0.636562
-1 1:0.600980 2:-1.299082 3:-0.593162 4:0.890012 5:-1.069960 6:0.995607 7:1.560964 8:0.223865 9:0.302741 10:-1.505104 11:0.482709 12:-1.165797 13:-1.056864 14:-0.178570 15:0.214945 16:-0.438080 17:0.082492 18:0.313797 19:-0.820300 20:0.211454 21:-1.122910 22:1.067504 23:-0.039800 24:0.142244 25:1.094626 26:1.849421 27:0.729712 28:-1.936466 29:0.574648 30:0.459193 31:0.664309 32:-0.996884 33:-0.226964 34:-0.413415 35:-1.497364 36:-0.110462 37:0.752629 38:-0.802968 39:-0.583892 40:-1.060092 41:0.842094 42:-0.057503 43:-0.487390 44:-0.232977 45:-1.348604 46:0.557114 47:-1.449955 48:-0.919166 49:0.958546 50:0.135656 51:0.043371 52:1.126590 53:1.051113 54:-1.167679 55:-0.391195 56:0.715515 57:-1.023349 58:-0.323267 59:0.836721 60:0.520482 61:0.292546 62:-0.963266 63:1.248185 64:-1.628413 65:-0.782235
-1 1:1.455047 2:-0.527639 3:-0.075834 4:1.564760 5:-0.908596 6:-1.458273 7:1.211638 8:0.333039 9:0.927443 10:-0.789553 11:-0.351200 12:0.011400 13:2.018279 14:-0.272683 15:-2.220205 16:0.035186 17:-0.215935 18:0.905715 19:0.686281 20:-0.978973 21:0.201424 22:-1.152509 23:0.119700 24:-0.954380 25:2.128456 26:-0.711203 27:-0.647188 28:0.266805 29:0.661184 30:0.824168 31:0.902743 32:-0.891628 33:0.476525 34:-2.785142 35:-0.345721 36:-0.768543 37:0.797032 38:1.658033 39:-0.938942 40:-0.029799 41:-0.623930 42:0.233439 43:0.529178 44:1.247001 45:-0.110683 46:-0.304105 47:1.514025 48:-0.732723 49:1.856885 50:-1.221586 51:1.249682 52:-0.606265 53:0.394759 54:-0.157266 55:-0.203943 56:1.038096 57:-1.202853 58:-0.680364 59:0.923698 60:-0.786443 61:0.999180 62:-0.691800 63:-0.165423 64:-0.840799 65:-1.548478
-1 1:-1.991047 2:0.398406 3:-0.884617 4:-0.586797 5:-0.828625 6:-1.208055 7:0.185650 8:-1.256699 9:-0.102661 10:-1.835725 11:1.231731 12:-0.372794 13:0.563817 14:-0.873847 15:1.241537 16:-1.295579 17:-0.564881 18:-1.204048 19:-0.791296 20:2.071397 21:0.284569 22:-0.435309 23:-1.733835 24:-0.257266 25:-0.138567 26:-0.553851 27:-1.519433 28:-0.948911 29:-0.564228 30:0.307008 31:-0.886878 32:0.280964 33:0.878856 34:1.266250 35:-0.738956 36:0.404093 37:0.119601 38:0.373492 39:0.308360 40:-1.873198 41:0.272238 42:1.017155 43:0.435279 44:0.714329 45:-0.219128 46:0.145466 47:0.593051 48:1.077038 49:-1.535687 50:2.416761 51:0.891254 52:0.950615 53:0.534398 54:-0.629921 55:-0.672099 56:-1.610682 57:-0.280074 58:-0.700967 59:-0.249458 60:-0.357834 61:1.355984 62:-0.307414 63:-1.046799 64:-0.126950 65:0.613286
-1 1:0.168311 2:-1.060753 3:-1.378305 4:0.194294 5:-1.075258 6:-0.327529 7:-1.643625 8:1.392462 9:-1.122505 10:0.958458 11:0.223297 12:0.488101 13:-0.722561 14:-1.087293 15:-0.043346 16:1.073839 17:-0.911593 18:0.010777 19:0.544546 20:0.458850 21:-0.772409 22:-1.240710 23:0.591589 24:1.120841 25:1.538306 26:0.124496 27:-1.194301 28:-1.002429 29:0.293979 30:-0.416766 31:-0.560602 32:-0.420815 33:0.763702 34:-1.112305 35:-1.235035 36:-0.408032 37:1.046967 38:-1.372722 39:-0.163424 40:1.854252 41:-1.242178 42:-0.245264 43:-0.940880 44:0.553996 45:-1.276989 46:-0.699979 47:0.828514 48:-0.492186 49:-2.835996 50:0.600494 51:0.688348 52:-0.289727 53:-0.683968 54:1.659632 55:-2.282474 56:0.128243 57:1.035287 58:-0.322869 59:-1.594003 60:-1.476998 61:1.918624 62:2.166551 63:-0.108642 64:1.769490 65:-0.379033
-1 1:1.022065 2:-0.769316 3:-1.150667 4:-1.939512 5:0.654639 6:-1.139191 7:-2.763668 8:-0.062957 9:-1.093847 10:-1.768526 11:0.640966 12:-1.211553 13:-0.342369 14:2.614896 15:-0.673528 16:1.437651 17:0.973836 18:1.001170 19:-0.007463 20:-2.353380 21:0.226751 22:-1.734824 23:0.662584 24:-0.819313 25:-0.087132 26:1.257985 27:-0.253231 28:-1.085369 29:-0.904701 30:-2.113529 31:-1.696512 32:0.158522 33:-0.016525 34:-2.197177 35:0.817574 36:-0.575855 37:-0.455497 38:0.654541 39:-0.197250 40:0.732353 41:-2.324667 42:0.270751 43:-0.907308 44:1.491255 45:0.565320 46:0.209197 47:-1.309747 48:-1.436067 49:0.605514 50:0.392606 51:1.023795 52:-0.987387 53:-0.909557 54:1.300920 55:-0.636883 56:0.100086 57:-0.403053 58:1.351277 59:0.911886 60:-0.316396 61:-0.719261 62:-2.451189 63:1.216386 64:0.062455 65:0.916125
-1 1:-0.810062 2:0.013728 3:0.182459 4:0.032488 5:-1.947049 6:-1.871991 7:0.440988 8:-0.556164 9:-0.306165 10:0.290353 11:0.960257 12:-0.143157 13:-1.079295 14:0.129401 15:-1.133007 16:-0.330049 17:1.647308 18:0.824968 19:0.602547 20:-1.464199 21:0.509553 22:1.765976 23:2.301095 24:1.599110 25:1.404027 26:-0.070957 27:-1.067842 28:-1.511271 29:1.152289 30:-2.211910 31:-0.091739 32:-0.442137 33:1.976106 34:-0.323752 35:0.134966 36:-0.403727 37:-1.093052 38:-2.777940 39:0.357027 40:-0.353259 41:0.034255 42:-1.949968 43:0.198962 44:0.152297 45:1.097851 46:-0.490307 47:-0.210343 48:-1.410718 49:-0.978762 50:1.761137 51:-0.304683 52:-0.094121 53:0.934402 54:-0.223761 55:-0.812530 56:0.512754 57:0.417901 58:-1.064371 59:-0.206214 60:-1.175669 61:-0.575034 62:-1.296478 63:0.770051 64:0.278588 65:0.171620
-1 1:-1.600812 2:-0.003660 3:0.517086 4:-0.526060 5:-1.101604 6:-1.152396 7:0.592827 8:-0.326657 9:1.177163 10:0.308737 11:0.132924 12:0.221980 13:0.843520 14:-1.552164 15:0.063632 16:-0.878940 17:1.214416 18:-0.187763 19:-2.721561 20:1.225282 21:-0.409947 22:1.046773 23:0.510119 24:-1.327460 25:0.787160 26:-1.045934 27:1.170119 28:-1.790694 29:0.574693 30:0.732722 31:0.875443 32:-1.428325 33:0.170321 34:-1.412055 35:1.533027 36:0.054093 37:-0.872066 38:0.938335 39:-0.434293 40:2.386526 41:0.328048 42:-1.069149 43:-0.983705 44:0.996084 45:-1.748716 46:-0.181960 47:-1.629103 48:-0.248064 49:0.099169 50:-1.510207 51:0.999536 52:-0.652858 53:-1.597045 54:-1.846289 55:-0.315796 56:-0.603485 57:-0.155325 58:0.598276 59:1.726853 60:0.670498 61:0.059143 62:1.199653 63:0.913632 64:1.139208 65:-0.033969
-1 1:0.420724 2:-0.573736 3:0.225494 4:-0.081571 5:-1.729793 6:-2.010860 7:-0.101195 8:0.929317 9:-0.440973 10:0.002722 11:0.816108 12:0.617548 13:-0.133311 14:0.538139 15:0.279577 16:-0.897317 17:-0.632038 18:-2.055440 19:0.255495 20:1.447885 21:-1.302258 22:1.069472 23:0.340377 24:-0.572220 25:-0.677180 26:-0.710398 27:-0.999657 28:-2.163453 29:-0.411702 30:-0.956637 31:-1.896755 32:-1.101502 33:-1.385624 34:-0.151222 35:-2.725642 36:0.583571 37:0.177366 38:0.597232 39:-0.525905 40:-0.355163 41:-1.109274 42:0.050751 43:-1.041479 44:0.229718 45:-1.290428 46:0.410767 47:-0.340599 48:1.671531 49:0.756578 50:-1.160471 51:0.268116 52:1.093467 53:0.150172 54:0.401141 55:-0.600640 56:0.421326 57:-0.658224 58:-0.526263 59:0.707861 60:0.770782 61:-0.707764 62:-0.031176 63:-1.458665 64:-0.278912 65:2.784632
-1 1:0.949933 2:1.166616 3:-0.485845 4:0.995497 5:1.067222 6:-0.917780 7:2.332121 8:0.805613 9:0.385106 10:-0.398455 11:-0.764346 12:2.295656 13:0.445535 14:-0.721094 15:-0.084070 16:0.067887 17:2.529785 18:0.150034 19:-1.196360 20:2.397314 21:0.345258 22:-0.007922 23:-0.519801 24:0.449510 25:-0.813970 26:0.317695 27:-0.249483 28:0.246038 29:1.241616 30:-0.614125 31:2.507090 32:-3.228448 33:1.666615 34:-0.128893 35:-0.591807 36:-0.109037 37:-2.462319 38:-0.900963 39:0.556838 40:0.315689 41:-1.683857 42:1.687989 43:0.343890 44:0.547713 45:0.760893 46:0.061281 47:0.180967 48:-1.810148 49:1.201887 50:-2.069928 51:-1.184050 52:0.236782 53:0.044117 54:1.077587 55:-0.321842 56:-1.165742 57:-0.006102 58:1.628153 59:-0.169260 60:-0.502120 61:-1.702706 62:-0.476178 63:-0.005956 64:-1.091097 65:-0.726803
-1 1:-0.787933 2:0.148484 3:-0.122792 4:0.559912 5:-1.624599 6:0.375387 7:0.014130 8:1.803834 9:0.926769 10:0.751987 11:0.670844 12:1.330562 13:-0.105260 14:-1.252040 15:-0.090790 16:0.641999 17:0.218508 18:0.580325 19:1.796922 20:-1.173683 21:-1.667124 22:-0.236321 23:1.020121 24:-0.747775 25:0.273545 26:1.877155 27:-0.635029 28:-0.667307 29:0.865077 30:-0.549748 31:-1.444534 32:1.137510 33:-0.083403 34:0.513927 35:0.735222 36:0.013875 37:1.796903 38:-3.166681 39:1.624779 40:-1.386815 41:1.884050 42:-0.525996 43:-1.517821 44:0.089778 45:0.802478 46:1.134569 47:-0.922034 48:-1.472880 49:0.188734 50:-0.960895 51:0.916564 52:1.225512 53:0.366165 54:0.424647 55:-2.266253 56:0.689386 57:1.097955 58:-0.618983 59:0.558115 60:1.108515 61:-0.635705 62:-0.616102 63:-0.099033 64:1.188512 65:0.444836
-1 1:0.398440 2:-0.983184 3:-1.794038 4:1.215066 5:0.188572 6:-0.181305 7:1.617923 8:-0.071965 9:0.755417 10:-0.794705 11:0.385888 12:0.683679 13:0.978617 14:1.297767 15:0.657732 16:1.406645 17:1.002372 18:0.931316 19:0.505725 20:0.532423 21:-0.848173 22:0.152702 23:1.362069 24:2.317670 25:-0.155362 26:-0.617947 27:-0.257389 28:1.990517 29:1.091250 30:-1.170849 31:-0.010838 32:0.261367 33:-0.593556 34:0.277690 35:-1.714812 36:-0.026075 37:0.370134 38:2.051229 39:-1.323526 40:2.353941 41:1.541845 42:1.123731 43:0.685675 44:0.921752 45:-0.835317 46:1.554955 47:-0.575926 48:0.020772 49:-0.380729 50:0.798820 51:-1.032265 52:0.983107 53:-2.012590 54:-0.263832 55:0.069217 56:-1.938585 57:-0.631356 58:0.912820 59:1.688823 60:-0.251570 61:1.810844 62:0.210656 63:-0.671434 64:-1.145038 65:0.870765
-1 1:0.748175 2:1.027457 3:-0.527039 4:1.188493 5:-1.098825 6:-1.841967 7:1.252583 8:-1.257313 9:-0.376763 10:-0.223463 11:-0.719299 12:0.088158 13:-0.622290 14:-0.505360 15:-0.658658 16:-0.380832 17:0.415508 18:-1.097870 19:0.898915 20:-0.869051 21:1.950444 22:-1.450263 23:-0.737008 24:-0.735243 25:1.379981 26:-1.040507 27:1.016474 28:-1.576429 29:0.843795 30:-1.657698 31:-0.089551 32:1.057168 33:-0.688439 34:-2.107713 35:0.169882 36:0.624418 37:1.395165 38:-0.027920 39:0.464023 40:0.725517 41:0.888793 42:2.052822 43:-1.051358 44:0.255937 45:-0.654660 46:0.279144 47:0.372896 48:2.358203 49:-0.251926 50:1.724055 51:1.030389 52:2.406174 53:-0.425967 54:0.569380 55:-0.937151 56:-0.755191 57:0.510488 58:-0.423094 59:-0.040087 60:2.060870 61:-1.239056 62:-0.698160 63:2.210420 64:0.509608 65:-0.238300
-1 1:-0.135108 2:0.263535 3:-1.217097 4:0.769744 5:-0.201312 6:-0.373507 7:0.456440 8:-0.090467 9:1.201824 10:-0.748128 11:0.954929 12:-0.530375 13:-0.094537 14:0.333307 15:-1.233439 16:-1.143292 17:-0.129130 18:-0.570700 19:2.051224 20:-0.018451 21:-1.867331 22:0.298209 23:0.046345 24:-1.534539 25:0.752940 26:-1.452178 27:-0.659946 28:-1.865126 29:-1.072133 30:0.219887 31:1.308702 32:0.575540 33:0.125248 34:-0.142163 35:0.443945 36:0.392106 37:-0.713375 38:-0.991329 39:-0.182563 40:-0.125183 41:0.847766 42:-0.331602 43:-0.435839 44:1.572513 45:0.902938 46:0.308723 47:0.316899 48:1.265860 49:-0.925691 50:-0.035272 51:0.862715 52:0.314010 53:-0.469197 54:-0.302070 55:0.994950 56:2.505490 57:-0.438331 58:-0.540675 59:-0.411615 60:-0.617849 61:-1.450803 62:2.628404 63:0.218114 64:-0.595079 65:2.249420
-1 1:0.461194 2:0.213521 3:2.195121 4:0.836892 5:0.705453 6:-2.138273 7:-0.461843 8:-0.514500 9:-0.037554 10:-1.380671 11:0.659472 12:2.145708 13:-0.756784 14:-0.044566 15:0.208748 16:-0.486614 17:-1.012753 18:1.348366 19:-0.191879 20:0.468222 21:0.179279 22:1.363959 23:0.425893 24:0.736214 25:-1.248189 26:-1.546155 27:0.129500 28:0.381840 29:0.539476 30:-1.884122 31:-0.707931 32:-0.042351 33:0.199685 34:-1.348742 35:-0.077053 36:0.954290 37:-1.716789 38:-1.255894 39:-0.116324 40:0.546354 41:-0.018813 42:0.213076 43:-0.997053 44:-1.080515 45:1.364630 46:2.034916 47:0.149992 48:0.011821 49:0.313983 50:0.140306 51:-0.845636 52:0.026507 53:-0.008148 54:-1.283597 55:1.824517 56:0.236419 57:-0.221282 58:-1.782612 59:-0.783287 60:-0.522518 61:-1.687295 62:-0.476837 63:-0.597338 64:-0.559757 65:0.009211
-1 1:-0.412976 2:0.846790 3:-0.946834 4:0.588680 5:2.148580 6:1.175524 7:-0.384618 8:0.479931 9:0.644338 10:0.207685 11:-0.728718 12:-0.026078 13:-1.000417 14:2.222222 15:-1.089313 16:-1.769232 17:1.038400 18:-0.674264 19:0.495859 20:0.642331 21:1.521844 22:-1.376494 23:-0.909387 24:-0.962429 25:-0.105590 26:0.895965 27:-2.131131 28:0.786738 29:-0.570709 30:-0.415168 31:0.489568 32:-0.717515 33:0.225463 34:-0.492909 35:0.223990 36:-0.947605 37:-0.710281 38:-0.561049 39:0.527073 40:0.219435 41:1.787763 42:0.615800 43:0.016669 44:0.618921 45:0.580139 46:-0.003428 47:-0.034712 48:-1.490513 49:1.153305 50:-0.829839 51:0.346650 52:0.914288 53:-1.108225 54:0.070082 55:1.222306 56:1.068768 57:-0.681806 58:-1.062195 59:1.423557 60:0.310868 61:-0.421453 62:0.557556 63:-0.402760 64:0.391763 65:0.334597
-1 1:-2.351458 2:0.957799 3:0.637160 4:1.203205 5:-1.798225 6:-1.393246 7:0.159901 8:0.606005 9:0.295572 10:-1.309362 11:-0.579763 12:-0.939536 13:0.877078 14:2.111969 15:-0.300539 16:3.048677 17:-1.726908 18:-0.510976 19:0.508177 20:-0.472858 21:-1.686346 22:0.872180 23:-1.837554 24:1.232223 25:0.841885 26:-1.043345 27:0.883282 28:2.414606 29:0.409066 30:0.343416 31:0.534696 32:-0.560970 33:-1.685636 34:-0.503478 35:-0.903942 36:1.808192 37:-0.055767 38:-2.592007 39:0.654571 40:-0.016730 41:1.388226 42:-0.404345 43:0.648934 44:-1.258492 45:0.091849 46:0.227771 47:0.739320 48:1.294667 49:-0.629324 50:1.463420 51:-1.447774 52:0.459696 53:1.474166 54:-1.312533 55:-0.331571 56:-0.270173 57:0.606307 58:-0.092620 59:-0.407499 60:-0.605880 61:0.049350 62:-0.780567 63:0.281204 64:0.181285 65:-2.380045
-1 1:-0.311638 2:-2.097026 3:-1.004299 4:-1.742375 5:-0.142372 6:-1.500556 7:-0.339986 8:0.906394 9:0.254193 10:2.251225 11:-0.877962 12:-0.559598 13:0.497257 14:-0.129372 15:-0.669565 16:0.648307 17:0.708930 18:0.008480 19:-0.913284 20:-1.727970 21:-0.004342 22:-0.909041 23:-1.248773 24:-0.440468 25:0.626909 26:2.226529 27:-0.797240 28:-1.140313 29:-1.060557 30:-0.967860 31:0.606799 32:0.610717 33:0.221591 34:1.603752 35:-0.854266 36:-1.404824 37:-0.708012 38:1.628270 39:1.735384 40:0.017162 41:0.555608 42:-0.464179 43:-1.014707 44:-1.480741 45:-0.995014 46:-0.818055 47:-0.945454 48:0.190700 49:-0.460879 50:-0.160242 51:0.625743 52:2.190574 53:0.183627 54:-1.307798 55:-1.390907 56:0.279633 57:-1.584374 58:-0.525366 59:0.707252 60:-0.603926 61:1.444949 62:-0.309519 63:0.319185 64:-0.767262 65:0.067796
-1 1:0.505508 2:-0.755561 3:0.160522 4:-0.673109 5:1.003442 6:-0.730453 7:-0.002779 8:-1.530374 9:0.925774 10:-0.211194 11:1.347510 12:-1.721989 13:-0.545781 14:-0.360190 15:-0.922748 16:0.468460 17:1.268270 18:-0.853102 19:-1.954420 20:0.338920 21:-0.005100 22:-0.797387 23:0.463330 24:2.321368 25:-0.465373 26:1.162829 27:0.366606 28:0.161771 29:1.645956 30:-0.921328 31:-2.254911 32:0.809406 33:-0.327933 34:-0.815600 35:0.365960 36:-1.140351 37:2.062299 38:-1.351332 39:-0.542598 40:-0.110393 41:0.464295 42:-0.681600 43:0.242705 44:0.192150 45:0.172028 46:1.682818 47:0.803350 48:-1.523551 49:2.190660 50:0.226220 51:0.684386 52:0.169051 53:-0.139201 54:-1.085063 55:0.503142 56:0.552262 57:0.308718 58:0.840755 59:-0.991540 60:1.704587 61:0.997636 62:-0.681932 63:1.651015 64:-1.219051 65:0.207259
-1 1:1.828168 2:1.507178 3:-1.035467 4:-0.277476 5:-0.724978 6:-0.694059 7:-0.394547 8:-0.915068 9:-0.926406 10:-0.265689 11:-2.913699 12:0.652708 13:-1.303841 14:1.940440 15:-0.065828 16:0.142375 17:0.241172 18:-0.349365 19:1.885587 20:-2.208179 21:-2.049195 22:-0.051756 23:-1.037146 24:-0.009925 25:1.319109 26:0.151955 27:1.878098 28:-0.866433 29:0.289834 30:1.190329 31:0.581789 32:-0.554213 33:-1.038396 34:0.415630 35:2.039648 36:-0.255156 37:-1.966540 38:0.877753 39:-0.210082 40:3.681044 41:-1.001769 42:1.005188 43:0.138584 44:1.667191 45:1.356756 46:0.262026 47:-0.860771 48:-0.367742 49:0.744731 50:0.887871 51:-0.638969 52:1.816247 53:-0.979360 54:0.982933 55:-2.284129 56:-0.825766 57:-1.974362 58:0.048160 59:-0.341830 60:0.295225 61:0.084877 62:0.639079 63:-0.345562 64:1.328815 65:-0.140846
-1 1:-0.657942 2:0.451352 3:1.083118 4:0.765340 5:1.590740 6:0.068895 7:-0.695266 8:-1.939138 9:-0.067525 10:-0.197085 11:-1.960475 12:1.380187 13:1.174517 14:-0.066186 15:0.110653 16:-0.425715 17:-0.985016 18:-0.186324 19:2.013993 20:-1.219763 21:0.805818 22:-0.297639 23:-1.440340 24:1.624670 25:0.610969 26:0.177315 27:-0.453864 28:0.888205 29:-1.862567 30:0.108446 31:0.606397 32:1.862167 33:0.079686 34:-1.073137 35:-3.513417 36:1.031142 37:-1.499781 38:0.835974 39:0.075389 40:-0.746911 41:-0.195498 42:-0.269559 43:-0.197688 44:1.454277 45:-0.084497 46:-0.793086 47:1.267151 48:-1.862412 49:-0.751675 50:0.807359 51:1.193231 52:-1.289004 53:0.865516 54:0.531519 55:-0.959466 56:0.253143 57:-0.469987 58:-0.347259 59:-0.008058 60:-0.096932 61:-0.917064 62:-0.458157 63:0.541979 64:0.086705 65:-0.396413
-1 1:1.337483 2:-0.008953 3:-1.991013 4:0.625459 5:-0.645463 6:0.110258 7:0.345580 8:0.150590 9:-0.112235 10:-0.052087 11:-1.355024 12:-1.383827 13:-0.158606 14:-0.123724 15:-0.500895 16:0.685234 17:-1.796262 18:0.833349 19:0.597582 20:0.816715 21:0.871694 22:0.745466 23:1.077402 24:-0.563930 25:-0.265987 26:-0.011130 27:-0.538875 28:0.042966 29:0.091833 30:-0.126315 31:2.004442 32:0.498780 33:-0.805520 34:-0.411192 35:-0.844892 36:-0.727399 37:0.466959 38:1.241147 39:0.231433 40:0.822217 41:-1.149139 42:1.111516 43:1.044002 44:0.696730 45:0.868699 46:-2.321631 47:0.759826 48:-1.503639 49:-0.423650 50:1.466103 51:0.296901 52:-0.860014 53:0.010624 54:-1.452372 55:-0.187590 56:-0.145751 57:-2.241681 58:0.544892 59:-0.301972 60:-0.347253 61:0.338303 62:1.368343 63:0.219915 64:-0.569521 65:-0.100744
-1 1:0.041170 2:1.107927 3:-2.760661 4:-0.793042 5:0.082821 6:0.489224 7:-0.866927 8:0.216705 9:0.106444 10:0.251574 11:-1.809121 12:0.148069 13:1.520684 14:-0.758622 15:1.529777 16:1.141925 17:0.962458 18:-0.961995 19:0.113744 20:-0.757082 21:-0.093375 22:-0.330503 23:0.430567 24:1.027234 25:1.204500 26:-0.442528 27:-1.645725 28:-0.623191 29:-0.917774 30:-0.328914 31:-0.874986 32:0.831808 33:-3.074961 34:0.355807 35:-1.425932 36:1.416018 37:-1.684331 38:1.309928 39:-1.003703 40:1.253154 41:0.059168 42:-2.403231 43:-0.105967 44:1.090071 45:-0.211879 46:0.130952 47:-0.231540 48:-0.906082 49:-0.666460 50:-0.921602 51:0.988491 52:-0.210665 53:0.935729 54:2.223646 55:0.260473 56:-0.761952 57:0.211682 58:-0.931351 59:0.609405 60:1.879718 61:-0.502107 62:-0.570942 63:0.422303 64:0.437986 65:-0.312878
-1 1:-1.719362 2:0.752768 3:-0.847969 4:1.173004 5:0.938264 6:-0.043099 7:1.474209 8:0.729185 9:0.162409 10:-0.939013 11:-0.248489 12:-0.566103 13:1.240891 14:-0.225756 15:-0.031848 16:0.658195 17:-0.173306 18:0.564026 19:2.506181 20:0.809716 21:1.762323 22:-0.003231 23:-0.641796 24:1.328147 25:0.242729 26:0.586951 27:-0.414258 28:0.957392 29:-2.128700 30:1.578308 31:0.386836 32:-0.341639 33:0.516006 34:0.874259 35:1.325445 36:0.643983 37:0.371130 38:2.013127 39:-0.237212 40:-0.736477 41:0.481664 42:0.335149 43:1.109780 44:-0.827962 45:0.324890 46:-0.157070 47:-0.467754 48:0.581213 49:0.534272 50:0.179899 51:-0.759178 52:-0.247864 53:1.376423 54:0.471513 55:0.797033 56:-1.124782 57:-0.313808 58:-0.636483 59:0.868865 60:-0.576763 61:-0.224828 62:0.942248 63:0.296838 64:-0.840146 65:-1.865684
-1 1:0.221739 2:0.688452 3:-0.093271 4:-1.080764 5:0.294298 6:-2.007936 7:0.131803 8:-0.253514 9:-0.553969 10:0.301581 11:-1.105276 12:-3.733993 13:-1.097159 14:-1.092277 15:1.105092 16:-0.460402 17:0.992291 18:0.212480 19:-1.322757 20:0.477661 21:0.330181 22:-0.119128 23:-0.755286 24:-0.545297 25:-0.613246 26:-0.169712 27:0.748875 28:0.504707 29:-1.676917 30:-0.775088 31:0.175599 32:-0.564404 33:1.926296 34:1.215954 35:-0.249266 36:-0.826868 37:-0.385665 38:-0.353838 39:0.755753 40:-0.795817 41:-0.494289 42:0.420643 43:1.556968 44:1.842285 45:0.770211 46:-0.640612 47:-0.711820 48:1.470671 49:0.930427 50:-1.781870 51:1.274679 52:-2.100055 53:-0.764206 54:-0.132082 55:-0.951483 56:-0.964879 57:1.622551 58:-0.682702 59:-0.799488 60:0.739821 61:0.929204 62:0.317136 63:-1.638685 64:1.941775 65:-0.294243
-1 1:-0.753632 2:0.148739 3:0.099987 4:-1.059740 5:1.612689 6:-0.087004 7:-0.647254 8:-0.624987 9:-0.019513 10:0.899214 11:0.139224 12:0.301775 13:-0.512656 14:-0.630518 15:-1.111292 16:-0.028514 17:0.025768 18:-0.554790 19:-1.447562 20:-0.156967 21:-1.451468 22:0.525757 23:0.603981 24:0.620170 25:-0.769361 26:-0.029906 27:0.149709 28:1.642763 29:1.491239 30:0.524645 31:-0.095306 32:0.099827 33:-1.017320 34:1.381351 35:-0.603603 36:1.365671 37:1.643772 38:1.452220 39:0.051340 40:-0.702031 41:0.621315 42:0.268157 43:-0.459875 44:-0.172416 45:-0.434737 46:0.699924 47:-0.652335 48:-1.626391 49:0.978810 50:1.300229 51:-2.149754 52:0.988372 53:-0.700922 54:1.811184 55:0.364881 56:0.929984 57:-0.520680 58:-0.492947 59:0.210343 60:-1.076784 61:2.535625 62:0.444118 63:0.764043 64:-0.156065 65:-0.476181
-1 1:-0.239443 2:0.077338 3:-1.284099 4:-0.459368 5:0.632128 6:0.797242 7:0.542638 8:-0.633200 9:1.397412 10:1.415565 11:-1.217103 12:0.195157 13:-0.888100 14:-1.021845 15:-0.500338 16:0.220338 17:0.236070 18:0.233135 19:-0.126040 20:1.601333 21:0.128362 22:0.505994 23:-1.581956 24:0.043703 25:-0.683792 26:0.308056 27:0.512984 28:-0.065830 29:-0.885868 30:-0.335016 31:-1.596736 32:0.969863 33:2.230193 34:0.746336 35:0.888259 36:-1.196944 37:-0.772203 38:0.618542 39:-1.880637 40:0.893939 41:-1.283265 42:1.750858 43:0.325664 44:-0.548380 45:-0.025942 46:0.663828 47:0.182283 48:-0.134497 49:-2.121205 50:-0.574002 51:1.048698 52:0.056921 53:-0.366655 54:1.237999 55:-0.603031 56:-0.599718 57:-0.134147 58:-0.788711 59:-0.111825 60:-1.219324 61:-0.163765 62:-0.164890 63:-0.409944 64:-0.470315 65:1.463720
-1 1:0.016354 2:0.273520 3:-0.097922 4:0.498053 5:0.500045 6:-1.503284 7:-2.024123 8:0.534421 9:0.224561 10:-1.601686 11:0.970284 12:-1.226071 13:-0.880014 14:-1.871578 15:-1.432839 16:-0.679454 17:-0.404234 18:-1.678362 19:-1.514109 20:1.534871 21:0.211819 22:-0.725888 23:0.150569 24:-0.843529 25:-0.358505 26:1.460974 27:0.671923 28:0.221582 29:0.544615 30:0.282924 31:-0.231478 32:0.509549 33:0.684274 34:0.293234 35:0.189143 36:0.663329 37:-0.834074 38:0.131797 39:0.002154 40:-1.058087 41:0.714350 42:1.028265 43:1.958307 44:-1.250735 45:0.603133 46:-1.006195 47:-1.098120 48:-1.925441 49:-1.638290 50:-0.113089 51:-0.703958 52:0.673890 53:0.649170 54:-0.778088 55:1.782858 56:-0.292176 57:0.484686 58:-0.215357 59:1.570614 60:-1.051139 61:0.723142 62:-0.867769 63:-1.604628 64:-0.577201 65:-1.074067
-1 1:-0.040872 2:-1.651734 3:-0.252283 4:1.120430 5:-0.504687 6:-0.756278 7:-0.767861 8:2.428678 9:0.364522 10:-0.322956 11:-0.567916 12:0.409945 13:1.761349 14:0.928658 15:0.094514 16:1.344846 17:-0.454033 18:-0.912985 19:0.564458 20:0.484229 21:0.347204 22:-1.168090 23:0.274203 24:1.351990 25:0.112869 26:0.228084 27:-0.672110 28:0.059951 29:-0.620642 30:-1.749656 31:0.060014 32:-0.129544 33:2.359264 34:0.744242 35:-0.832189 36:0.821161 37:0.379340 38:0.656883 39:0.543180 40:-0.722227 41:-0.715252 42:-1.466809 43:2.063656 44:-0.695836 45:1.086571 46:0.416952 47:0.261022 48:1.290476 49:0.421090 50:0.392353 51:-0.075003 52:-2.243644 53:-0.424318 54:-2.240932 55:1.618523 56:-1.115684 57:-1.084782 58:-0.280434 59:0.549836 60:-0.593434 61:0.396248 62:-0.348870 63:0.551499 64:1.263280 65:-0.465062
-1 1:-1.744688 2:-0.266354 3:0.155193 4:1.612480 5:-0.358307 6:-0.184243 7:-0.154167 8:0.569922 9:1.179736 10:0.045939 11:1.512149 12:-0.067213 13:0.270234 14:-0.578489 15:0.145359 16:-0.180216 17:-0.630833 18:0.553513 19:-0.190049 20:0.905829 21:-1.037190 22:0.465899 23:-0.981250 24:-0.369960 25:-0.077947 26:2.045321 27:-2.629182 28:-1.394154 29:1.928814 30:0.549305 31:1.548151 32:0.973643 33:0.216141 34:0.385611 35:1.459354 36:-0.114607 37:0.525730 38:-0.775799 39:-0.345114 40:-0.619976 41:0.315751 42:0.063517 43:1.105068 44:0.367414 45:-0.109689 46:0.350722 47:-0.236988 48:-2.070515 49:1.131451 50:1.744251 51:-0.615397 52:-1.093496 53:-1.447917 54:0.621603 55:-0.352463 56:-0.070051 57:-0.144426 58:0.704585 59:-0.711623 60:-0.676551 61:-0.590695 62:-0.526079 63:-0.088343 64:0.490239 65:0.457459
-1 1:-0.824601 2:-0.032362 3:-0.669104 4:-0.750580 5:-0.390751 6:0.392876 7:-1.057151 8:-0.911296 9:-0.486319 10:-0.046786 11:-0.274654 12:-0.209480 13:-0.133384 14:1.332324 15:-1.134797 16:0.291839 17:0.226548 18:0.410622 19:-0.665586 20:-1.196894 21:-1.112611 22:2.353593 23:-1.920716 24:0.514092 25:-0.823752 26:-0.069240 27:-0.429103 28:-0.229087 29:0.808923 30:-1.595929 31:0.070342 32:1.137109 33:1.007315 34:0.269084 35:0.136214 36:0.558810 37:-1.005564 38:-0.190240 39:-0.518843 40:0.599603 41:-0.151362 42:1.151957 43:-0.955153 44:-0.170563 45:2.094824 46:0.361327 47:-0.271319 48:-0.649676 49:-0.234275 50:-0.388730 51:-0.866669 52:-0.249459 53:1.096116 54:1.591454 55:-0.087026 56:0.509798 57:-1.266485 58:-1.043185 59:0.428986 60:-2.314811 61:-0.965249 62:0.581525 63:-0.319739 64:0.097852 65:0.569601
-1 1:-0.615810 2:0.460318 3:0.139221 4:0.945488 5:0.208368 6:-1.530864 7:0.866412 8:0.155758 9:-0.790580 10:1.698275 11:0.187223 12:0.179749 13:0.218192 14:-0.249670 15:0.938599 16:-0.826197 17:1.177776 18:0.190203 19:-1.545493 20:2.090995 21:0.411761 22:-0.701505 23:2.083417 24:-3.021145 25:-0.581691 26:0.202448 27:0.602570 28:0.355135 29:-0.143075 30:0.718915 31:-0.787898 32:-1.523608 33:1.416538 34:2.739633 35:1.095162 36:1.331804 37:-1.077216 38:-0.347068 39:-0.168772 40:-1.215756 41:-0.328562 42:0.285070 43:1.634342 44:2.166000 45:0.815495 46:0.483594 47:0.559679 48:0.508392 49:1.359228 50:-0.188803 51:-1.343046 52:-0.036821 53:-0.218828 54:1.003787 55:-0.030404 56:-0.167755 57:-0.049387 58:0.319551 59:-0.370593 60:-0.446149 61:-0.979024 62:0.814215 63:-1.446927 64:0.698436 65:-2.269553
-1 1:-0.018683 2:1.157303 3:-0.013422 4:0.717168 5:-1.505615 6:2.635397 7:0.878194 8:-1.608643 9:0.477095 10:-0.813529 11:0.340276 12:1.943367 13:-1.258542 14:-0.164544 15:0.929820 16:-0.802979 17:0.316964 18:0.969149 19:-0.096057 20:0.374973 21:1.376070 22:1.005835 23:-0.898275 24:-0.055733 25:-1.252450 26:-0.075722 27:-0.748338 28:-0.424250 29:0.795264 30:0.098969 31:0.457215 32:0.307610 33:0.490128 34:-1.044420 35:-0.323262 36:-0.510863 37:0.623922 38:-0.740422 39:-0.234847 40:1.145531 41:-0.268477 42:-0.957431 43:-1.650519 44:-0.737914 45:1.785582 46:-0.419523 47:0.012661 48:1.731707 49:-1.208773 50:-0.877367 51:0.424995 52:1.062649 53:1.112683 54:-1.101822 55:0.383222 56:2.549209 57:-0.855309 58:0.155561 59:1.461778 60:0.615716 61:1.059285 62:1.085917 63:-0.718645 64:-0.188599 65:-0.270006
-1 1:-0.451576 2:1.835989 3:-0.267994 4:-1.957335 5:-1.754696 6:-0.259643 7:-0.409916 8:-0.081902 9:0.758875 10:0.324877 11:1.194498 12:-0.413328 13:0.421554 14:0.651555 15:-0.270887 16:-1.134043 17:0.687168 18:0.412165 19:-0.832854 20:0.931282 21:-1.391561 22:-0.609921 23:3.110458 24:-0.745244 25:-2.822963 26:-0.080000 27:-1.669764 28:1.909546 29:1.353174 30:1.356178 31:0.417966 32:-0.006840 33:0.657821 34:-1.247775 35:0.102363 36:1.895823 37:-0.354654 38:-0.466987 39:0.654994 40:0.521071 41:-0.687197 42:-0.786550 43:0.314607 44:0.294477 45:0.520527 46:-0.768989 47:-0.595869 48:-1.034244 49:0.068925 50:-1.142855 51:-0.004679 52:0.563815 53:-0.574939 54:-1.532102 55:0.155005 56:2.320142 57:1.238025 58:0.574396 59:-0.524236 60:-0.282606 61:1.200331 62:0.527743 63:0.358495 64:0.001340 65:0.215103
-1 1:0.224546 2:1.242911 3:1.261367 4:-0.477818 5:-1.247344 6:0.385655 7:-1.602712 8:-0.656976 9:0.827520 10:3.157563 11:0.225527 12:0.985395 13:0.181608 14:-0.368249 15:-1.076228 16:-2.013825 17:-1.638098 18:-0.324851 19:1.076366 20:-0.452171 21:-2.589860 22:-0.912126 23:-0.140204 24:0.800046 25:-1.025106 26:-0.215719 27:1.118907 28:0.482078 29:-1.009103 30:0.740451 31:-1.025079 32:-0.770807 33:0.634223 34:-0.656197 35:1.581314 36:-0.685198 37:-0.032475 38:-0.796659 39:-1.432095 40:1.181921 41:-1.471947 42:-0.134599 43:1.797654 44:1.219463 45:-1.740331 46:-1.785979 47:-0.131242 48:-0.992770 49:-0.649677 50:-1.771801 51:-1.018643 52:-0.901792 53:0.753582 54:0.766426 55:0.703236 56:0.059518 57:2.433105 58:0.244965 59:0.343762 60:1.416331 61:-0.224011 62:-1.003478 63:-2.676667 64:-0.333577 65:-1.566237
-1 1:-1.838642 2:1.693455 3:-1.321871 4:-0.188602 5:0.009738 6:-1.184995 7:0.030629 8:-0.839598 9:-0.104865 10:-0.076459 11:0.869317 12:1.210031 13:0.483026 14:-0.941870 15:-0.577082 16:0.668122 17:0.485044 18:-0.725248 19:0.206861 20:0.413203 21:-0.371387 22:-0.411300 23:1.207606 24:-1.313999 25:-0.069764 26:0.975790 27:0.574664 28:0.349496 29:-0.891593 30:1.828935 31:0.264595 32:0.157214 33:1.573300 34:0.926610 35:-1.141486 36:-1.578462 37:0.684393 38:-1.124204 39:-0.218896 40:-2.527577 41:0.792231 42:0.428520 43:0.306159 44:-0.160573 45:1.492560 46:-0.157405 47:0.205832 48:-2.227306 49:-0.313600 50:-1.498412 51:-1.572115 52:-0.791037 53:0.692787 54:0.224808 55:0.384172 56:1.173320 57:1.169557 58:0.393956 59:1.560939 60:-1.058998 61:-0.592433 62:0.363769 63:-0.906819 64:-0.359623 65:-0.989480
-1 1:-0.454807 2:-0.278929 3:0.083337 4:0.865629 5:1.742638 6:-1.057185 7:0.060460 8:1.108000 9:1.949423 10:-1.246949 11:-0.731736 12:-0.749277 13:1.342705 14:-1.087417 15:-0.415451 16:1.231165 17:0.640708 18:1.419571 19:-1.231769 20:0.980633 21:-1.005414 22:0.155862 23:-0.203372 24:-0.716936 25:-0.051064 26:1.033606 27:0.395483 28:0.316331 29:0.438943 30:-1.224331 31:-1.381386 32:-0.193442 33:0.095173 34:-1.410310 35:-0.691958 36:-2.522102 37:-1.187110 38:0.506526 39:-0.122468 40:-1.006380 41:0.462842 42:-0.252401 43:-1.348689 44:3.031331 45:-0.961996 46:-1.461360 47:0.457833 48:0.039925 49:-0.447095 50:0.996005 51:0.627683 52:0.258127 53:-0.858499 54:-0.806786 55:0.760930 56:-1.475316 57:0.936465 58:-0.263759 59:-1.402529 60:1.343706 61:-0.530357 62:1.548230 63:0.087019 64:-1.222397 65:-0.552538
-1 1:-1.984458 2:-1.186470 3:-1.385994 4:-0.225654 5:-0.702399 6:-0.541424 7:0.584865 8:-1.034837 9:1.420141 10:2.068214 11:0.145412 12:2.114948 13:2.563940 14:0.059449 15:-0.611512 16:-0.885419 17:-1.316658 18:0.437092 19:-0.561232 20:2.480625 21:-1.166205 22:-0.141319 23:0.974718 24:-0.507079 25:0.481953 26:-0.889095 27:-1.349915 28:1.817872 29:0.840511 30:1.320362 31:-0.952034 32:-0.872704 33:-1.916876 34:-0.897766 35:-0.425307 36:-0.813728 37:-0.154867 38:0.351054 39:-0.912160 40:0.425048 41:1.542972 42:0.589052 43:1.446075 44:1.188809 45:0.220468 46:0.611387 47:1.291192 48:-0.149384 49:0.668223 50:-1.314830 51:0.184069 52:0.613228 53:-1.499824 54:-0.152418 55:0.896270 56:-0.893797 57:-1.251777 58:1.868775 59:-0.582507 60:-0.107514 61:-0.751640 62:0.677908 63:1.221358 64:-0.036901 65:1.012771
-1 1:0.993417 2:1.888537 3:-0.449048 4:-0.076373 5:-0.145801 6:0.889340 7:-0.233773 8:-0.320807 9:1.768745 10:-0.910868 11:-0.881543 12:0.982882 13:0.757553 14:-0.346007 15:0.375091 16:-0.439525 17:1.453474 18:-1.488836 19:0.232923 20:0.614499 21:0.533254 22:-0.494882 23:-0.671218 24:1.036907 25:1.406858 26:-1.055337 27:-0.805725 28:-0.945965 29:0.634239 30:-1.427143 31:0.507466 32:-1.074467 33:-1.250314 34:1.430750 35:0.651148 36:0.102590 37:-0.561371 38:0.229036 39:-0.263026 40:-0.448009 41:0.825133 42:-0.093085 43:1.969015 44:0.517592 45:-0.287821 46:1.501439 47:0.002958 48:-0.233728 49:0.496009 50:-0.421722 51:-0.551809 52:-2.425904 53:1.361921 54:-0.801911 55:1.633385 56:-1.346954 57:0.240597 58:0.149796 59:-0.134926 60:1.826662 61:-1.337142 62:-0.996218 63:0.640165 64:0.765545 65:-0.049192
-1 1:-0.381572 2:0.240294 3:-0.642363 4:0.756029 5:1.689868 6:-0.891405 7:-0.888724 8:0.200268 9:-0.581726 10:-0.474557 11:1.104976 12:-1.208870 13:-0.855779 14:-0.721189 15:-0.462714 16:0.401117 17:0.187293 18:1.273338 19:-0.608446 20:-0.583986 21:0.212221 22:-0.316295 23:0.030296 24:-1.170883 25:-0.683481 26:1.112017 27:-1.020305 28:-1.922368 29:-1.308679 30:0.714781 31:-0.812963 32:0.531436 33:-0.842291 34:-0.138548 35:-0.306666 36:1.599540 37:0.321287 38:-0.515550 39:-1.457845 40:-0.320576 41:1.056161 42:1.487648 43:-0.752632 44:-0.637394 45:0.955850 46:-1.542489 47:0.829214 48:0.596535 49:-0.103138 50:1.390929 51:-1.088865 52:0.037012 53:-0.591001 54:1.026941 55:-0.252417 56:0.172399 57:0.060872 58:1.350705 59:-0.436247 60:1.669733 61:-2.030156 62:-0.660171 63:-1.067314 64:0.143165 65:-0.447208
-1 1:0.711679 2:0.027014 3:0.492279 4:-0.350492 5:-0.804816 6:0.156926 7:1.242678 8:1.024920 9:0.578699 10:-0.568791 11:0.569241 12:0.258543 13:0.263491 14:-0.545286 15:-0.176285 16:-1.452635 17:0.102275 18:-0.438917 19:0.298430 20:0.795033 21:-0.202172 22:-0.413852 23:0.589799 24:0.548432 25:-0.735872 26:0.322781 27:-0.305298 28:-2.273140 29:1.521265 30:-1.562822 31:-0.564865 32:0.572900 33:-1.124456 34:-0.335313 35:-1.009415 36:-0.839197 37:-0.071696 38:1.039156 39:-0.395507 40:-1.274522 41:-0.654230 42:-1.476425 43:-1.474335 44:0.220080 45:0.901488 46:0.553129 47:-1.174618 48:0.676002 49:-2.004346 50:0.090914 51:-0.385382 52:-1.166582 53:1.430892 54:-0.049298 55:1.011140 56:0.555421 57:1.288182 58:0.329131 59:-0.975485 60:-0.258790 61:0.384416 62:-0.150162 63:0.930545 64:-0.397647 65:1.867240
-1 1:-0.801791 2:-0.595221 3:0.060370 4:1.308045 5:-0.884213 6:-0.345394 7:0.143676 8:0.437602 9:0.074084 10:-0.870991 11:-0.672112 12:0.060165 13:0.126069 14:-1.404456 15:-1.285372 16:-0.933008 17:-0.514184 18:0.753783 19:0.757035 20:-1.408931 21:-0.181023 22:-2.711821 23:-0.594019 24:0.083371 25:-0.521387 26:-1.140028 27:0.418955 28:-0.588986 29:0.310232 30:0.146222 31:-1.388264 32:0.905367 33:-0.533089 34:-0.360760 35:1.466278 36:-0.199769 37:-0.354529 38:0.474645 39:0.772070 40:-0.328793 41:0.966785 42:1.227545 43:-0.703732 44:0.723566 45:-0.436455 46:2.068962 47:-1.175646 48:-0.964379 49:0.146608 50:-0.005692 51:-1.617290 52:-0.324486 53:1.143697 54:-0.587600 55:-0.217751 56:1.745982 57:0.772611 58:-2.163793 59:-0.208277 60:0.559292 61:-0.288605 62:0.156202 63:-0.601460 64:0.658794 65:1.798264
-1 1:0.238477 2:-2.462766 3:-0.325206 4:1.637259 5:-0.051465 6:0.147018 7:0.588369 8:0.380566 9:2.489374 10:-0.739495 11:1.072188 12:-1.327226 13:-1.831705 14:1.324582 15:-1.029229 16:0.925258 17:-1.474202 18:-0.678354 19:0.159207 20:0.924687 21:0.454798 22:-2.125106 23:-0.852649 24:-0.134022 25:-0.185821 26:0.965816 27:1.658869 28:0.144441 29:1.418805 30:-0.549017 31:-1.688490 32:-0.676250 33:-0.159564 34:0.673656 35:-0.910504 36:-1.389554 37:-0.458379 38:0.464285 39:0.409787 40:1.277751 41:1.101256 42:-1.083308 43:-0.335733 44:0.592260 45:-0.775189 46:1.876257 47:1.678777 48:-0.787669 49:-0.002554 50:-1.455946 51:1.375549 52:-0.397400 53:0.423649 54:0.150046 55:0.015839 56:-1.143830 57:-0.960072 58:-1.376686 59:1.575080 60:1.397641 61:0.999331 62:-0.228102 63:0.915343 64:-1.043508 65:-1.794867
-1 1:-0.022771 2:-0.317169 3:0.001878 4:-0.742189 5:-1.181154 6:0.770295 7:-0.838203 8:1.231150 9:-0.515662 10:1.695995 11:-1.126495 12:1.043500 13:-0.298308 14:-0.117083 15:1.751485 16:-1.038216 17:-1.151947 18:-0.197875 19:1.117068 20:0.776077 21:-1.595158 22:-0.959462 23:0.816098 24:-1.063548 25:0.571340 26:-0.365718 27:-0.253485 28:-1.165223 29:-1.475362 30:0.052706 31:0.349283 32:0.187401 33:0.494605 34:0.163652 35:-0.342294 36:-0.330433 37:0.137141 38:-0.411823 39:0.334730 40:0.910187 41:-1.023238 42:-0.197228 43:1.203147 44:-1.103367 45:0.521167 46:-0.958430 47:-0.737529 48:0.494841 49:0.027990 50:0.411919 51:0.623620 52:-0.041122 53:-1.361768 54:-0.667175 55:-0.007455 56:-0.583356 57:0.002223 58:-0.200215 59:-1.477924 60:0.007243 61:-0.376589 62:-1.353924 63:-1.226733 64:-1.546566 65:-0.840232
-1 1:-1.361152 2:1.308918 3:0.070826 4:0.954176 5:-0.057663 6:1.867023 7:1.346643 8:0.382025 9:-1.115812 10:0.233182 11:1.389918 12:0.633808 13:-1.168904 14:-0.659507 15:1.682142 16:1.414587 17:0.808848 18:-1.494606 19:0.756304 20:-0.278501 21:0.136063 22:0.052620 23:1.157878 24:-0.294698 25:0.940852 26:-1.275042 27:-1.195067 28:-0.591738 29:-0.664048 30:-0.363276 31:0.273372 32:0.136239 33:-0.262325 34:0.254097 35:-0.958909 36:0.179065 37:0.563468 38:-0.022698 39:0.987676 40:0.431382 41:-1.209999 42:2.155251 43:-0.082499 44:-0.169039 45:0.500549 46:-0.678274 47:-0.195496 48:0.421837 49:-1.370012 50:-0.143450 51:0.871253 52:0.036189 53:-2.825385 54:0.349142 55:0.794237 56:1.358906 57:-0.131306 58:-1.039608 59:0.725644 60:-1.313591 61:1.285122 62:-0.819998 63:0.727048 64:1.779234 65:-0.225366
-1 1:-0.493477 2:-0.406636 3:1.015681 4:-1.665418 5:-0.367094 6:1.670837 7:-0.318908 8:0.523812 9:-1.708212 10:-1.187985 11:2.000204 12:-0.178893 13:-1.631217 14:-1.623116 15:1.262305 16:0.304958 17:-0.287464 18:0.059456 19:0.853875 20:-0.088152 21:-0.434315 22:-0.719422 23:-1.033353 24:-0.089328 25:-0.642411 26:-0.473829 27:0.229503 28:1.180008 29:0.423289 30:-0.827649 31:0.311390 32:1.393159 33:-0.174209 34:-0.330771 35:0.021117 36:1.134549 37:-1.850426 38:-0.649794 39:0.076154 40:-0.613683 41:-0.336654 42:0.983286 43:-0.897944 44:-1.505152 45:-0.579042 46:-0.429730 47:-0.235984 48:-0.201108 49:0.092052 50:0.653982 51:1.784824 52:-0.013214 53:1.092710 54:0.775115 55:-0.934637 56:-0.413014 57:-0.099124 58:0.280364 59:0.207326 60:1.149240 61:-1.093479 62:0.968546 63:0.663627 64:-1.173204 65:-0.259948
-1 1:-0.078055 2:-0.517187 3:0.181234 4:0.371124 5:-2.750527 6:-0.498187 7:-0.160502 8:0.211688 9:0.705426 10:-0.775025 11:1.129034 12:-0.741779 13:0.679486 14:1.390265 15:0.998874 16:-0.322854 17:-0.732654 18:1.189516 19:0.218861 20:0.213272 21:-1.794217 22:1.355077 23:-1.640381 24:-2.017074 25:-0.624674 26:1.242116 27:0.827884 28:0.104878 29:0.414888 30:0.674217 31:0.716906 32:1.098131 33:0.506246 34:-0.032085 35:0.744164 36:1.105754 37:-0.129321 38:0.035082 39:-0.695957 40:-0.384768 41:1.086745 42:-0.110657 43:0.107133 44:-0.975220 45:-0.184225 46:0.562854 47:0.597228 48:1.500399 49:1.324159 50:-0.442293 51:1.193614 52:-2.559118 53:0.886482 54:0.196812 55:1.799873 56:0.212688 57:1.699670 58:0.364240 59:0.536865 60:0.897326 61:0.925106 62:0.736407 63:0.686013 64:1.227427 65:-0.847400
-1 1:0.308294 2:0.772939 3:-0.730703 4:-0.951755 5:-0.241511 6:-0.181543 7:1.635668 8:-1.361123 9:-0.998092 10:0.082774 11:0.032978 12:1.707593 13:0.349863 14:-0.234493 15:-1.451057 16:1.580819 17:-0.808392 18:-1.341650 19:-0.283476 20:1.786982 21:0.547433 22:2.255524 23:-0.358081 24:-2.167384 25:0.218874 26:2.352994 27:0.690970 28:-0.056670 29:-1.247053 30:-0.518809 31:0.674015 32:-1.482236 33:0.684840 34:0.150442 35:-0.156539 36:-0.085961 37:-0.060608 38:1.534445 39:-0.347871 40:0.757948 41:-0.338835 42:0.713404 43:-0.329422 44:-0.261119 45:1.296510 46:0.720160 47:-0.357861 48:-0.769264 49:-1.427572 50:0.295224 51:-0.311460 52:0.657029 53:-0.554521 54:0.343561 55:-1.650365 56:0.835323 57:0.536720 58:-0.262136 59:3.648452 60:-0.153541 61:-0.359297 62:0.593233 63:-1.630957 64:1.248803 65:-0.579782
-1 1:-1.535089 2:-1.605113 3:-1.111476 4:-1.790577 5:-1.440134 6:-0.140951 7:-1.635621 8:1.323921 9:0.294783 10:-1.419261 11:1.548621 12:-1.234796 13:-0.962534 14:1.509491 15:-0.212000 16:-0.231400 17:0.350213 18:2.002665 19:0.436151 20:1.141804 21:-0.782556 22:-1.541918 23:1.312761 24:-0.353257 25:-0.868023 26:-1.535808 27:-0.560623 28:-0.007796 29:-0.666576 30:-0.975437 31:0.181605 32:0.596983 33:2.291217 34:-0.064045 35:-0.667985 36:0.792413 37:0.832436 38:-0.655035 39:-0.342847 40:0.752907 41:0.219989 42:-0.254940 43:-1.046276 44:0.816534 45:-0.892663 46:1.353937 47:0.511474 48:1.071573 49:0.636629 50:-0.240842 51:-1.586823 52:-1.830155 53:-0.408830 54:-0.507168 55:1.076620 56:-1.672920 57:-0.649507 58:-2.030770 59:-0.858908 60:0.741384 61:-1.300874 62:0.589845 63:1.234202 64:0.464476 65:-0.374922
-1 1:-0.403003 2:-0.664886 3:0.283396 4:-0.506062 5:0.927804 6:0.355645 7:-2.424154 8:1.408471 9:0.035105 10:-0.213267 11:1.408452 12:0.599045 13:0.360628 14:-0.947816 15:-1.173342 16:-0.316089 17:1.234715 18:0.161588 19:0.060995 20:-0.328263 21:-0.374647 22:-0.651743 23:0.771082 24:-0.485085 25:0.807777 26:-0.072125 27:-2.929457 28:0.259289 29:-0.386611 30:0.008015 31:0.311644 32:1.172685 33:0.958690 34:-0.613450 35:0.300041 36:3.250312 37:0.766733 38:0.060068 39:1.017509 40:-0.324954 41:1.452480 42:0.230155 43:-0.077104 44:-0.515083 45:0.685228 46:-0.087276 47:0.303232 48:0.964239 49:0.444771 50:0.121469 51:-0.259708 52:-0.344608 53:-1.670847 54:-0.326551 55:-0.048644 56:-2.167911 57:1.224882 58:0.393430 59:0.859485 60:-1.220446 61:0.821630 62:1.472590 63:-0.110199 64:-0.929863 65:2.002338
-1 1:-0.827574 2:1.782950 3:-0.651277 4:0.262448 5:0.826531 6:-0.008740 7:-0.673402 8:0.750824 9:-0.230372 10:0.785083 11:0.974042 12:-0.202184 13:0.850889 14:0.790322 15:1.264271 16:-1.060268 17:0.845761 18:-0.708483 19:0.005828 20:-0.250234 21:1.812109 22:-0.005547 23:-0.512121 24:-0.198481 25:0.409399 26:1.191663 27:2.434957 28:0.121137 29:-0.878492 30:0.339065 31:-1.672823 32:0.035095 33:0.614891 34:0.215515 35:-1.112145 36:1.314598 37:1.069946 38:3.508135 39:-0.585187 40:-0.982244 41:0.111227 42:-0.071164 43:-2.072043 44:-0.372048 45:-0.428645 46:0.542834 47:0.799008 48:0.713905 49:0.306042 50:0.840731 51:0.394347 52:0.182811 53:-1.838531 54:0.466151 55:2.626424 56:-1.654232 57:-0.190883 58:0.874281 59:-0.296146 60:0.506971 61:-0.589362 62:-1.157151 63:0.840569 64:-1.232348 65:0.474040
-1 1:-0.459275 2:1.113773 3:-0.868485 4:0.408254 5:-2.101269 6:0.598251 7:0.448627 8:1.131308 9:0.067182 10:-0.541532 11:1.318927 12:0.606392 13:-0.406794 14:0.554651 15:-0.433282 16:-0.292604 17:0.950876 18:1.076456 19:-1.852904 20:-1.244120 21:-0.887230 22:0.267033 23:0.327466 24:-1.184560 25:-0.034709 26:0.078896 27:-0.857693 28:-1.173098 29:-0.018544 30:-0.906015 31:-0.440710 32:-0.695756 33:1.071115 34:-0.746045 35:0.545548 36:-1.547879 37:0.013372 38:-1.109066 39:-2.194687 40:0.325503 41:-1.335448 42:-0.147542 43:0.925508 44:0.822171 45:1.338572 46:0.796867 47:0.307047 48:-0.822564 49:2.264280 50:-2.532665 51:2.236984 52:0.201412 53:0.544442 54:0.936647 55:-0.440356 56:-0.017590 57:-0.366878 58:1.375355 59:-1.286739 60:-0.755375 61:0.657573 62:-0.135261 63:0.696621 64:-0.982147 65:-0.493366
-1 1:0.431460 2:-0.334477 3:-0.257372 4:-0.153210 5:0.273873 6:1.776993 7:-0.229604 8:-1.425784 9:-1.554989 10:-0.661867 11:-0.480637 12:0.327648 13:-1.834172 14:-1.321200 15:-1.409804 16:0.281223 17:-0.152814 18:1.743968 19:0.894612 20:0.061611 21:-2.371845 22:0.318201 23:1.226960 24:-0.421656 25:1.113918 26:-2.246982 27:0.378283 28:-1.823338 29:-1.747008 30:0.561742 31:0.317191 32:-0.972829 33:-0.751053 34:-0.880482 35:0.612898 36:-0.928076 37:-1.320768 38:0.008478 39:0.337999 40:-0.651249 41:-0.338961 42:-0.506024 43:2.522261 44:-1.729675 45:1.548096 46:-0.437890 47:1.320429 48:-0.975717 49:-0.473296 50:0.260976 51:-1.210310 52:0.767599 53:-0.928199 54:-0.438211 55:-0.887802 56:1.297525 57:0.941929 58:0.495571 59:-0.623841 60:-0.705143 61:1.618841 62:-1.970971 63:-2.272984 64:-0.217060 65:-1.011952
-1 1:-0.991677 2:-0.974749 3:0.053988 4:-1.004128 5:0.720851 6:-0.049741 7:-1.180089 8:-1.240929 9:-0.533704 10:-0.500115 11:0.816199 12:3.016246 13:-0.340751 14:-0.326492 15:-2.462710 16:-0.048039 17:-0.433343 18:0.685724 19:-0.048995 20:-2.620861 21:0.353071 22:1.757699 23:-0.287162 24:0.826816 25:-0.763956 26:-0.162383 27:1.365872 28:0.872139 29:-0.588503 30:0.079719 31:-0.691037 32:0.088956 33:-0.009133 34:1.466371 35:0.217538 36:-0.454959 37:-2.037637 38:0.816127 39:0.740512 40:-0.769587 41:-2.207150 42:-0.254781 43:0.271665 44:-1.924795 45:-0.482712 46:-0.580611 47:-1.174425 48:-0.472858 49:-1.107677 50:-0.430317 51:-0.501998 52:0.839824 53:-0.950204 54:-0.260952 55:-0.072386 56:0.273074 57:0.425106 58:-0.401214 59:-1.206409 60:-0.433813 61:0.135647 62:1.669783 63:0.794012 64:-0.278101 65:0.113103
-1 1:-0.928666 2:-0.808044 3:1.832986 4:-1.834694 5:0.420370 6:-1.097977 7:0.752633 8:0.004795 9:-1.295074 10:-0.878565 11:-0.097857 12:-0.304819 13:-0.128277 14:-0.675775 15:0.074052 16:0.805423 17:-0.415955 18:0.032895 19:0.473530 20:0.634383 21:0.969984 22:1.138291 23:-0.760877 24:0.265177 25:-0.469787 26:0.076968 27:-1.360148 28:1.633838 29:0.417694 30:0.794854 31:0.248243 32:-0.016344 33:0.554639 34:0.908269 35:0.793050 36:-0.682592 37:0.536027 38:-0.476147 39:0.358504 40:0.837503 41:0.515115 42:0.604771 43:-1.578068 44:0.106184 45:-0.823707 46:0.756380 47:0.561703 48:-1.338329 49:-0.244068 50:2.016983 51:0.767258 52:-0.812568 53:0.836658 54:-0.440526 55:-0.847925 56:-0.305057 57:0.203504 58:1.576598 59:0.905316 60:-1.065978 61:-0.188466 62:-1.096703 63:0.924107 64:0.248352 65:-0.476147
-1 1:1.297964 2:0.415675 3:-1.354863 4:-0.197625 5:1.277155 6:-1.539221 7:-0.373278 8:-0.962889 9:1.099346 10:-0.345829 11:0.204986 12:0.498228 13:1.839107 14:-1.316516 15:-1.310133 16:-1.022757 17:-0.337109 18:-0.062383 19:-0.869320 20:-0.380609 21:-1.528402 22:-0.107275 23:0.217836 24:-0.510179 25:0.397193 26:0.105258 27:-0.728374 28:1.064478 29:2.101725 30:2.246199 31:2.208498 32:1.155248 33:-1.100735 34:0.129027 35:-1.495636 36:0.269795 37:1.469028 38:0.857407 39:0.701480 40:-0.275200 41:-0.706961 42:1.808871 43:-0.032460 44:-1.177542 45:-0.183778 46:-1.070006 47:-1.491162 48:-1.866870 49:-1.220082 50:0.014557 51:-0.164529 52:0.859164 53:-0.458485 54:1.430870 55:-1.607627 56:-0.889194 57:-0.453288 58:0.338510 59:0.581237 60:-1.269867 61:-0.406855 62:0.224849 63:-2.271966 64:-1.117356 65:0.928047
-1 1:0.542334 2:-0.414471 3:-0.928047 4:0.319765 5:-0.969654 6:-1.095632 7:1.072720 8:-0.560299 9:-0.057727 10:-1.142898 11:0.960595 12:-0.708299 13:-0.396677 14:0.998578 15:0.621547 16:0.046360 17:0.197145 18:-2.483870 19:-1.112741 20:-0.835194 21:0.080895 22:0.454950 23:-0.172761 24:-0.107629 25:0.657316 26:1.254994 27:0.305565 28:-0.445079 29:-1.695659 30:-0.845175 31:0.014651 32:-0.221704 33:-0.067797 34:-0.199189 35:-1.031003 36:0.471441 37:0.557222 38:0.289405 39:0.778145 40:-3.046295 41:-0.097486 42:-1.000199 43:0.372296 44:0.645038 45:0.788454 46:-0.009119 47:-0.367082 48:1.027889 49:0.030734 50:-0.280248 51:-1.656959 52:0.953736 53:0.232957 54:-1.287223 55:0.496334 56:-0.106078 57:-1.247704 58:-0.427127 59:-1.021636 60:-0.724103 61:-0.564832 62:-0.358752 63:-0.003067 64:-0.169560 65:-0.397669
-1 1:0.563939 2:-1.143525 3:0.657114 4:1.052516 5:-2.255817 6:1.234025 7:0.557871 8:-0.507797 9:0.115583 10:0.154362 11:-1.649085 12:0.437711 13:0.677070 14:-1.210990 15:0.550542 16:0.081797 17:-1.109815 18:0.177791 19:0.056206 20:1.257815 21:-1.206669 22:0.979905 23:-1.324149 24:0.278138 25:-1.276738 26:0.020898 27:2.650101 28:0.024094 29:-0.240481 30:-0.335438 31:-0.783793 32:0.978045 33:0.841885 34:-0.291177 35:-0.819724 36:-0.959126 37:0.307976 38:-0.373274 39:0.520658 40:-0.258598 41:0.707284 42:-0.175220 43:-1.118923 44:0.667661 45:-1.697155 46:-0.328994 47:-1.431500 48:0.523680 49:-0.768240 50:0.010562 51:-0.212651 52:2.013102 53:-0.804954 54:1.020458 55:0.772179 56:-1.065595 57:-0.293375 58:0.639433 59:0.844159 60:0.218333 61:-0.344191 62:-0.137989 63:0.449491 64:0.784358 65:0.538633
-1 1:1.352029 2:-1.271191 3:0.676195 4:2.459916 5:0.286537 6:-1.296038 7:0.081502 8:-0.139170 9:-0.149198 10:-0.441172 11:1.807153 12:-0.785313 13:0.629895 14:0.674214 15:-0.020394 16:-1.716137 17:0.141090 18:-0.470126 19:-0.327465 20:0.388168 21:-0.608254 22:0.217853 23:1.286401 24:-0.593862 25:0.161737 26:-0.975571 27:-0.708726 28:0.733815 29:-0.046380 30:0.354815 31:0.120480 32:0.849412 33:-1.184235 34:-2.274214 35:-0.385116 36:0.469754 37:1.348912 38:1.122831 39:0.127349 40:-1.475790 41:0.147787 42:-0.204607 43:1.012010 44:-0.135488 45:-0.511968 46:0.180728 47:0.205581 48:0.679360 49:-2.008377 50:1.225454 51:-0.298297 52:-0.488011 53:0.447864 54:0.588158 55:-0.925307 56:-0.557396 57:0.973331 58:1.054041 59:0.433777 60:-1.044673 61:-1.108384 62:0.704701 63:0.378579 64:-0.271121 65:1.431344
-1 1:-0.023537 2:-0.171222 3:-0.206466 4:0.621928 5:0.719803 6:0.150453 7:0.899173 8:0.557845 9:-1.569088 10:-0.030988 11:1.072504 12:0.402535 13:-0.582739 14:0.347879 15:0.098618 16:-1.266309 17:0.375728 18:0.584549 19:0.130438 20:1.319508 21:-2.485290 22:0.033411 23:0.251429 24:-0.063879 25:-0.707202 26:-0.764016 27:0.735544 28:0.297422 29:0.834796 30:-0.470721 31:-0.620377 32:-1.354153 33:-0.471086 34:-0.265988 35:-0.949722 36:-1.374141 37:0.577656 38:-1.042057 39:-1.145951 40:0.910261 41:2.308195 42:0.314470 43:-0.257446 44:-0.312009 45:-0.687612 46:-1.246124 47:0.197471 48:-0.744167 49:0.912958 50:-0.861034 51:1.350524 52:0.624266 53:-0.955248 54:-0.564685 55:-0.598927 56:-0.763353 57:-0.011738 58:1.531332 59:0.087097 60:-0.629251 61:-1.002103 62:0.167308 63:-0.241152 64:1.455539 65:-0.386045
-1 1:0.691150 2:1.662442 3:0.874046 4:1.316394 5:0.689230 6:1.234800 7:0.982272 8:-0.539614 9:-0.376398 10:-0.156287 11:0.029731 12:-0.606868 13:0.879409 14:-0.229563 15:0.308198 16:1.320127 17:-0.610680 18:-0.010999 19:-0.345583 20:-0.162371 21:2.191842 22:-0.226385 23:1.818279 24:-0.596735 25:0.869977 26:-1.085738 27:-0.557888 28:-0.222485 29:-0.272644 30:-0.502857 31:-1.148572 32:-0.870758 33:0.929032 34:-0.533689 35:-0.086487 36:0.530886 37:0.957086 38:1.373936 39:0.860278 40:0.149564 41:-0.225351 42:0.188136 43:-0.204705 44:0.865291 45:1.626926 46:0.704061 47:-0.387544 48:0.579102 49:-0.022285 50:-0.285192 51:0.221831 52:0.574697 53:-1.302455 54:2.036761 55:0.633012 56:-0.794306 57:0.073915 58:0.536717 59:-1.999559 60:-0.923474 61:-0.021689 62:-1.659558 63:-0.338585 64:0.999049 65:-0.736389
-1 1:-0.296478 2:-0.662688 3:0.373273 4:-0.216429 5:0.682796 6:-0.314366 7:-0.954111 8:0.929578 9:-0.654518 10:-2.353453 11:-0.076404 12:-1.734696 13:0.988729 14:2.126782 15:-0.174252 16:0.756940 17:0.081059 18:-0.291403 19:-0.977796 20:-0.405345 21:0.216477 22:1.031744 23:-0.564400 24:1.872473 25:-0.741924 26:-0.027341 27:1.609401 28:0.011108 29:0.029056 30:2.077101 31:1.647788 32:-0.590959 33:-0.359999 34:-0.711799 35:0.574421 36:1.298056 37:1.092203 38:-0.235615 39:-0.916621 40:0.213488 41:0.508113 42:0.962813 43:1.931000 44:1.118907 45:1.226325 46:-0.076938 47:1.120341 48:0.622537 49:-1.268777 50:-0.304997 51:-0.541102 52:1.348155 53:0.251945 54:-1.586892 55:1.982595 56:0.534656 57:-0.490268 58:0.115484 59:1.035271 60:-2.235246 61:-0.540422 62:-0.887056 63:-0.127165 64:-1.474143 65:-0.447968
-1 1:0.448983 2:0.120870 3:-0.970328 4:0.127541 5:0.267266 6:-0.747015 7:-2.063185 8:-0.290623 9:-1.023212 10:1.409027 11:0.366222 12:1.815189 13:-0.353076 14:-1.170900 15:-0.259844 16:0.263896 17:0.026617 18:0.336860 19:1.261979 20:-1.409552 21:0.845622 22:-0.318663 23:-1.442183 24:0.628099 25:1.060247 26:0.990585 27:-0.357280 28:-2.141735 29:1.359939 30:0.959344 31:0.133169 32:0.190611 33:-1.101573 34:-1.137229 35:1.448823 36:0.429792 37:-0.638001 38:0.005184 39:1.426968 40:0.077155 41:-0.679477 42:0.773912 43:0.499275 44:-0.061497 45:-0.475061 46:-0.545032 47:1.456193 48:-0.849900 49:-1.412339 50:0.874401 51:-0.544225 52:-0.079594 53:1.240769 54:-0.042288 55:0.693182 56:0.040922 57:0.335434 58:0.741435 59:1.383151 60:0.430476 61:-0.059615 62:-0.448951 63:0.181241 64:1.016617 65:-1.057632
-1 1:0.970876 2:-1.529198 3:0.446298 4:-0.107869 5:-1.628690 6:-2.347293 7:-1.174054 8:-0.466660 9:0.182643 10:0.186586 11:-1.228284 12:0.310096 13:-1.319824 14:-1.550494 15:0.262551 16:-0.978027 17:-0.773083 18:-1.731070 19:0.777740 20:0.050006 21:0.476693 22:1.088729 23:-0.673160 24:-0.958920 25:0.814157 26:1.261732 27:-1.268772 28:-2.900157 29:-0.641559 30:-0.557910 31:0.173732 32:0.208468 33:0.718577 34:1.127495 35:-0.250384 36:0.461135 37:-0.116160 38:2.003914 39:0.808322 40:0.930359 41:0.107677 42:1.025933 43:-2.418587 44:0.466294 45:-1.951186 46:-0.661177 47:0.214006 48:-0.552399 49:1.005868 50:1.117243 51:-0.014874 52:0.839812 53:0.214248 54:-0.471030 55:0.005467 56:-0.769412 57:1.907061 58:-0.089036 59:1.888097 60:0.507635 61:0.151348 62:-1.317956 63:-0.963389 64:0.659942 65:0.386943
-1 1:1.029072 2:-0.432814 3:-2.453739 4:0.189447 5:0.606307 6:-1.037785 7:1.056065 8:-0.627934 9:-0.594157 10:-0.424210 11:2.330855 12:0.616616 13:2.599511 14:-0.103073 15:0.160495 16:1.411230 17:-0.886740 18:-0.811482 19:-0.408182 20:-1.105610 21:-1.025551 22:-1.901649 23:0.204761 24:2.800611 25:-1.181943 26:1.087510 27:0.424342 28:-0.241346 29:2.113979 30:-0.262418 31:-0.557691 32:-0.554488 33:1.432414 34:-1.938184 35:-1.150481 36:0.315664 37:-1.352956 38:0.226918 39:-1.395663 40:1.840683 41:1.138190 42:-0.388348 43:0.285990 44:1.607354 45:1.120962 46:0.118942 47:-0.691612 48:-1.179320 49:-1.831701 50:-0.364225 51:0.460576 52:-0.284869 53:-0.321996 54:-0.687578 55:0.173558 56:-0.000769 57:1.528354 58:0.245050 59:0.348236 60:0.274486 61:1.437739 62:-0.992832 63:-0.016081 64:-0.301656 65:0.229364
-1 1:0.376885 2:0.727244 3:0.069641 4:-1.358173 5:-0.582402 6:-1.511625 7:0.694809 8:0.691851 9:-0.303818 10:-0.085502 11:-1.038998 12:-1.870691 13:-1.190454 14:1.129078 15:0.400924 16:-0.618086 17:0.160801 18:0.740208 19:0.020058 20:0.692483 21:0.087731 22:0.622005 23:-0.211115 24:-0.015985 25:0.762439 26:0.487913 27:-0.321575 28:0.896898 29:-0.065963 30:-0.722666 31:0.016664 32:-0.604777 33:-0.144988 34:0.697555 35:0.596817 36:-0.814646 37:1.217184 38:-1.037858 39:0.708346 40:-0.402416 41:-1.122850 42:0.321899 43:-0.314040 44:-0.597008 45:-0.816046 46:0.053348 47:-0.604233 48:-0.183564 49:0.673549 50:1.301943 51:-0.001618 52:-0.320365 53:0.783939 54:0.307525 55:-0.645706 56:-0.117185 57:1.089265 58:1.506841 59:-0.388672 60:0.361760 61:-2.079780 62:-0.343906 63:-0.376161 64:0.005099 65:0.919080
-1 1:0.248231 2:-0.228156 3:0.053094 4:-0.564355 5:0.263072 6:-1.339142 7:1.135882 8:1.318576 9:0.663302 10:0.112061 11:-0.648353 12:1.602098 13:0.445314 14:0.186027 15:0.115576 16:1.105989 17:-0.806881 18:0.647328 19:-1.434634 20:-0.013504 21:-1.816970 22:0.800460 23:-0.414103 24:0.531940 25:-0.141787 26:0.270926 27:-0.603488 28:-2.095472 29:-0.062427 30:-0.350026 31:-0.235256 32:0.376412 33:-0.323431 34:0.004041 35:0.589778 36:-1.680468 37:-1.096800 38:0.154354 39:0.255524 40:1.230997 41:-2.662804 42:0.981354 43:-0.818000 44:-0.142804 45:0.713100 46:-0.425873 47:2.396586 48:1.863095 49:-0.773593 50:1.634300 51:-0.161057 52:-1.373114 53:1.165727 54:-0.615334 55:-2.344476 56:0.796465 57:0.848629 58:1.600771 59:1.170051 60:-0.568335 61:1.004208 62:0.294615 63:-0.454748 64:0.425659 65:0.887606
-1 1:-0.542081 2:1.287920 3:-0.753395 4:0.924021 5:0.432310 6:-1.538356 7:-0.196319 8:0.776194 9:0.896991 10:-0.060113 11:1.060535 12:0.610788 13:0.179184 14:-1.918046 15:-0.715343 16:-0.039827 17:0.745105 18:1.711580 19:-0.008045 20:-0.923291 21:1.033715 22:0.704297 23:1.861255 24:-0.075007 25:0.470102 26:-1.070692 27:1.387070 28:1.170549 29:0.504319 30:1.260855 31:-1.626162 32:-2.580891 33:-0.303011 34:0.404547 35:-1.695364 36:1.043476 37:-0.623125 38:0.579749 39:-0.502953 40:-0.023142 41:0.657758 42:-1.121706 43:-0.483888 44:0.733968 45:-1.529409 46:-2.923813 47:-0.104602 48:0.068608 49:-0.484381 50:-0.581097 51:0.327840 52:-0.419383 53:-0.110343 54:0.104788 55:-0.863601 56:-0.565668 57:0.964738 58:1.061674 59:1.115239 60:-1.446443 61:-1.987266 62:-0.988877 63:1.046263 64:-1.462263 65:-0.636690
-1 1:-0.154130 2:-1.244314 3:0.370698 4:-2.163016 5:-0.738323 6:-1.215505 7:-0.508937 8:-0.733301 9:-1.198318 10:-0.049820 11:-0.650992 12:1.139275 13:0.547864 14:0.698364 15:0.883112 16:1.111967 17:0.349069 18:-0.986508 19:0.837220 20:0.762985 21:-0.251596 22:0.414577 23:1.168183 24:-0.939045 25:0.358995 26:0.201195 27:0.028881 28:1.538963 29:-0.901029 30:0.122883 31:-0.402482 32:-1.160112 33:-0.758353 34:0.558101 35:-0.327153 36:0.578488 37:-0.523346 38:-0.810515 39:-0.653889 40:0.437757 41:-0.203342 42:0.242737 43:0.098664 44:0.375156 45:0.748189 46:1.175144 47:-1.118825 48:-1.141613 49:0.049913 50:1.174328 51:-1.157732 52:-1.769669 53:-0.446228 54:1.679699 55:-1.390683 56:1.033541 57:-1.238312 58:0.583744 59:0.824743 60:-0.841680 61:1.025233 62:-0.167658 63:-0.509815 64:-0.254533 65:0.849983
-1 1:-0.884799 2:-1.430520 3:0.184669 4:0.017710 5:1.603681 6:1.885227 7:0.511736 8:-0.942352 9:0.589174 10:0.383553 11:-1.900238 12:0.084634 13:1.155283 14:-1.195772 15:-0.800037 16:0.274051 17:1.611494 18:-0.200496 19:-0.083736 20:0.246185 21:2.145624 22:-0.070643 23:-0.251110 24:-0.756755 25:-0.975807 26:-0.620416 27:-0.413223 28:1.016123 29:1.181771 30:-0.129628 31:-1.241054 32:0.441258 33:-0.053111 34:-0.943734 35:-0.216827 36:0.758899 37:0.608847 38:-0.840329 39:0.180176 40:2.183982 41:-0.251317 42:-0.938165 43:-0.408522 44:0.700798 45:-0.269154 46:0.620052 47:-0.180905 48:0.024226 49:0.393136 50:0.732881 51:0.210981 52:-0.955909 53:-0.008309 54:0.220541 55:-0.001581 56:-0.828102 57:0.037434 58:0.000661 59:0.174780 60:-0.382993 61:-0.247054 62:1.622966 63:-0.199548 64:-0.032239 65:0.546145
-1 1:0.511378 2:-0.538612 3:1.276447 4:-1.341189 5:-0.688763 6:0.284810 7:1.342051 8:-0.343300 9:-0.481907 10:-0.305682 11:0.980086 12:0.372912 13:-0.980662 14:0.431430 15:-0.502233 16:0.229628 17:-0.905934 18:0.174415 19:1.012304 20:-0.308278 21:0.131286 22:1.688738 23:-0.081554 24:0.168690 25:1.601233 26:0.403726 27:1.513062 28:1.125249 29:-0.808028 30:-1.195678 31:0.097139 32:0.202853 33:-0.878281 34:-0.430595 35:-0.892218 36:-1.015851 37:0.629193 38:-0.458037 39:-1.116020 40:0.344324 41:-0.134400 42:0.552112 43:-0.550073 44:0.649992 45:-0.264174 46:0.267153 47:-0.595140 48:0.333021 49:-0.499403 50:-0.845375 51:1.116264 52:2.228724 53:-1.236143 54:0.344456 55:1.495837 56:-0.799344 57:-0.590419 58:0.684364 59:-0.638089 60:-0.245693 61:-0.268606 62:-0.211080 63:2.478983 64:-0.652769 65:0.112138
-1 1:-1.080715 2:0.766026 3:-0.197507 4:0.214778 5:1.013692 6:-0.594675 7:0.669643 8:-1.304992 9:0.772624 10:-0.839015 11:-0.603133 12:-0.712714 13:1.440445 14:-0.080618 15:-0.201703 16:-0.621712 17:-0.077681 18:-1.565684 19:0.425122 20:-0.888048 21:-0.857795 22:-0.521353 23:-0.261712 24:0.686781 25:-0.484450 26:0.077897 27:-0.370356 28:-0.041921 29:-2.461807 30:-1.273291 31:-0.477652 32:-0.729681 33:-1.264032 34:-0.791272 35:-0.417738 36:-0.516444 37:0.259844 38:2.142946 39:2.369358 40:0.246738 41:0.445951 42:-0.138238 43:0.159443 44:0.822777 45:-0.383620 46:0.020558 47:0.435291 48:0.946031 49:-1.632407 50:0.098100 51:0.785703 52:-0.252556 53:0.389405 54:0.916370 55:0.037404 56:0.703426 57:0.902884 58:1.283545 59:0.713120 60:-0.113215 61:0.622906 62:-1.052201 63:0.215056 64:-1.061132 65:-1.318270
-1 1:1.682524 2:0.143683 3:1.055165 4:-0.500190 5:-1.109844 6:-0.564288 7:-1.491240 8:0.546086 9:0.662209 10:0.487300 11:-0.864305 12:-2.390422 13:-0.900135 14:1.788200 15:-1.380287 16:1.288350 17:-1.661518 18:-2.648862 19:-0.307079 20:-0.691816 21:-0.962261 22:1.125967 23:0.468031 24:0.125201 25:1.303934 26:1.293348 27:-1.140378 28:-0.316528 29:0.092333 30:-1.007534 31:0.104443 32:0.281988 33:-0.767335 34:0.258297 35:0.049469 36:-1.212793 37:0.857129 38:0.307551 39:-0.027688 40:1.131041 41:-0.318603 42:1.229126 43:-0.130072 44:0.470638 45:-0.442342 46:1.210644 47:-0.728903 48:0.589896 49:-0.325903 50:0.566122 51:-0.278334 52:-0.477317 53:0.314949 54:-1.154964 55:-2.816186 56:-0.313805 57:0.493625 58:0.652475 59:-0.416473 60:-0.184954 61:-0.438258 62:1.787220 63:1.177945 64:-1.602102 65:1.606853
-1 1:-1.722335 2:1.421271 3:-0.393034 4:0.907241 5:-1.575950 6:-1.004251 7:1.364095 8:2.063887 9:1.329445 10:-0.139533 11:-0.861752 12:-0.243671 13:1.489613 14:-0.285481 15:0.568892 16:0.718276 17:1.379703 18:0.195770 19:0.579571 20:-0.304833 21:-0.978902 22:-0.193980 23:-1.298599 24:0.898022 25:-0.024491 26:1.284001 27:0.875096 28:1.662263 29:0.202187 30:0.178059 31:-1.372429 32:-0.249742 33:-0.402825 34:-0.549717 35:-0.164951 36:0.084139 37:-1.636123 38:-0.244883 39:-0.073374 40:3.238667 41:-1.138313 42:0.343467 43:0.513052 44:0.968577 45:-0.402216 46:-0.307294 47:0.608047 48:0.423704 49:-0.182001 50:0.725922 51:-0.347742 52:-0.669260 53:0.214553 54:1.441819 55:-0.111519 56:-0.874729 57:-0.817480 58:1.251095 59:-0.956331 60:-1.525360 61:1.907685 62:-0.713172 63:1.913477 64:0.426866 65:0.961331
-1 1:0.847865 2:-0.947253 3:-0.460402 4:1.403888 5:0.315060 6:0.082982 7:-0.397592 8:-0.162419 9:-0.383635 10:-1.072828 11:0.478675 12:-0.200075 13:0.899683 14:0.069987 15:-1.272609 16:1.299807 17:0.081705 18:-0.968875 19:-0.624043 20:-1.189835 21:-0.703806 22:-2.228152 23:-1.308038 24:1.000108 25:-1.261449 26:-0.633716 27:1.428724 28:0.249549 29:-0.621523 30:-1.442303 31:1.020420 32:0.630372 33:1.221123 34:0.332132 35:-0.258203 36:0.293797 37:0.389957 38:0.223011 39:-0.667095 40:1.351024 41:-1.112793 42:-1.064860 43:0.291271 44:-1.884631 45:-0.479928 46:-0.384723 47:1.541171 48:0.797221 49:0.037745 50:1.139577 51:-0.612208 52:0.777287 53:-0.345898 54:0.734584 55:-0.522514 56:0.175600 57:-0.860493 58:0.426739 59:-0.595289 60:0.284495 61:-0.266486 62:0.674466 63:0.333734 64:1.132556 65:-0.867881
-1 1:0.956332 2:1.169906 3:0.869911 4:-0.707769 5:-0.640109 6:0.872886 7:0.677560 8:1.128039 9:1.503666 10:0.138145 11:0.866237 12:1.685681 13:-0.886939 14:-0.946296 15:-0.238940 16:-1.141704 17:0.199311 18:0.703012 19:-0.278385 20:-0.002877 21:-1.161903 22:-0.954087 23:-1.131741 24:-0.829508 25:-1.135529 26:-1.720474 27:1.039366 28:0.658542 29:0.880362 30:0.063820 31:-1.316346 32:-1.826413 33:-0.996641 34:-1.683685 35:-1.668697 36:1.031776 37:0.200736 38:-0.064503 39:-1.525697 40:-0.089621 41:-0.478566 42:0.995323 43:-0.176029 44:0.981776 45:-0.028822 46:0.241636 47:-2.490705 48:-0.646896 49:-1.787102 50:0.086970 51:1.301105 52:1.149068 53:-1.451249 54:0.498121 55:-1.346585 56:-1.819429 57:-0.007507 58:0.512267 59:-1.667410 60:-0.923263 61:-1.037793 62:0.198634 63:1.845580 64:-1.430203 65:-0.177684
-1 1:-0.136823 2:1.303727 3:0.400364 4:1.009116 5:0.939075 6:0.511662 7:1.507275 8:-0.486235 9:0.021381 10:1.639803 11:0.974458 12:-1.183738 13:-0.314760 14:-1.283010 15:0.714513 16:0.227306 17:0.617456 18:-1.683178 19:0.650034 20:-2.812995 21:1.260496 22:-0.728809 23:-0.434703 24:-0.076887 25:1.419426 26:1.339130 27:-0.345880 28:0.580366 29:-0.083891 30:2.144633 31:0.044665 32:-1.142659 33:0.405932 34:-0.271771 35:-0.033217 36:-0.098686 37:0.090497 38:0.661107 39:0.476953 40:-1.289151 41:-0.693721 42:-0.905598 43:1.115616 44:0.715847 45:-1.500827 46:-1.427239 47:1.096188 48:0.482108 49:-0.643308 50:-0.235626 51:-0.464057 52:0.792330 53:-0.509613 54:0.393078 55:2.202101 56:-0.504280 57:0.004411 58:-0.342726 59:-0.275479 60:-0.070079 61:-0.519888 62:1.350977 63:-0.156188 64:1.222105 65:0.560706
-1 1:-1.652599 2:1.461630 3:0.679507 4:-0.568760 5:0.008276 6:0.289712 7:1.333652 8:-0.504742 9:0.431681 10:-1.222948 11:0.012752 12:0.235385 13:-0.260910 14:-0.467210 15:1.056352 16:-1.567032 17:-0.435646 18:-0.600971 19:-0.331641 20:1.318362 21:-0.951991 22:1.141269 23:-0.548744 24:-0.208787 25:1.766670 26:-0.325412 27:-0.103081 28:-1.425923 29:0.671169 30:0.122192 31:-0.269816 32:-0.624386 33:1.026727 34:0.828742 35:-0.584787 36:-0.548183 37:-0.070709 38:0.303926 39:-0.632615 40:-0.596869 41:-0.073556 42:-0.417110 43:-1.134447 44:0.712954 45:-0.499475 46:1.265052 47:0.325345 48:-1.295231 49:0.146331 50:-0.651645 51:0.538844 52:-0.667376 53:-0.002399 54:0.393923 55:-0.521484 56:2.450355 57:0.688013 58:-1.123490 59:0.125750 60:-0.391950 61:0.807288 62:-0.163867 63:-1.273893 64:-0.773520 65:-1.258611
-1 1:1.642084 2:0.668871 3:-1.451793 4:-1.902187 5:-1.271069 6:0.031352 7:-1.165703 8:0.852019 9:-0.259147 10:-1.152969 11:0.215207 12:-0.638119 13:0.446999 14:1.571480 15:-1.553174 16:0.744265 17:0.415935 18:-0.154810 19:0.859099 20:1.433474 21:-0.007908 22:-0.116786 23:0.125073 24:-0.702990 25:0.395727 26:0.880373 27:-1.262164 28:-0.830564 29:0.194858 30:0.796301 31:-0.452529 32:-0.104332 33:-0.436457 34:0.010580 35:0.391167 36:1.314667 37:1.636306 38:1.776403 39:-1.205021 40:0.844380 41:-0.422992 42:0.974435 43:-0.005134 44:-0.832144 45:0.079212 46:-0.439936 47:-0.222981 48:-0.135633 49:1.213667 50:0.284809 51:0.969614 52:0.288378 53:-0.025826 54:1.353584 55:0.876581 56:-0.177006 57:-1.124703 58:-0.175953 59:-1.876390 60:-0.342673 61:0.608868 62:-0.498426 63:-0.517204 64:-0.224813 65:-0.310440
-1 1:0.186807 2:-0.046092 3:-0.085307 4:-2.093337 5:-0.861639 6:-0.421335 7:-0.822661 8:-0.089189 9:0.924422 10:0.086830 11:1.032915 12:2.004622 13:0.296401 14:0.938619 15:-0.671202 16:0.008320 17:-0.820879 18:-2.598473 19:0.616513 20:-1.520149 21:2.265588 22:1.060169 23:-1.828139 24:-1.589124 25:-0.823634 26:0.435626 27:-0.254959 28:0.386803 29:-1.908716 30:-0.284968 31:0.564027 32:-1.738596 33:0.252549 34:0.768573 35:1.780562 36:-1.209191 37:0.545313 38:-1.027798 39:-1.203127 40:0.908747 41:0.402877 42:-1.171384 43:0.532703 44:-0.172214 45:0.597410 46:-1.367955 47:-0.440727 48:0.709391 49:0.284198 50:0.029095 51:0.255570 52:-0.305557 53:0.679414 54:0.251451 55:-1.238484 56:1.468380 57:0.194083 58:-0.114040 59:1.004001 60:-0.050590 61:-2.495656 62:0.908648 63:0.080427 64:2.185706 65:-0.279158
-1 1:-2.720519 2:-2.151418 3:-1.486151 4:1.654104 5:1.062373 6:-1.279365 7:0.308527 8:-1.341226 9:-0.394395 10:0.023299 11:0.843329 12:0.834520 13:-0.756159 14:-0.281483 15:1.253154 16:0.497620 17:-1.394802 18:-1.130074 19:0.139084 20:1.262383 21:0.655714 22:-0.397913 23:0.097025 24:-1.201328 25:1.270461 26:0.130269 27:0.821180 28:0.323330 29:2.175979 30:-0.050852 31:0.120024 32:-1.118135 33:0.756153 34:-0.909474 35:-0.024902 36:-0.272980 37:0.651250 38:1.040677 39:2.365067 40:-2.076836 41:-0.386422 42:0.699505 43:0.232075 44:1.002082 45:1.598790 46:-0.879908 47:0.561493 48:1.271053 49:0.907156 50:-0.528831 51:-0.611563 52:-1.215507 53:0.415500 54:-0.248967 55:0.165398 56:-1.193533 57:-2.213303 58:0.552591 59:-1.320152 60:-1.918321 61:1.531707 62:-0.062404 63:0.612453 64:0.309731 65:0.954872
-1 1:-0.251465 2:1.329817 3:-0.078123 4:2.522280 5:-0.787082 6:0.479255 7:-0.183471 8:0.459677 9:1.556890 10:-0.430936 11:0.429013 12:-0.101360 13:-2.643992 14:-1.756315 15:0.367011 16:0.742640 17:0.527654 18:0.002708 19:-0.286073 20:0.911459 21:-1.446743 22:-0.096890 23:0.784103 24:0.834954 25:-0.224904 26:-1.202991 27:-0.125769 28:0.317426 29:-0.161194 30:-1.151945 31:-1.556690 32:-0.201731 33:1.319450 34:1.145210 35:-0.155132 36:-1.257397 37:-1.335715 38:0.890632 39:-1.476147 40:1.179435 41:0.333585 42:0.981994 43:-0.335574 44:-0.802030 45:-1.987776 46:0.303743 47:-0.800617 48:-0.496466 49:0.697361 50:-0.837626 51:0.832950 52:1.786208 53:0.699865 54:0.076176 55:0.590313 56:0.417658 57:-0.895886 58:-0.752716 59:-0.154116 60:-1.073557 61:1.330345 62:-1.491048 63:1.410672 64:0.276301 65:-0.789847
-1 1:0.025969 2:-0.527412 3:-0.525672 4:-0.256787 5:0.641268 6:0.053223 7:1.171425 8:-1.965994 9:-1.982532 10:0.146483 11:0.511339 12:-0.800187 13:-2.096547 14:0.695303 15:0.002301 16:0.842548 17:-0.953356 18:-1.274583 19:1.799339 20:0.282749 21:-0.440225 22:-0.264141 23:0.294436 24:-0.648823 25:-0.410885 26:1.222989 27:0.053064 28:-0.473783 29:-1.106413 30:0.623007 31:2.060171 32:-0.802764 33:1.281331 34:0.268857 35:-0.790472 36:0.583824 37:-0.433026 38:0.301580 39:0.351552 40:2.185929 41:-0.571401 42:-0.861296 43:-0.286332 44:-1.361257 45:0.589210 46:0.625229 47:-3.616021 48:0.114522 49:2.178823 50:0.007207 51:2.163791 52:-0.627647 53:0.085711 54:0.071423 55:2.125148 56:-0.558558 57:0.397293 58:-0.252648 59:-0.502066 60:0.664397 61:0.691670 62:1.799952 63:-0.340316 64:1.316224 65:-0.943843
-1 1:-0.896556 2:1.076828 3:1.333684 4:0.857107 5:-0.583376 6:1.116656 7:0.591577 8:-0.271439 9:0.278289 10:-0.209408 11:0.230666 12:0.154737 13:-1.816578 14:-0.944060 15:-0.391056 16:0.273443 17:-0.784908 18:0.720055 19:0.039176 20:-0.133753 21:1.361259 22:-0.303756 23:0.564873 24:-0.510814 25:-0.640140 26:0.169710 27:0.400589 28:-1.109845 29:1.438433 30:0.058860 31:-0.439628 32:-0.673867 33:1.265589 34:-1.059298 35:-0.184199 36:0.481296 37:0.219601 38:-0.444066 39:-1.090234 40:1.109202 41:0.115748 42:-1.826520 43:0.185862 44:-0.570772 45:0.691868 46:-0.065880 47:-1.688050 48:-1.146144 49:0.650821 50:-0.436995 51:0.457782 52:-0.624881 53:-0.534896 54:0.741229 55:-0.425507 56:0.089983 57:0.061006 58:0.100285 59:0.472253 60:-0.382787 61:1.202873 62:-0.383368 63:0.490404 64:0.978714 65:1.107310
-1 1:0.937793 2:2.355404 3:1.226875 4:-0.538814 5:-0.872951 6:-0.059458 7:-0.630545 8:0.039867 9:-0.200447 10:0.361736 11:-0.426607 12:0.943098 13:-0.227822 14:-0.330830 15:1.359140 16:1.637621 17:1.000317 18:1.116572 19:0.658762 20:0.914494 21:-1.407916 22:-0.164970 23:-1.271516 24:-0.243546 25:0.389337 26:-0.710227 27:-0.010066 28:-0.257384 29:-0.404570 30:0.416517 31:0.517621 32:0.856635 33:1.482672 34:-0.512090 35:-1.036622 36:-1.491131 37:-0.693006 38:1.193547 39:-0.111402 40:-1.182793 41:-0.169144 42:1.337908 43:0.334353 44:-0.692401 45:1.166783 46:0.363441 47:0.558803 48:0.315442 49:0.523903 50:0.322560 51:0.423138 52:1.089460 53:-1.846466 54:1.805127 55:-0.292446 56:0.759585 57:1.194127 58:-0.027350 59:0.896409 60:1.240789 61:-0.133171 62:-0.751892 63:1.445102 64:0.067126 65:-2.808087
-1 1:0.756784 2:-0.228221 3:1.840583 4:-0.214229 5:-0.161389 6:-1.079008 7:1.244049 8:0.491376 9:0.205118 10:-0.770480 11:-0.301826 12:-1.002820 13:-0.087629 14:0.912889 15:1.014754 16:-1.046036 17:0.383462 18:0.634164 19:0.832228 20:0.918115 21:0.872503 22:-0.637098 23:-0.207036 24:-0.752739 25:-0.566288 26:0.657055 27:-0.063290 28:-1.911696 29:-1.717683 30:2.474297 31:1.258088 32:-1.803163 33:0.005460 34:0.271894 35:-0.444498 36:1.587302 37:1.843808 38:-1.225769 39:-1.443654 40:0.973681 41:1.114744 42:0.787248 43:0.789575 44:1.801003 45:1.190713 46:1.940508 47:0.192059 48:0.788906 49:1.852213 50:0.951141 51:-0.223805 52:-0.255083 53:1.422135 54:-0.657793 55:-1.619856 56:-1.359072 57:0.684643 58:-0.808513 59:0.480306 60:-0.163613 61:-1.260564 62:0.232922 63:1.080539 64:-1.022153 65:0.105946
-1 1:0.719749 2:0.131922 3:1.066312 4:0.335804 5:0.313340 6:-0.233117 7:-1.314671 8:-1.376128 9:0.101795 10:-0.005040 11:-0.314374 12:1.297570 13:1.251028 14:-0.979617 15:2.394585 16:2.665831 17:-1.166262 18:-0.451444 19:0.895755 20:-0.916931 21:-2.068281 22:-1.177045 23:0.522647 24:-1.193052 25:1.077088 26:-1.218625 27:1.595528 28:0.451348 29:-1.014200 30:-0.656222 31:-0.372800 32:-0.709077 33:0.087483 34:0.358065 35:-1.051909 36:0.650295 37:0.928347 38:1.077513 39:-2.112514 40:0.246372 41:0.753197 42:-1.510270 43:-0.363752 44:-0.900873 45:0.230926 46:0.382001 47:-0.454238 48:1.506830 49:1.623595 50:0.554773 51:1.920377 52:-2.003579 53:1.260191 54:0.151556 55:-1.449446 56:0.428690 57:0.089674 58:-0.298833 59:0.619873 60:-1.768237 61:-2.823037 62:-0.423303 63:1.455666 64:0.338797 65:1.998640
-1 1:0.260392 2:-0.331874 3:0.181013 4:-0.463566 5:-1.510567 6:-0.206896 7:-0.180295 8:0.320317 9:-0.298021 10:0.832306 11:-1.094917 12:-0.221316 13:1.324290 14:0.462403 15:1.027211 16:-0.735109 17:-1.206684 18:1.280763 19:-1.353423 20:1.245752 21:-0.049744 22:-0.871663 23:-0.105630 24:-1.531940 25:0.406864 26:0.452965 27:-0.265695 28:1.865128 29:-2.779633 30:-0.146250 31:-0.781089 32:-0.879506 33:-1.489377 34:0.174602 35:-0.819797 36:-1.065719 37:-0.400308 38:-0.751580 39:-0.589259 40:-2.061677 41:0.765669 42:-1.336492 43:-3.524474 44:-1.030507 45:1.304451 46:-1.562161 47:0.628966 48:0.086132 49:1.531378 50:-1.444254 51:-0.629200 52:0.239064 53:-1.650242 54:-0.181935 55:-0.601280 56:0.663407 57:-1.872740 58:-1.061088 59:1.298382 60:2.976479 61:-1.667689 62:0.044342 63:-0.426260 64:0.467964 65:1.137220
-1 1:-0.579477 2:0.439957 3:-0.676772 4:-0.257675 5:-0.880864 6:1.126254 7:-0.090327 8:1.024487 9:-0.629696 10:-0.782868 11:-1.131071 12:0.259254 13:-0.510028 14:-0.295397 15:-0.580845 16:-0.768122 17:0.633504 18:3.469555 19:2.192466 20:-0.786057 21:0.433798 22:1.034208 23:-0.389656 24:0.118746 25:1.621446 26:-0.657017 27:1.010945 28:0.585554 29:-0.647526 30:0.178146 31:-1.445743 32:-0.382626 33:0.818408 34:1.099326 35:0.634516 36:0.215410 37:1.280035 38:1.142668 39:0.159696 40:0.550361 41:-0.220997 42:-0.058753 43:0.931459 44:0.695311 45:-0.242716 46:1.501080 47:-0.145899 48:0.810055 49:-0.619170 50:-0.978065 51:1.315169 52:1.072002 53:0.489104 54:1.302990 55:-0.219527 56:0.925599 57:0.733374 58:-0.298419 59:0.565704 60:-3.123931 61:-0.767597 62:-1.147579 63:-1.896681 64:0.320103 65:0.470552
-1 1:3.272982 2:-0.939946 3:0.154093 4:1.135341 5:0.472371 6:-0.066976 7:1.344454 8:-0.842374 9:-0.460406 10:0.016395 11:-0.520394 12:-1.046138 13:1.138363 14:0.689405 15:-0.813710 16:1.102487 17:-1.101358 18:0.050938 19:0.365405 20:-0.701630 21:-1.382894 22:0.527139 23:-0.258687 24:-0.507748 25:-0.010799 26:1.430756 27:-0.536042 28:-0.386113 29:1.094732 30:-1.271747 31:-0.113183 32:0.458344 33:-0.288042 34:-0.826811 35:0.329323 36:0.635551 37:0.415869 38:-1.426856 39:-1.344017 40:0.508621 41:0.973631 42:-0.636666 43:0.713095 44:-0.466404 45:0.325140 46:2.196108 47:0.304055 48:0.021789 49:1.152331 50:-0.579138 51:-1.084449 52:0.595343 53:0.928494 54:-1.066066 55:0.969908 56:-0.424206 57:-0.448491 58:-0.265648 59:-1.063663 60:-1.102088 61:-1.744278 62:-0.322289 63:-0.919619 64:0.159124 65:-0.024826
-1 1:-0.263121 2:-0.710212 3:-1.264841 4:0.785181 5:0.171326 6:-0.343935 7:-0.685804 8:-1.064328 9:0.223433 10:1.255562 11:1.338057 12:-0.979331 13:-1.698561 14:-1.500661 15:-1.384445 16:-2.316685 17:-1.029977 18:-0.976049 19:1.527968 20:0.472155 21:2.140650 22:-0.819563 23:1.683844 24:0.498289 25:0.490496 26:0.314851 27:1.599825 28:-0.478110 29:0.238644 30:-0.451726 31:-0.494325 32:0.587496 33:-1.145390 34:1.371620 35:0.598940 36:-0.753384 37:-0.270689 38:0.441630 39:-0.814002 40:0.154603 41:-0.998967 42:0.203832 43:-1.469677 44:1.077447 45:1.127369 46:-0.686139 47:1.022531 48:1.774675 49:1.331158 50:0.113657 51:1.144339 52:0.360453 53:-1.512100 54:-2.262398 55:1.027118 56:0.518627 57:1.501348 58:-1.342766 59:0.150168 60:0.400604 61:-0.489127 62:-1.801528 63:-1.490479 64:0.379599 65:1.556704
-1 1:0.739355 2:-0.120581 3:1.197860 4:-0.555598 5:0.061866 6:0.195408 7:-1.513920 8:0.110996 9:0.198681 10:0.527657 11:-1.634920 12:-0.668231 13:0.003701 14:0.042120 15:-0.333538 16:1.373295 17:-1.452194 18:0.008797 19:0.357058 20:1.082209 21:1.262144 22:0.648901 23:0.729280 24:-0.868998 25:-0.797486 26:1.281030 27:-1.529944 28:0.576525 29:-1.122594 30:-0.090414 31:1.842892 32:0.584770 33:1.416870 34:0.425576 35:-0.547079 36:1.914708 37:-1.675092 38:0.066220 39:0.330309 40:-0.993127 41:1.146578 42:-0.432802 43:0.779144 44:-1.124926 45:0.613631 46:1.526671 47:0.876358 48:0.354802 49:-0.636257 50:0.488166 51:1.021873 52:1.412942 53:0.159630 54:-1.048331 55:-1.408251 56:-0.423941 57:-0.538652 58:-0.266083 59:0.593964 60:-0.026443 61:-2.305027 62:0.214574 63:0.613644 64:-1.200570 65:0.545416
-1 1:-1.364150 2:-1.887288 3:-0.977227 4:2.145116 5:0.155507 6:-0.557777 7:0.761193 8:-0.767670 9:-0.945914 10:-0.755523 11:-0.243421 12:-0.607052 13:-1.864731 14:0.590550 15:-1.954747 16:0.624165 17:-0.780138 18:0.075729 19:0.222939 20:-0.827022 21:-0.601838 22:1.286884 23:2.037517 24:0.393316 25:0.740174 26:-0.985385 27:0.907925 28:0.509430 29:-0.241391 30:1.901569 31:-0.275916 32:-0.082651 33:-0.528118 34:-0.657911 35:-1.811385 36:1.478734 37:-0.818357 38:-1.440579 39:0.843470 40:-0.166949 41:-0.784035 42:1.185170 43:-1.254520 44:0.081270 45:1.010139 46:0.378387 47:1.432598 48:-1.052871 49:-0.650007 50:-0.370509 51:1.367776 52:-0.055719 53:-1.699782 54:1.077671 55:0.688993 56:0.324226 57:1.125178 58:1.710168 59:0.633256 60:0.427047 61:-1.504581 62:0.686732 63:1.266840 64:0.166437 65:-0.485249
-1 1:0.996966 2:0.719114 3:0.604851 4:0.249124 5:1.233951 6:0.990811 7:0.079046 8:-0.466644 9:-0.549525 10:0.739154 11:0.271905 12:0.514892 13:0.056386 14:1.548606 15:0.773577 16:-0.831874 17:-0.080383 18:-0.226216 19:-0.169194 20:0.546446 21:-0.861921 22:1.606637 23:0.079997 24:0.203506 25:0.621901 26:-1.323889 27:1.035059 28:-0.341715 29:-1.896137 30:-0.137240 31:0.120740 32:2.081200 33:0.041893 34:1.068522 35:-1.570747 36:0.244113 37:0.959977 38:-0.316873 39:-1.466765 40:1.720399 41:1.263357 42:-1.046659 43:0.369843 44:-0.237577 45:-2.730331 46:-0.259516 47:-0.529082 48:-0.757836 49:0.879681 50:0.696697 51:-1.163246 52:1.734342 53:-0.139864 54:1.140851 55:-0.113732 56:0.262876 57:0.628807 58:-0.107043 59:-0.523912 60:0.914249 61:-0.190034 62:-1.030596 63:-0.045674 64:1.044335 65:-0.045034
-1 1:-0.503836 2:-0.747272 3:1.784486 4:-0.050478 5:0.591883 6:-0.188590 7:-1.715733 8:-0.310601 9:-0.025217 10:-0.183019 11:1.531510 12:0.478674 13:0.769556 14:-0.966955 15:-1.907368 16:-1.310893 17:0.168508 18:1.239046 19:-0.603094 20:-1.603153 21:1.754894 22:-0.284986 23:-0.163032 24:-0.043095 25:-0.839800 26:-0.766715 27:0.138168 28:1.132594 29:-1.095052 30:0.374598 31:-1.311722 32:0.727964 33:0.298255 34:0.506444 35:-0.290030 36:1.657101 37:1.115769 38:-0.207834 39:0.455625 40:0.851978 41:0.069611 42:0.211175 43:-0.360582 44:0.210362 45:-0.123473 46:-0.139072 47:-0.984142 48:0.782611 49:1.135358 50:-0.701749 51:1.906942 52:1.242853 53:0.183908 54:0.283213 55:0.519000 56:0.722373 57:-0.429519 58:-0.165328 59:0.318003 60:-0.306713 61:-0.431100 62:-0.788185 63:0.361300 64:-0.387251 65:0.926486
-1 1:-0.790964 2:-1.081821 3:-0.641904 4:1.245253 5:-0.320689 6:-0.301346 7:2.039575 8:0.093928 9:0.442893 10:0.574551 11:0.781681 12:0.703572 13:0.137358 14:-1.663261 15:1.171750 16:-1.207229 17:0.778267 18:-0.365079 19:0.968732 20:0.598722 21:-0.470584 22:-0.707100 23:0.490805 24:-0.480806 25:1.989035 26:0.733384 27:0.723935 28:-0.551095 29:-1.715133 30:0.745319 31:-0.160474 32:-0.708252 33:-0.550076 34:-0.399045 35:-0.439726 36:0.803437 37:0.246081 38:-1.230351 39:-1.112302 40:-0.442507 41:-2.301247 42:1.509851 43:1.881953 44:-1.113679 45:-1.478271 46:0.122483 47:0.388663 48:-0.413739 49:0.297518 50:-0.235963 51:0.730041 52:0.379587 53:0.039447 54:-0.523562 55:0.305887 56:-0.156585 57:-1.333305 58:-1.362564 59:1.346906 60:-1.415297 61:-1.264652 62:-0.818920 63:-0.159313 64:0.483814 65:1.222522
-1 1:-1.101792 2:0.343276 3:0.080489 4:-0.791470 5:-0.067137 6:1.149374 7:1.470271 8:0.587952 9:0.179070 10:1.155360 11:-0.039770 12:-0.399404 13:-0.362179 14:0.162616 15:1.471471 16:0.366550 17:-0.143581 18:0.276993 19:-1.081032 20:-0.762219 21:-0.407480 22:0.308192 23:2.682970 24:0.015066 25:0.753817 26:-0.321354 27:-0.541915 28:0.203719 29:0.151557 30:-1.367081 31:-1.437128 32:1.360160 33:0.715768 34:-0.765597 35:-0.407026 36:-0.734244 37:0.285050 38:0.998652 39:-1.000711 40:0.158621 41:-0.407522 42:1.178539 43:-0.045858 44:0.829412 45:0.936940 46:0.983972 47:2.042083 48:2.048789 49:-0.845455 50:-1.691134 51:-1.830269 52:1.304440 53:-0.652459 54:-1.863039 55:-0.106439 56:0.627161 57:-0.784056 58:-1.234146 59:1.899459 60:1.060878 61:0.131468 62:1.491347 63:0.361616 64:-0.613655 65:0.908626
-1 1:1.096451 2:0.971038 3:0.244950 4:-0.753465 5:0.130487 6:0.019837 7:0.048264 8:0.290360 9:1.153490 10:1.397033 11:-0.018292 12:-0.200699 13:-1.117931 14:-0.551344 15:-0.188817 16:-1.190918 17:1.260653 18:0.484716 19:-1.683481 20:-0.210607 21:0.711445 22:-0.804988 23:1.123751 24:-1.379918 25:-0.166954 26:-0.802060 27:-0.170077 28:0.539702 29:0.055281 30:0.056279 31:0.976580 32:-0.464185 33:1.328016 34:0.026129 35:-0.101683 36:-0.016600 37:1.159762 38:0.364863 39:0.611481 40:0.011798 41:0.020358 42:1.176706 43:-1.225154 44:0.470021 45:-0.646705 46:0.674015 47:0.362066 48:-1.189979 49:-0.304556 50:-0.953525 51:-1.686862 52:-0.123026 53:0.455040 54:0.007942 55:0.066483 56:-0.151375 57:-1.583729 58:-0.763086 59:-0.225478 60:-0.373919 61:-0.968873 62:0.223489 63:0.559190 64:0.484439 65:-0.674713
-1 1:1.045504 2:-0.773353 3:0.133274 4:0.738138 5:-0.925680 6:-1.009526 7:0.473307 8:0.354193 9:-0.701311 10:-0.319728 11:-0.952046 12:1.247803 13:-1.344176 14:-1.639127 15:-0.390275 16:-0.519067 17:-0.207713 18:0.053643 19:0.952939 20:-1.142585 21:0.065567 22:1.460860 23:-2.908214 24:1.170743 25:1.034844 26:0.057159 27:1.829779 28:0.491590 29:-1.688815 30:0.102050 31:1.319576 32:-0.467227 33:0.597478 34:0.709313 35:0.366224 36:-0.005322 37:1.992771 38:-1.924886 39:-0.660134 40:1.558068 41:-0.562833 42:0.291365 43:0.654477 44:-0.721665 45:-2.838096 46:0.209096 47:1.978429 48:-0.841577 49:0.986082 50:-1.196168 51:1.280980 52:-0.288865 53:0.871556 54:-0.711035 55:-0.008372 56:2.545545 57:0.331910 58:0.034693 59:-2.520318 60:-1.595559 61:-1.042618 62:-1.719715 63:1.340348 64:-0.302665 65:-0.476855
-1 1:0.753230 2:-0.034063 3:0.852572 4:-0.516750 5:-0.617830 6:0.718258 7:-0.822917 8:1.050349 9:-0.773196 10:-0.656921 11:0.873740 12:0.778497 13:2.021028 14:-0.558554 15:0.988904 16:0.510590 17:-0.530943 18:-0.018279 19:0.298372 20:1.384166 21:1.148865 22:2.182760 23:0.384706 24:-0.648900 25:0.199868 26:-0.415651 27:-0.308930 28:1.149071 29:-0.228556 30:-0.103064 31:-0.193423 32:0.501655 33:-0.683090 34:0.841728 35:-2.287052 36:-0.600138 37:-0.917290 38:0.373885 39:1.404553 40:-2.224563 41:-0.891015 42:-0.092607 43:-0.253389 44:1.571662 45:0.869830 46:0.823168 47:-0.008412 48:0.606416 49:2.020589 50:-0.556964 51:-1.002087 52:1.116885 53:-0.184084 54:-0.608945 55:0.250788 56:1.752038 57:0.427665 58:-1.657079 59:-0.215843 60:0.744240 61:-0.702809 62:0.142477 63:-0.931778 64:0.538422 65:-0.182794
-1 1:0.137885 2:-0.431230 3:0.966482 4:-0.531321 5:0.991081 6:0.527374 7:2.146814 8:2.316846 9:-1.140584 10:0.416754 11:1.457672 12:0.384008 13:-0.603646 14:0.967893 15:-0.410809 16:0.023050 17:-1.911878 18:-0.699728 19:0.997465 20:1.498668 21:-0.385893 22:0.547865 23:-0.171007 24:-0.173310 25:-0.764766 26:2.078386 27:0.576338 28:2.884370 29:-1.060526 30:-0.460589 31:1.215122 32:-1.714080 33:0.225795 34:0.620412 35:1.252907 36:-0.529618 37:-0.052912 38:-1.740294 39:0.000982 40:-0.758314 41:-0.579026 42:-0.191561 43:-0.447143 44:0.028934 45:-1.265440 46:0.610738 47:-1.576768 48:-0.188818 49:2.285879 50:1.002733 51:-0.743821 52:1.790604 53:-0.382294 54:-0.939875 55:1.226802 56:0.707018 57:-0.212447 58:0.679762 59:0.016411 60:0.693763 61:1.381153 62:-0.797487 63:0.832062 64:0.728459 65:0.675286
-1 1:-0.658904 2:0.741867 3:-0.862541 4:-1.651526 5:1.414463 6:0.308359 7:0.598650 8:1.906624 9:-0.232347 10:-1.218713 11:-0.239547 12:0.157796 13:1.430291 14:-0.876932 15:0.755860 16:-0.046352 17:0.849061 18:2.135422 19:1.533076 20:-1.457892 21:-0.138884 22:0.796329 23:-0.515918 24:0.828695 25:0.567427 26:2.552154 27:-1.568965 28:-1.857373 29:-0.426798 30:0.932531 31:0.631985 32:-0.196423 33:-1.746434 34:-0.619144 35:-1.022364 36:-0.061951 37:1.086883 38:-1.240052 39:0.565829 40:-0.137060 41:3.086081 42:-0.214160 43:0.110817 44:-0.085252 45:-0.568179 46:-0.402372 47:-1.341360 48:0.375316 49:-0.958190 50:0.117413 51:-0.159041 52:-0.484269 53:-1.058270 54:0.092037 55:-0.054531 56:-1.058552 57:1.011482 58:1.675663 59:-0.610351 60:-0.808111 61:0.064470 62:2.339806 63:0.582197 64:-0.271020 65:0.340619
-1 1:-0.878149 2:-0.223280 3:-0.020245 4:2.072589 5:1.514341 6:1.544286 7:2.036066 8:1.100871 9:-1.759659 10:-0.055400 11:1.043992 12:-0.718496 13:-0.553464 14:-0.186089 15:-0.993232 16:1.746889 17:0.284449 18:-1.488579 19:0.622232 20:0.862353 21:-0.199403 22:-1.755314 23:1.410963 24:0.154351 25:-2.236477 26:1.029961 27:2.174679 28:-0.437341 29:-1.375314 30:0.752323 31:1.590447 32:-2.168016 33:1.960860 34:0.101943 35:0.793899 36:-0.579450 37:0.344756 38:1.624217 39:0.245722 40:0.860546 41:0.542155 42:1.139386 43:-0.423370 44:-0.069632 45:0.089742 46:-0.109313 47:0.831344 48:-1.293650 49:0.287700 50:0.275192 51:0.729566 52:0.414102 53:-0.568163 54:0.419521 55:-0.675155 56:-0.053165 57:-0.301541 58:-0.493824 59:0.536842 60:0.369142 61:1.978712 62:0.618199 63:0.182219 64:-0.876742 65:1.657908
-1 1:0.649867 2:-0.363013 3:0.920651 4:-0.340039 5:0.453199 6:0.674856 7:0.314700 8:1.346265 9:-0.190805 10:1.282032 11:0.507600 12:0.076198 13:0.991571 14:-0.627170 15:1.222003 16:-1.405956 17:1.094048 18:2.325919 19:-1.435342 20:-0.213649 21:0.748255 22:-0.000608 23:-0.256846 24:-1.114770 25:0.289535 26:0.438972 27:-1.633574 28:0.023620 29:-1.014788 30:0.317605 31:1.258569 32:-0.232023 33:1.128343 34:-0.001560 35:-1.653603 36:0.257249 37:0.276830 38:-1.812291 39:0.188426 40:-0.544106 41:-1.605804 42:1.406456 43:1.574404 44:-0.967817 45:0.017382 46:-0.871837 47:-0.493282 48:0.354828 49:0.528605 50:-1.392222 51:-0.331361 52:0.156643 53:0.289452 54:-0.170793 55:-0.373285 56:-0.937456 57:-0.212533 58:-0.731521 59:-0.516677 60:-0.595307 61:-1.316222 62:-0.956277 63:-1.020579 64:-0.038700 65:0.907372
-1 1:0.059483 2:0.122963 3:-1.060002 4:-1.891479 5:-0.523601 6:1.183049 7:-0.152813 8:1.387834 9:0.350782 10:0.180849 11:-0.596906 12:-0.142143 13:0.115003 14:1.547032 15:0.129906 16:1.638985 17:-0.281715 18:-0.148020 19:-0.696132 20:0.110032 21:-0.513859 22:0.662990 23:1.416968 24:1.812394 25:-1.054475 26:0.027925 27:-2.634226 28:0.998687 29:-0.717421 30:-0.829026 31:-0.159768 32:2.003031 33:0.687508 34:0.624819 35:0.527199 36:0.884668 37:0.212378 38:0.594524 39:0.981537 40:0.397109 41:0.502555 42:-0.235199 43:-0.723737 44:1.395476 45:-0.605462 46:-0.994238 47:-0.567356 48:0.722152 49:0.672410 50:0.247918 51:-1.750946 52:-0.283332 53:2.837708 54:-1.094454 55:-0.841333 56:-0.208119 57:-0.534058 58:-1.255091 59:0.849798 60:1.025675 61:0.356459 62:-0.123031 63:-0.108782 64:0.331575 65:1.557898
-1 1:0.368204 2:0.066431 3:-0.240725 4:0.120090 5:1.298551 6:-1.676838 7:1.318207 8:0.327535 9:-0.123520 10:2.258733 11:-1.246472 12:0.820525 13:0.245621 14:0.745266 15:-0.580187 16:0.059701 17:-0.701237 18:-0.049058 19:-1.588731 20:0.010493 21:0.332983 22:1.636245 23:1.840859 24:1.295136 25:-0.516568 26:0.437055 27:-0.210788 28:1.109934 29:0.560999 30:-0.605492 31:0.815208 32:0.900906 33:-1.025417 34:0.087707 35:2.071690 36:-1.935669 37:0.505119 38:-0.460126 39:-1.308238 40:0.248179 41:1.091486 42:-0.804307 43:1.617189 44:0.579419 45:-0.124534 46:-0.341095 47:-0.571009 48:-0.493088 49:1.881561 50:-0.476463 51:-0.102530 52:-0.726834 53:-0.475521 54:-0.359004 55:0.750490 56:-1.223218 57:-0.596675 58:-0.101576 59:-0.837565 60:-0.799831 61:0.529145 62:-0.378457 63:0.636461 64:0.757845 65:-0.093901
-1 1:-0.343454 2:-0.375312 3:0.466321 4:0.725674 5:-0.075042 6:1.118420 7:-0.476317 8:0.913413 9:1.989657 10:1.368252 11:-1.164084 12:0.598314 13:1.776206 14:-0.300622 15:-0.290050 16:-0.945948 17:0.543740 18:-0.168690 19:1.244878 20:0.414516 21:-2.032202 22:0.917935 23:0.982422 24:-0.534301 25:0.784501 26:-1.528925 27:-0.607755 28:-0.171344 29:-0.345070 30:-2.382673 31:0.198060 32:0.254446 33:-1.453682 34:-0.365176 35:-0.556036 36:-1.239743 37:1.836199 38:1.523659 39:0.112278 40:0.519178 41:-1.065391 42:-1.503140 43:0.100850 44:-0.313382 45:0.293455 46:-0.497404 47:0.318567 48:0.092551 49:-0.147833 50:-0.037430 51:-1.443796 52:-1.172186 53:-0.365363 54:0.570931 55:1.265695 56:-0.545203 57:0.481490 58:1.031501 59:1.303905 60:-2.036527 61:-0.106851 62:-0.692090 63:0.271591 64:1.748693 65:0.004669
-1 1:-0.670841 2:-0.554251 3:0.199547 4:0.168204 5:-1.533032 6:2.494206 7:1.297984 8:-0.838792 9:-0.963253 10:-0.686850 11:-0.509606 12:-0.037463 13:0.669446 14:-0.417649 15:1.669299 16:-0.258680 17:-0.997617 18:-0.652217 19:-0.347319 20:-0.536613 21:-0.278083 22:0.891380 23:-0.808070 24:-0.449186 25:-0.716182 26:0.164059 27:-0.292809 28:-0.239031 29:-0.802724 30:-0.269880 31:2.940550 32:-0.174413 33:2.799297 34:-2.339643 35:-0.694596 36:0.195598 37:-0.186810 38:1.932836 39:0.103707 40:0.304280 41:-0.468238 42:-1.479491 43:-0.163872 44:-0.284387 45:-0.799856 46:-0.135060 47:0.209592 48:-0.333497 49:-0.832589 50:0.705346 51:1.016350 52:0.742676 53:0.122740 54:-0.307138 55:0.340134 56:-0.228427 57:0.298235 58:-1.174918 59:-2.252199 60:0.356722 61:-1.287455 62:0.823272 63:-0.715682 64:0.348999 65:0.087762
-1 1:-1.645003 2:0.142844 3:0.776397 4:-0.496312 5:-0.634769 6:-2.292166 7:-0.300846 8:-1.451152 9:0.105696 10:0.902834 11:0.730074 12:-1.615871 13:0.325883 14:-1.341624 15:-1.628563 16:-0.527361 17:1.151099 18:-0.579913 19:-0.260243 20:-0.152340 21:0.441269 22:-0.554299 23:-1.379179 24:-0.241144 25:0.210047 26:-0.147693 27:-0.415088 28:-1.294773 29:-0.206270 30:-0.143666 31:-1.085950 32:-1.265100 33:-1.643005 34:0.550494 35:-2.341374 36:0.721398 37:0.905238 38:-1.194290 39:0.196058 40:-0.711700 41:0.098778 42:-1.113393 43:1.100221 44:0.179349 45:2.057859 46:0.978851 47:1.465993 48:-0.692703 49:0.226597 50:1.040640 51:1.441581 52:0.115017 53:0.467179 54:-0.157616 55:-0.775729 56:0.050117 57:1.492912 58:0.033228 59:-1.352589 60:-0.207513 61:1.149611 62:1.276232 63:0.730815 64:-1.094134 65:-0.036812
-1 1:-1.617099 2:-0.606384 3:0.143307 4:-0.351816 5:-1.024574 6:-1.746852 7:3.246264 8:0.541329 9:-0.404833 10:2.059919 11:-0.717289 12:-1.028608 13:-0.938478 14:-0.466187 15:1.394436 16:-0.161467 17:0.135423 18:1.497699 19:-0.623971 20:-0.986649 21:-0.577130 22:1.244144 23:-2.226779 24:-0.282938 25:-0.610501 26:-0.890062 27:-2.537245 28:0.260795 29:-0.022422 30:0.122941 31:-0.567318 32:2.386277 33:-0.294220 34:0.559320 35:0.524222 36:-0.912779 37:0.316139 38:0.253484 39:0.623618 40:1.357519 41:-1.151810 42:1.353747 43:1.356105 44:1.202651 45:0.621895 46:-2.510019 47:-1.181484 48:1.061490 49:0.313356 50:-1.358076 51:-0.356907 52:2.045019 53:0.778507 54:1.661347 55:0.733249 56:0.020084 57:-0.241514 58:0.362992 59:-0.193044 60:0.483708 61:-1.280411 62:0.396534 63:1.097682 64:-0.690005 65:-0.262406
-1 1:2.339503 2:0.275135 3:0.046528 4:0.601492 5:0.481805 6:0.996643 7:2.421084 8:1.543834 9:-0.863088 10:-0.065739 11:-0.084325 12:-0.202240 13:0.166445 14:-1.234453 15:1.099526 16:-0.104354 17:-1.047377 18:-0.205781 19:0.397681 20:-0.574661 21:-0.058703 22:-1.039442 23:-1.039386 24:-0.941916 25:-1.383839 26:0.702478 27:-1.065798 28:1.187284 29:0.933136 30:1.550507 31:-2.370036 32:0.225934 33:-0.459183 34:-0.136997 35:-1.286530 36:0.921802 37:-0.684291 38:0.462525 39:-0.990689 40:0.209952 41:1.220279 42:0.319230 43:-0.659228 44:-2.533983 45:0.553954 46:-0.600848 47:0.731019 48:-0.401885 49:0.236106 50:0.784691 51:0.898806 52:-0.215757 53:0.132772 54:0.250996 55:-1.333783 56:-0.597253 57:-0.823130 58:0.030451 59:0.737853 60:-0.676658 61:0.332717 62:0.699940 63:-1.877300 64:-1.160808 65:0.352758
-1 1:-1.115283 2:-0.572930 3:-0.391369 4:-0.338012 5:-0.318940 6:0.175795 7:0.265362 8:0.614498 9:-1.417357 10:0.120310 11:0.335835 12:-0.348147 13:-0.483374 14:-0.046021 15:-2.123560 16:0.486056 17:0.836959 18:0.158930 19:1.642157 20:-0.532762 21:0.608290 22:2.890335 23:2.294909 24:1.668461 25:-2.048595 26:0.211878 27:-0.368716 28:-1.185545 29:-0.504996 30:-0.549401 31:-0.296374 32:-0.282319 33:1.186699 34:0.723697 35:0.411103 36:-1.010340 37:-0.345480 38:0.101949 39:0.323138 40:0.582800 41:-0.924940 42:-0.169078 43:-0.147701 44:-0.248141 45:-1.910519 46:-0.430650 47:0.201924 48:-1.577936 49:-0.094169 50:1.287630 51:-0.469316 52:1.830511 53:-0.170097 54:2.020170 55:-2.268979 56:-0.231553 57:0.038988 58:2.623354 59:0.958133 60:0.561988 61:-0.644830 62:-2.300682 63:1.418503 64:-0.814981 65:-0.043794
-1 1:-0.852599 2:0.141968 3:0.004097 4:1.480434 5:-1.852971 6:-1.700660 7:0.924526 8:-1.714562 9:-0.157232 10:-1.517072 11:-0.451179 12:-0.458042 13:0.848190 14:-0.659119 15:0.153988 16:-0.169977 17:0.350723 18:0.279629 19:0.974321 20:-1.712628 21:1.066120 22:-0.521900 23:0.385009 24:-0.224383 25:0.763357 26:0.153927 27:-0.142642 28:-0.783296 29:-0.519448 30:0.235402 31:-3.036973 32:1.184795 33:1.783093 34:-1.291907 35:-0.554424 36:-0.840003 37:1.051972 38:-0.467795 39:-0.028825 40:-0.824920 41:-0.008264 42:-0.780490 43:0.746701 44:0.816992 45:0.398149 46:2.640512 47:-0.770942 48:-0.513052 49:-0.625582 50:0.195728 51:-0.813580 52:-0.404693 53:-0.650037 54:-0.602095 55:-1.964639 56:0.582435 57:-0.290844 58:-0.600702 59:0.778303 60:0.142255 61:-0.246463 62:1.733701 63:-0.975757 64:1.055624 65:-1.067045
-1 1:-0.677472 2:-0.072457 3:0.661378 4:0.429309 5:0.981581 6:0.484003 7:1.218627 8:0.581862 9:-1.855580 10:-0.283287 11:0.971314 12:1.300807 13:-0.855044 14:0.743849 15:-0.195754 16:-2.432469 17:-0.979613 18:-0.763493 19:-0.356018 20:-1.324634 21:-0.155628 22:0.149355 23:0.334276 24:-2.225881 25:-1.680772 26:-0.408993 27:-0.248714 28:-0.750929 29:0.203730 30:1.051453 31:-1.813028 32:0.803251 33:-0.756510 34:-0.067925 35:-0.475299 36:0.172594 37:0.823877 38:-1.121630 39:1.526343 40:1.162078 41:-0.357588 42:0.087140 43:0.358007 44:1.657472 45:1.067703 46:2.750395 47:-0.390862 48:-0.696880 49:-0.959435 50:1.115368 51:-1.096368 52:0.083200 53:0.079783 54:1.314486 55:0.390942 56:-0.166826 57:0.048871 58:0.381836 59:0.271180 60:0.959140 61:-0.362289 62:1.513763 63:0.619353 64:-0.289713 65:-0.932054
-1 1:-1.226749 2:1.791558 3:-0.526702 4:-1.148207 5:-0.896488 6:-0.773653 7:-1.020526 8:-0.291564 9:-0.465236 10:-1.954104 11:0.617673 12:0.506578 13:-0.164128 14:-0.949203 15:-0.582396 16:-0.621683 17:0.529763 18:0.123225 19:-0.738635 20:0.504093 21:-1.331702 22:0.337512 23:0.168185 24:0.165800 25:-0.953082 26:-0.388662 27:1.165936 28:0.267993 29:0.851776 30:0.742825 31:-0.078055 32:-0.270746 33:0.520569 34:-0.364666 35:-2.223900 36:-0.014424 37:0.158499 38:0.810508 39:0.125823 40:0.650995 41:-0.686104 42:-0.006801 43:-1.567802 44:-0.976088 45:0.338077 46:0.071370 47:-1.451841 48:0.083066 49:0.453014 50:0.572792 51:0.152722 52:-0.706905 53:0.190623 54:0.304784 55:0.227118 56:1.183706 57:1.434603 58:-1.913191 59:-0.555020 60:1.300228 61:-0.356028 62:-2.705368 63:0.271882 64:0.587544 65:1.202717
-1 1:0.772906 2:-0.511766 3:0.268475 4:1.525084 5:0.155370 6:1.105854 7:0.500528 8:-0.794655 9:0.798501 10:0.751175 11:-0.750046 12:0.103649 13:-0.482823 14:0.922851 15:0.754645 16:-1.284540 17:0.946975 18:1.432251 19:1.123840 20:0.292719 21:0.827228 22:-0.368438 23:-0.641157 24:-2.666034 25:-0.911452 26:-0.459741 27:1.121066 28:-1.153749 29:-1.896544 30:1.069649 31:1.377434 32:0.853300 33:0.176551 34:1.214466 35:0.518408 36:-0.775541 37:-0.640509 38:0.018448 39:-1.728139 40:-0.616664 41:0.601883 42:0.367867 43:1.947110 44:-0.296333 45:2.355370 46:-1.244629 47:0.915046 48:-0.502124 49:-1.046015 50:-0.689147 51:0.477067 52:0.335290 53:-1.258048 54:-0.904731 55:0.100872 56:-0.599623 57:-0.658741 58:-0.162349 59:0.423913 60:-0.114317 61:-1.018029 62:1.027717 63:0.939477 64:-0.293374 65:-0.184589
-1 1:0.925441 2:1.034758 3:1.195119 4:0.051251 5:-0.945496 6:0.419563 7:-0.660337 8:0.984311 9:0.618230 10:-0.779597 11:-0.382851 12:-0.433303 13:-1.658446 14:0.908993 15:-0.549429 16:-0.562380 17:1.723231 18:-1.269644 19:-1.619827 20:0.174608 21:-0.389597 22:1.172885 23:0.591245 24:-0.378643 25:-0.490961 26:-0.449078 27:-1.180127 28:-1.002885 29:-0.226591 30:0.572605 31:-0.542784 32:0.835800 33:-1.722693 34:1.485104 35:-2.077298 36:-0.074950 37:-0.483724 38:-0.475314 39:1.767735 40:-1.423811 41:0.791424 42:-2.186644 43:0.162811 44:-0.155206 45:0.748641 46:-0.781007 47:-0.201112 48:0.363710 49:-1.874929 50:1.384625 51:-2.134076 52:0.110602 53:-1.909342 54:1.437258 55:0.186324 56:-2.315798 57:-0.678454 58:-0.267875 59:0.442569 60:0.732712 61:1.340393 62:0.263381 63:0.877982 64:0.371842 65:-0.516365
-1 1:-1.142501 2:-0.739078 3:-1.025857 4:-1.784937 5:-1.055794 6:0.960462 7:-1.104151 8:-0.976023 9:-0.425625 10:-0.075869 11:1.250379 12:-0.218090 13:1.014858 14:0.777034 15:-1.666336 16:1.004378 17:-0.499443 18:1.888880 19:0.775927 20:0.632843 21:0.588091 22:-1.097539 23:-0.283690 24:-0.088622 25:1.042049 26:-1.213703 27:-0.531835 28:1.768734 29:2.221097 30:0.152526 31:1.338310 32:-0.071334 33:0.853778 34:-0.056074 35:0.746142 36:1.364180 37:0.672873 38:1.119174 39:-1.588740 40:-0.530927 41:-0.016942 42:0.437118 43:1.058061 44:2.519068 45:-0.243568 46:0.884855 47:1.543081 48:0.678889 49:-0.463790 50:0.210839 51:-1.472963 52:0.474381 53:-0.345498 54:0.333660 55:-0.409171 56:0.081174 57:-0.405207 58:-0.960314 59:-1.094204 60:1.965486 61:-2.401903 62:1.841884 63:1.671859 64:-1.848070 65:-0.086736
-1 1:-0.243971 2:-0.841484 3:-1.595803 4:0.967050 5:-0.470271 6:1.571316 7:0.416008 8:0.644867 9:-0.892316 10:-0.279942 11:-0.652719 12:-0.242022 13:-0.313572 14:0.701410 15:-1.163841 16:1.055057 17:1.737851 18:-0.413384 19:0.507685 20:1.148632 21:1.355175 22:-1.033149 23:0.182721 24:-0.336826 25:1.793873 26:0.348960 27:-0.137663 28:-0.607568 29:0.388082 30:-1.621752 31:-1.157075 32:-0.023818 33:-0.232089 34:-0.483685 35:0.291684 36:1.371457 37:-0.389258 38:0.659989 39:-0.090322 40:-0.268197 41:0.370049 42:0.215357 43:-0.529729 44:-0.025158 45:0.509357 46:-0.207921 47:0.067334 48:-1.594297 49:-1.494660 50:-0.129221 51:-1.551801 52:0.570694 53:-0.603822 54:0.497194 55:-0.688237 56:-0.647310 57:-1.049553 58:0.890082 59:-0.386403 60:1.048611 61:0.374160 62:-0.107715 63:0.168893 64:0.093927 65:-0.646626
-1 1:-0.795997 2:1.800717 3:0.191802 4:-0.295421 5:-0.647993 6:0.655897 7:1.225621 8:0.403055 9:-0.540534 10:1.532908 11:0.455486 12:-1.939412 13:0.934681 14:-0.132435 15:0.409232 16:-0.822863 17:-1.893777 18:0.660496 19:0.201511 20:0.865059 21:-0.213868 22:-0.903725 23:0.699740 24:-0.484586 25:0.106630 26:0.004666 27:-0.060524 28:-0.673564 29:0.177712 30:0.527960 31:-0.196948 32:-0.170713 33:0.476694 34:0.227957 35:0.502654 36:2.578862 37:-0.476976 38:-0.336579 39:-0.672746 40:0.312206 41:0.296432 42:0.387331 43:-1.724958 44:-0.357014 45:0.145958 46:1.171100 47:0.785235 48:0.079045 49:-0.692566 50:0.390339 51:-0.040385 52:-0.174887 53:-1.677898 54:1.135913 55:-1.327447 56:0.430939 57:0.387274 58:-0.916654 59:1.102581 60:0.436961 61:1.292230 62:-0.652006 63:0.022387 64:0.069927 65:-0.446562
-1 1:-0.548742 2:-0.008522 3:-0.069365 4:1.379770 5:0.424506 6:-0.750867 7:-1.468477 8:0.806707 9:0.386820 10:-0.301023 11:-0.407720 12:0.900028 13:-0.178599 14:0.319817 15:-0.293524 16:-0.879463 17:-0.562258 18:-0.197927 19:1.837631 20:-0.677927 21:0.668022 22:0.298960 23:-0.674384 24:0.594138 25:-1.388985 26:0.107374 27:0.313905 28:-1.541231 29:-0.035709 30:1.668270 31:-0.161306 32:-0.094569 33:-0.308034 34:-0.642588 35:-0.521840 36:-0.449209 37:-1.277450 38:-1.131190 39:0.598284 40:-1.307641 41:0.157238 42:1.575688 43:0.161544 44:-0.572586 45:1.417212 46:-0.342274 47:-0.075764 48:1.207621 49:-1.137066 50:0.285460 51:0.408143 52:0.255899 53:-0.227467 54:0.683099 55:-1.803187 56:2.225765 57:0.201783 58:-0.110694 59:0.794135 60:0.866149 61:-1.482574 62:1.520715 63:-1.467670 64:1.242590 65:-0.956933
-1 1:0.751800 2:-0.183179 3:-0.438999 4:1.492459 5:-0.891077 6:-0.600202 7:1.211070 8:0.335371 9:0.196262 10:1.665529 11:0.691480 12:0.272161 13:1.477860 14:0.505896 15:-0.865141 16:0.375013 17:-0.148479 18:0.699053 19:-0.337171 20:1.794424 21:-1.332891 22:-0.878481 23:0.035368 24:0.734658 25:-0.263636 26:1.149566 27:0.103528 28:0.626156 29:-1.066444 30:-0.053815 31:-1.012482 32:-0.786104 33:-0.406029 34:1.069206 35:-0.465715 36:0.499246 37:-1.748397 38:0.174300 39:-0.866853 40:1.584527 41:0.978617 42:-0.692407 43:1.966434 44:-0.121407 45:0.760012 46:-0.917831 47:0.115917 48:-1.253632 49:0.907680 50:-1.869980 51:-0.082160 52:-0.599573 53:0.864857 54:-0.011451 55:-1.276083 56:0.424996 57:-0.049109 58:-0.443148 59:-0.457297 60:0.758799 61:-0.289452 62:2.344739 63:0.777912 64:0.443799 65:-0.805468
-1 1:0.849035 2:-0.770082 3:-1.009776 4:-1.751818 5:1.172651 6:0.374152 7:-0.825455 8:1.365368 9:0.165248 10:-1.038512 11:1.517735 12:-3.057093 13:-0.543805 14:-2.299892 15:2.309829 16:1.710251 17:0.439175 18:0.912671 19:0.310062 20:-0.400224 21:1.487624 22:-0.480188 23:-1.172720 24:-0.715074 25:-0.831084 26:0.405788 27:-2.160562 28:1.177481 29:0.737062 30:-1.386256 31:0.197861 32:0.983237 33:0.538450 34:0.048011 35:0.570338 36:2.144760 37:0.945478 38:1.225197 39:-0.582028 40:0.707171 41:-1.339802 42:-0.061624 43:-0.672342 44:-0.434672 45:2.012371 46:-1.209400 47:-1.168057 48:-0.157081 49:0.877433 50:0.902241 51:-0.608205 52:-1.111649 53:-0.993861 54:0.118593 55:-0.865891 56:-0.162131 57:-0.414937 58:-0.065677 59:0.332008 60:1.043956 61:2.095420 62:-0.855607 63:0.517487 64:0.994212 65:-0.236018
-1 1:1.235583 2:1.395486 3:0.298545 4:0.589872 5:0.410615 6:0.171104 7:-0.939445 8:0.044775 9:0.818580 10:0.969611 11:0.986647 12:0.263842 13:-1.109478 14:1.536777 15:0.800034 16:0.770716 17:-0.319454 18:-0.930756 19:-0.584873 20:-0.303715 21:-0.463296 22:0.765506 23:-0.967052 24:1.136566 25:0.770137 26:0.195356 27:-2.390430 28:-0.481700 29:-1.360185 30:1.441980 31:2.256036 32:-0.321244 33:0.012831 34:-0.494756 35:1.896224 36:-1.720308 37:-0.339084 38:-1.181848 39:0.988371 40:1.226645 41:-2.120732 42:0.525152 43:-0.596227 44:0.761023 45:-0.277075 46:0.434597 47:0.461415 48:1.237603 49:-0.432837 50:1.054888 51:-1.266183 52:1.187039 53:0.380657 54:1.068855 55:1.142471 56:-0.951419 57:-1.038560 58:-0.481943 59:0.675872 60:0.677209 61:0.428605 62:-0.298575 63:-2.255833 64:-0.727600 65:0.053327
-1 1:2.551060 2:-1.192632 3:0.274562 4:1.707042 5:-0.719793 6:0.099155 7:-0.262809 8:0.781139 9:-1.260444 10:0.267364 11:-1.750815 12:-1.475792 13:-0.913272 14:-0.068373 15:-0.360360 16:-0.867944 17:-0.595732 18:1.863002 19:-0.990452 20:1.139527 21:-0.486511 22:0.706122 23:0.338164 24:-1.039165 25:0.418919 26:0.433146 27:-1.016975 28:0.413206 29:0.131825 30:1.356591 31:-0.093933 32:-0.808111 33:0.550583 34:0.602522 35:-1.026826 36:-2.734782 37:-0.558103 38:-0.946071 39:0.406600 40:0.674439 41:0.506884 42:-0.220137 43:-0.338410 44:1.490321 45:-0.379066 46:1.136491 47:-0.053537 48:0.710652 49:0.882028 50:0.220173 51:-0.388150 52:0.257845 53:1.284241 54:1.804446 55:0.414353 56:2.017716 57:1.455422 58:0.861351 59:0.001778 60:0.136881 61:-0.610862 62:0.380568 63:-0.317240 64:1.403454 65:-0.993461
-1 1:0.985386 2:-0.372536 3:-0.297035 4:0.386460 5:-1.653949 6:1.308856 7:0.229394 8:0.000684 9:0.931167 10:-1.150524 11:-1.095245 12:0.450771 13:0.675228 14:1.413259 15:0.086731 16:-0.553219 17:0.173547 18:1.923705 19:-1.552467 20:0.817197 21:-0.213440 22:0.689970 23:0.870674 24:0.632813 25:-0.307406 26:-0.538412 27:2.106693 28:0.970953 29:-0.676178 30:0.022193 31:-0.742689 32:0.417232 33:-1.146163 34:0.938106 35:-0.104683 36:-1.013421 37:-0.761271 38:1.156937 39:-0.611044 40:-1.206389 41:1.958372 42:0.941647 43:-0.715464 44:0.475128 45:-0.451277 46:0.777957 47:-0.245132 48:0.477639 49:1.036123 50:0.453509 51:-1.294460 52:0.181238 53:-0.150067 54:-0.561525 55:-1.726573 56:-0.099060 57:1.102106 58:0.353915 59:0.091419 60:-0.654858 61:0.735746 62:1.080135 63:-0.188458 64:-0.073270 65:0.605300
-1 1:-2.351267 2:-0.667102 3:1.213752 4:0.881979 5:-0.011723 6:1.978462 7:-0.669014 8:0.700762 9:1.031465 10:0.935514 11:-0.666686 12:0.921860 13:1.835305 14:0.157310 15:1.935217 16:0.580903 17:-0.670853 18:0.107797 19:0.974390 20:-1.462093 21:0.847659 22:-0.922010 23:-0.302344 24:0.324190 25:0.996580 26:0.838115 27:0.772772 28:0.136526 29:0.233833 30:0.417706 31:1.005343 32:-0.487655 33:1.115806 34:0.188114 35:0.049616 36:0.638149 37:1.494291 38:0.523186 39:0.134070 40:3.098060 41:1.031497 42:0.290322 43:0.542876 44:-1.935443 45:0.623726 46:-0.093238 47:0.023738 48:-0.815843 49:-1.297028 50:1.138294 51:-1.133963 52:-0.540528 53:-0.247280 54:-0.509051 55:1.127912 56:-0.301541 57:0.090009 58:1.336486 59:0.960296 60:-0.431771 61:1.347990 62:-1.172802 63:-0.508149 64:0.138187 65:1.460914
-1 1:-0.464121 2:-1.726528 3:-0.212496 4:1.345239 5:0.292215 6:1.951377 7:-1.356884 8:1.267244 9:2.302758 10:0.367758 11:-1.241116 12:-0.242798 13:-0.017185 14:2.513377 15:-1.011889 16:-0.729041 17:-1.178468 18:0.145667 19:1.865233 20:0.030564 21:0.102395 22:0.767272 23:-0.381711 24:-0.878243 25:1.195359 26:-0.955172 27:0.026157 28:-0.578260 29:1.384154 30:1.372310 31:1.068323 32:-0.833671 33:-0.050070 34:1.478890 35:-0.733507 36:-0.358716 37:0.693548 38:-0.698711 39:-0.858998 40:-0.510728 41:0.245478 42:1.376158 43:-1.714834 44:0.292705 45:0.497422 46:-1.190904 47:-1.141001 48:-0.323315 49:-0.039697 50:-1.323624 51:1.423337 52:-2.046774 53:0.110860 54:0.901019 55:-0.394259 56:0.802865 57:-0.142840 58:-1.023234 59:0.100920 60:-1.498418 61:-1.308962 62:-0.762610 63:1.207602 64:2.804461 65:-0.081944
-1 1:-0.903062 2:0.566994 3:0.375945 4:0.441309 5:-0.693076 6:1.915090 7:0.649553 8:1.466503 9:0.078329 10:0.037043 11:1.554209 12:0.041158 13:-0.286771 14:0.112059 15:0.190577 16:0.550168 17:-1.538746 18:1.208405 19:-1.392422 20:-1.588387 21:-0.083470 22:1.009350 23:0.698343 24:1.436235 25:-1.878360 26:1.368133 27:1.092738 28:-0.641147 29:1.002233 30:-0.264874 31:-0.143434 32:-0.244322 33:0.037786 34:0.237938 35:-3.786260 36:1.200360 37:0.692316 38:0.401513 39:0.005180 40:0.049994 41:0.132486 42:0.763340 43:0.575030 44:-0.311390 45:-0.931005 46:1.553404 47:1.450499 48:-0.263669 49:2.496960 50:-0.669398 51:1.874745 52:-1.514919 53:0.911801 54:0.306448 55:-0.897100 56:-1.499657 57:-0.487271 58:0.871718 59:-1.647884 60:0.175012 61:-1.386099 62:-0.545109 63:-0.003839 64:0.859543 65:-0.834890
-1 1:0.366926 2:-0.551031 3:-1.900545 4:0.618004 5:-0.547118 6:0.510272 7:0.791498 8:-1.067539 9:0.614905 10:0.230893 11:0.259608 12:0.545021 13:1.383655 14:-0.623429 15:0.831259 16:0.565866 17:-2.146588 18:0.533070 19:0.331414 20:1.291050 21:0.326310 22:0.743762 23:-0.493014 24:-1.357524 25:-0.430906 26:1.735131 27:-1.033015 28:-1.823803 29:0.339943 30:-0.128971 31:0.725852 32:0.719503 33:0.008517 34:-1.111370 35:0.022957 36:-1.051813 37:0.844694 38:1.811810 39:1.268315 40:-2.178320 41:0.253658 42:-0.086142 43:1.653336 44:-0.608240 45:-0.078325 46:0.602421 47:-0.921822 48:-1.710490 49:-0.987683 50:0.673671 51:0.589867 52:-0.443380 53:-0.000537 54:0.914026 55:-0.803217 56:-0.248636 57:-1.061899 58:0.309217 59:1.717039 60:1.035602 61:-0.474998 62:-1.116092 63:0.728185 64:0.592171 65:0.955326
-1 1:0.417807 2:-0.322702 3:-0.244830 4:-1.360131 5:0.379448 6:-1.254247 7:0.194527 8:-0.678210 9:-2.220205 10:-2.250923 11:1.675768 12:0.191107 13:-0.246306 14:0.321277 15:1.131428 16:0.186167 17:-0.966976 18:0.790617 19:-1.862872 20:-0.892107 21:-0.616997 22:-0.120892 23:0.477853 24:-0.730181 25:1.592424 26:-1.144926 27:0.487065 28:-0.242711 29:-0.179837 30:-1.074166 31:-2.371262 32:-1.759177 33:-1.633881 34:-0.729445 35:-0.165449 36:1.059580 37:0.485688 38:-0.271334 39:0.135582 40:-0.238084 41:0.039341 42:0.066142 43:-0.788807 44:-0.105853 45:1.386981 46:1.348515 47:-1.750396 48:0.288090 49:-0.004101 50:1.477180 51:0.075043 52:-0.345388 53:0.554659 54:0.662645 55:1.219717 56:-1.555778 57:-0.147423 58:-0.723365 59:-0.350303 60:0.722989 61:1.586163 62:0.564181 63:0.700056 64:0.663775 65:-0.700167
-1 1:-2.116911 2:0.583049 3:-0.175243 4:-0.206654 5:1.359285 6:0.505225 7:-0.517576 8:0.489102 9:0.719858 10:-0.169972 11:-0.167841 12:1.585399 13:-1.042231 14:0.266673 15:-0.878965 16:-1.362216 17:0.711824 18:-0.164013 19:-0.272305 20:-0.060111 21:2.259631 22:-2.631087 23:0.908947 24:1.421136 25:0.588216 26:1.560909 27:0.109804 28:0.110361 29:1.378972 30:-0.202816 31:-0.344637 32:-0.100480 33:0.041548 34:-0.378517 35:-0.912083 36:-0.814437 37:-0.141913 38:-0.268517 39:-0.462635 40:-1.086354 41:-0.239740 42:0.175653 43:-1.203475 44:0.537391 45:0.818391 46:-0.166564 47:0.248351 48:-1.056020 49:1.096172 50:0.107536 51:-1.313570 52:-0.955004 53:-0.704235 54:-1.062574 55:0.506680 56:-1.062449 57:0.620576 58:-0.148087 59:-0.024443 60:-0.115338 61:-1.197910 62:0.804747 63:0.852565 64:0.776642 65:1.130469
-1 1:1.245177 2:0.752785 3:-0.687157 4:1.309950 5:0.926458 6:0.616546 7:-1.120519 8:0.458801 9:1.776371 10:-0.072824 11:-0.369468 12:-0.126757 13:1.792843 14:1.707791 15:-0.855310 16:-1.475399 17:0.309313 18:-1.770823 19:-0.021594 20:-1.160159 21:-0.639079 22:1.279644 23:-0.975224 24:-1.167557 25:0.455594 26:1.048212 27:-1.406911 28:-1.094137 29:0.219619 30:0.244932 31:0.892329 32:-0.083560 33:1.334028 34:-0.397165 35:-2.283784 36:0.013688 37:0.784259 38:1.150441 39:0.194294 40:1.565663 41:0.454203 42:0.803603 43:0.781714 44:-0.766008 45:-1.251290 46:1.079239 47:-1.018187 48:1.423921 49:-0.229024 50:-1.369880 51:-0.741869 52:-0.310069 53:-0.654350 54:2.071981 55:0.959250 56:0.917700 57:0.522206 58:-0.935849 59:-0.212729 60:-0.286126 61:0.091892 62:-0.556818 63:-0.664653 64:0.939830 65:-0.329295
-1 1:-1.619511 2:-1.898665 3:0.877489 4:-1.573627 5:0.111984 6:-0.246304 7:-1.361277 8:1.291658 9:1.343049 10:0.470535 11:-2.086456 12:-0.141859 13:-1.793814 14:1.771984 15:0.588338 16:0.911980 17:0.451451 18:-1.012869 19:1.698557 20:-1.343194 21:1.706487 22:1.272563 23:-0.830764 24:0.486136 25:-0.866037 26:0.296430 27:-0.108314 28:-2.388279 29:-0.298606 30:0.978002 31:0.644411 32:-0.545070 33:-1.375649 34:0.609088 35:-0.058870 36:-1.593464 37:-0.353394 38:1.366755 39:-0.416152 40:-0.161100 41:0.719366 42:-0.422670 43:0.132410 44:0.539391 45:1.763368 46:0.463529 47:-0.541083 48:-0.271501 49:-2.615915 50:-0.104618 51:0.644203 52:-0.098420 53:0.208187 54:0.642684 55:0.330886 56:-0.074549 57:1.096974 58:1.476075 59:-0.551964 60:-1.601488 61:-1.051116 62:-0.568403 63:-1.733871 64:0.497967 65:-0.175868
-1 1:1.132258 2:0.683343 3:1.114884 4:-1.697833 5:2.420385 6:0.976157 7:-0.408073 8:-0.515647 9:1.151730 10:1.271493 11:1.042645 12:-0.917318 13:-0.853125 14:1.272129 15:-0.142611 16:-1.269742 17:0.702543 18:0.976891 19:-0.998634 20:-0.352319 21:-0.844839 22:0.118659 23:-0.960921 24:-0.521812 25:-0.733298 26:-1.423834 27:1.534163 28:-1.151334 29:-1.215549 30:3.511492 31:-0.491941 32:1.546100 33:-2.420679 34:0.332030 35:-0.318936 36:0.020240 37:-2.681329 38:-0.234494 39:0.208801 40:0.032130 41:-1.494693 42:-0.806354 43:-1.663055 44:-0.511312 45:0.667036 46:0.588145 47:-0.041437 48:0.540522 49:-0.443773 50:0.486308 51:1.472841 52:-1.181701 53:0.398086 54:-0.006976 55:-2.089903 56:0.509904 57:-1.825045 58:1.688468 59:-0.963245 60:0.131249 61:-0.769861 62:0.334082 63:-1.101870 64:-0.152727 65:-0.926588
-1 1:-0.192991 2:-0.663957 3:-0.566291 4:-0.871191 5:-1.182343 6:1.631589 7:-0.934370 8:-0.160745 9:0.665287 10:-1.106266 11:0.423325 12:-0.613210 13:0.584996 14:-0.655461 15:-0.671156 16:-0.094681 17:-0.631052 18:0.142817 19:0.051333 20:0.344844 21:-0.071823 22:0.643084 23:0.998510 24:0.470695 25:-0.569776 26:0.839292 27:0.925332 28:0.152176 29:-0.047353 30:0.119098 31:-1.926563 32:1.075118 33:-0.394878 34:1.312197 35:-2.078285 36:0.590600 37:-0.043941 38:0.627040 39:0.785205 40:-1.398367 41:-1.139955 42:0.034292 43:0.176029 44:-0.529049 45:-1.240670 46:1.244026 47:-1.145973 48:0.637232 49:2.008053 50:2.133781 51:-2.558586 52:0.182680 53:-0.979306 54:-0.157377 55:0.009178 56:-1.749644 57:-1.673521 58:1.347697 59:-1.171930 60:-0.837875 61:-0.131243 62:1.495495 63:0.458540 64:-0.886193 65:1.885014
-1 1:-1.215942 2:1.463804 3:0.885378 4:-0.086075 5:-0.209859 6:0.594674 7:0.371189 8:-0.755284 9:-1.047792 10:0.547180 11:-0.786475 12:0.116571 13:-1.111174 14:0.397961 15:0.926842 16:0.412395 17:-0.843199 18:0.576125 19:-0.185870 20:-1.427564 21:-1.174146 22:-0.307915 23:-0.574388 24:1.184582 25:-0.551344 26:0.277528 27:0.873528 28:0.288951 29:0.202466 30:-0.157269 31:0.372580 32:0.455948 33:0.153570 34:-0.737630 35:-0.465645 36:-0.451438 37:-0.044314 38:-2.637853 39:0.410308 40:0.116034 41:0.959334 42:0.411017 43:0.937760 44:0.979717 45:0.004398 46:-1.635526 47:-0.316772 48:-0.431268 49:0.461799 50:1.163146 51:-0.742118 52:0.067291 53:-0.891466 54:-0.037934 55:-0.124843 56:1.199701 57:0.702968 58:0.523079 59:0.954861 60:0.671794 61:-1.219636 62:-0.829923 63:-0.819366 64:1.852896 65:0.233748
-1 1:0.389366 2:1.553949 3:1.679486 4:-2.290811 5:0.793844 6:0.666847 7:1.464590 8:0.298225 9:1.094972 10:-1.134618 11:-0.244813 12:0.864897 13:2.636927 14:-0.010006 15:1.196729 16:1.168055 17:-0.178659 18:-0.875100 19:-0.371909 20:0.205176 21:-0.023577 22:-0.092857 23:0.376204 24:-0.021609 25:-1.968325 26:-0.053262 27:0.551497 28:0.444239 29:2.108856 30:-0.296919 31:-0.685087 32:1.249836 33:0.042698 34:0.416880 35:0.878953 36:0.966207 37:-1.113654 38:-1.304104 39:0.363345 40:-0.015069 41:0.941757 42:1.962343 43:1.100750 44:-1.024998 45:-0.467151 46:0.132811 47:0.809100 48:-0.774855 49:1.069275 50:-1.866230 51:-1.501554 52:-3.020582 53:-0.471771 54:-0.612194 55:-1.485639 56:0.373331 57:-0.576456 58:0.273061 59:-0.375729 60:0.689810 61:-0.157935 62:1.164969 63:-0.322677 64:-0.225474 65:-0.849658
-1 1:2.231622 2:0.243909 3:0.296387 4:1.027023 5:0.176935 6:-1.895423 7:0.350056 8:-0.549470 9:-1.663414 10:0.924372 11:-1.261587 12:-0.129685 13:-0.447578 14:-0.346879 15:-0.586456 16:-0.840862 17:-0.199465 18:-1.303455 19:0.341636 20:0.851314 21:0.288160 22:-0.137962 23:1.790361 24:-0.542959 25:-0.928752 26:-0.677822 27:0.460415 28:0.574068 29:1.535176 30:-1.365171 31:-0.039436 32:-0.024303 33:1.860845 34:0.036917 35:-1.302097 36:-0.505253 37:-0.381260 38:0.537757 39:-0.321157 40:-1.179337 41:0.801189 42:1.685159 43:1.208489 44:0.512985 45:-0.032177 46:-0.455613 47:0.693171 48:-0.525713 49:0.231952 50:-0.413895 51:-0.348540 52:1.591146 53:0.736096 54:-1.496639 55:-1.069944 56:1.003900 57:-0.507618 58:-0.437034 59:-2.047301 60:-2.500941 61:-0.903993 62:-0.873105 63:1.498378 64:0.972206 65:-0.143430
-1 1:0.875314 2:-0.095008 3:1.008068 4:-0.963838 5:0.882753 6:1.241983 7:0.162415 8:0.460867 9:2.202317 10:-0.103748 11:0.246332 12:2.727393 13:-1.202991 14:0.125582 15:-1.069346 16:0.990359 17:0.682808 18:1.100433 19:-0.104470 20:1.694402 21:-1.719399 22:0.102441 23:0.012266 24:-1.626673 25:-0.220653 26:-0.168710 27:0.045882 28:-0.469941 29:-0.884930 30:1.198609 31:0.661542 32:-1.975173 33:1.826153 34:-0.804886 35:0.666847 36:-1.264848 37:-0.177835 38:-1.320750 39:0.003174 40:-0.432861 41:-0.302415 42:1.885532 43:-0.909582 44:1.437905 45:0.334921 46:1.456171 47:-1.347809 48:-1.572420 49:-0.256536 50:-0.260721 51:1.611947 52:-1.248388 53:-0.303889 54:0.630920 55:-0.614130 56:0.711268 57:-1.264540 58:1.042960 59:0.050779 60:0.855554 61:-2.600157 62:1.665374 63:0.920682 64:-1.356128 65:-0.297481
-1 1:-0.067981 2:-0.106417 3:0.806874 4:1.325793 5:-1.180868 6:0.867103 7:0.316008 8:0.474154 9:0.194176 10:0.250865 11:0.750268 12:0.672823 13:-1.601085 14:-1.151237 15:-1.028277 16:0.317885 17:-1.286113 18:0.263565 19:-0.090231 20:-0.014102 21:0.386361 22:0.120796 23:1.214283 24:-0.236466 25:-2.568611 26:0.562384 27:1.029395 28:-0.836037 29:-0.410762 30:0.535573 31:-0.625577 32:0.979607 33:0.944294 34:-0.175915 35:-0.728770 36:-0.234082 37:-1.527680 38:0.475173 39:-1.509000 40:-1.709757 41:-1.125932 42:0.757154 43:-1.383127 44:-2.815517 45:-0.137866 46:-0.099199 47:1.366595 48:0.329285 49:2.639002 50:-0.068223 51:-0.248888 52:-0.339257 53:0.625816 54:1.806261 55:1.589723 56:-1.851603 57:-0.748028 58:0.679998 59:0.554193 60:1.955849 61:0.995456 62:-0.382973 63:0.796579 64:0.550635 65:-1.222784
-1 1:-0.945163 2:-1.439788 3:1.019606 4:0.970242 5:-1.154367 6:-0.172285 7:0.471063 8:-0.780647 9:0.611370 10:-0.928078 11:-1.442540 12:0.721283 13:-0.504407 14:-0.821383 15:0.607784 16:0.476784 17:-0.739689 18:-1.336192 19:1.959020 20:-0.135775 21:0.595210 22:-1.432155 23:0.453601 24:1.349467 25:-0.396744 26:-1.347721 27:-2.247055 28:-0.230769 29:-0.599711 30:-0.079259 31:-1.041681 32:-0.389815 33:-0.938754 34:0.145869 35:0.313018 36:0.159669 37:-2.248273 38:-0.673874 39:0.484930 40:0.774532 41:0.451923 42:-1.705499 43:0.799994 44:1.488467 45:1.659679 46:0.989388 47:-1.638226 48:-0.386709 49:0.421382 50:-0.554741 51:-1.224366 52:-0.314970 53:0.154090 54:-0.152348 55:-0.850181 56:1.086689 57:0.539056 58:-1.217685 59:-0.117907 60:-2.497360 61:0.864220 62:0.570604 63:-0.958265 64:0.810695 65:0.090565
-1 1:-0.235430 2:0.100525 3:-0.473855 4:-0.052712 5:0.097375 6:-0.337757 7:-1.671624 8:0.187511 9:-0.283451 10:-0.396563 11:0.869374 12:0.816958 13:0.441499 14:-0.961482 15:0.693979 16:-1.129881 17:-0.145301 18:-0.039085 19:1.051902 20:-0.013197 21:0.845109 22:-1.361523 23:-1.196408 24:-0.905570 25:0.381342 26:1.516546 27:0.468064 28:0.655476 29:2.941354 30:0.133620 31:-0.357853 32:-1.744311 33:1.248367 34:-1.510381 35:0.726933 36:-0.586357 37:-1.284900 38:-0.842061 39:1.917971 40:0.543246 41:0.413299 42:-0.396403 43:0.108738 44:1.222331 45:0.449268 46:1.001777 47:-1.110175 48:0.622963 49:1.016345 50:-0.657232 51:0.157626 52:-1.264625 53:0.588353 54:-0.322671 55:0.056040 56:-0.276625 57:0.100718 58:-1.392630 59:0.241968 60:0.560343 61:1.020381 62:0.016643 63:-1.941835 64:-0.240402 65:-0.173093
-1 1:1.143531 2:1.526498 3:-0.533742 4:1.135960 5:0.311213 6:-1.532968 7:0.496072 8:0.118454 9:0.339468 10:0.682971 11:0.249745 12:1.072691 13:-0.577973 14:-0.070591 15:-0.982934 16:0.996355 17:0.130657 18:-1.541423 19:1.110880 20:-0.960011 21:-2.022173 22:0.710540 23:-0.077628 24:-2.401434 25:-1.092353 26:-0.432418 27:-0.534345 28:0.941996 29:0.395592 30:-0.926986 31:-0.145375 32:1.370933 33:-0.363578 34:0.073125 35:-1.587837 36:0.393586 37:0.910926 38:-0.515875 39:-0.151936 40:-0.267579 41:0.299832 42:-0.342598 43:-0.067175 44:-1.182611 45:1.148119 46:-0.550490 47:0.467650 48:-0.307470 49:1.181658 50:0.505394 51:-0.367918 52:0.519479 53:-0.406249 54:0.050336 55:-0.690913 56:0.434727 57:-0.165227 58:0.827010 59:1.159241 60:-1.840012 61:0.242692 62:0.196347 63:0.188759 64:-1.063758 65:-0.579616
-1 1:1.274695 2:0.663776 3:0.426299 4:-0.684638 5:-1.091379 6:-0.373457 7:0.789823 8:0.478680 9:-1.605139 10:0.208223 11:-0.888105 12:-1.192419 13:0.893626 14:1.329414 15:1.625547 16:-0.175802 17:-0.029678 18:1.246273 19:2.383027 20:0.411018 21:-0.887039 22:0.968392 23:-0.775980 24:1.416878 25:-0.086558 26:1.044838 27:0.879780 28:0.561568 29:-0.473552 30:0.203344 31:0.760209 32:0.659167 33:-0.138185 34:0.273864 35:-1.767705 36:-1.689281 37:-0.546612 38:-1.952878 39:0.107700 40:1.374474 41:0.802985 42:1.009114 43:2.440177 44:0.454472 45:0.608649 46:-0.168368 47:0.904805 48:-0.773963 49:1.866646 50:-0.361969 51:1.730745 52:0.301936 53:0.880053 54:0.970029 55:2.092064 56:-1.146232 57:0.238654 58:3.069141 59:-0.955134 60:0.693275 61:-1.192264 62:0.014158 63:0.514545 64:-0.932590 65:0.163314
-1 1:0.609725 2:-0.441524 3:0.174054 4:-0.276808 5:0.480490 6:0.083361 7:-0.586440 8:-1.112918 9:-1.382919 10:0.630613 11:-1.395384 12:-0.020853 13:0.272147 14:0.116936 15:0.185289 16:0.344718 17:-0.305069 18:0.476755 19:-0.790159 20:-0.015934 21:-1.751128 22:1.379751 23:-0.831769 24:0.107373 25:0.047701 26:-1.244122 27:0.491222 28:-0.833688 29:-0.036995 30:0.993161 31:-0.611226 32:-0.742449 33:-0.663556 34:-2.002829 35:0.504731 36:1.247737 37:1.164119 38:-0.389725 39:0.874256 40:-1.671724 41:-0.980217 42:-0.283920 43:1.078569 44:0.191319 45:-0.274965 46:-1.201795 47:-0.096270 48:0.832428 49:1.540646 50:0.112195 51:-0.374488 52:0.023192 53:0.481316 54:-0.249026 55:-1.614635 56:0.952498 57:0.548206 58:-0.920904 59:0.180153 60:-0.789218 61:-0.336607 62:-0.434668 63:-1.056692 64:-0.267885 65:0.527126
-1 1:-1.707070 2:0.833606 3:0.058135 4:0.063933 5:-0.784838 6:0.405113 7:0.289276 8:-0.474166 9:0.680779 10:-0.426293 11:0.753896 12:-0.196846 13:0.139844 14:0.723563 15:-0.388965 16:-0.231402 17:1.934163 18:0.579527 19:0.495969 20:0.709220 21:-0.301187 22:0.438456 23:2.054226 24:0.015629 25:0.470189 26:1.330246 27:-1.028363 28:0.020245 29:-0.195853 30:0.313837 31:0.913180 32:-1.045196 33:-0.437330 34:-0.990807 35:0.527430 36:1.079775 37:-1.734293 38:-1.266282 39:-0.205294 40:1.533963 41:-1.064472 42:0.184104 43:0.519787 44:-0.167242 45:0.661918 46:-0.820542 47:0.667750 48:-0.879451 49:-0.681340 50:0.511352 51:1.460102 52:0.170420 53:2.060023 54:0.256969 55:-0.644277 56:-2.455845 57:-0.430395 58:0.583505 59:-0.639369 60:0.687193 61:0.233133 62:-0.973804 63:-1.261710 64:-0.581469 65:0.846589
-1 1:-0.756298 2:-1.573342 3:1.404497 4:-0.090139 5:2.072742 6:0.476241 7:0.179378 8:1.791559 9:-0.941024 10:0.785445 11:-2.447110 12:0.762962 13:1.250279 14:-1.332767 15:-0.539869 16:-0.190471 17:0.249418 18:-0.187381 19:-0.750969 20:-1.252427 21:0.769562 22:0.209944 23:-2.065481 24:1.577262 25:-0.607119 26:0.444086 27:0.152704 28:0.475231 29:0.500381 30:-0.122929 31:-0.933355 32:0.286173 33:1.001689 34:-0.590768 35:0.609184 36:0.196814 37:-1.340540 38:-0.208083 39:0.301154 40:-0.648620 41:0.102459 42:0.265206 43:0.304512 44:1.210398 45:-1.549498 46:1.917226 47:-1.281737 48:-0.355180 49:0.580130 50:-0.563515 51:0.380380 52:0.309618 53:1.081208 54:-1.421594 55:-0.627635 56:-1.091941 57:-0.851360 58:0.824203 59:0.301385 60:-0.648202 61:-0.521963 62:-0.813245 63:-0.119019 64:-0.786003 65:-0.815749
-1 1:0.489005 2:-1.185008 3:-1.667530 4:-0.289280 5:0.017498 6:-0.654902 7:-0.541260 8:0.976405 9:2.001665 10:0.933464 11:-0.241143 12:0.284837 13:-0.442321 14:0.505858 15:-0.433294 16:-1.834341 17:-0.810565 18:1.454658 19:0.553967 20:0.547683 21:-1.113677 22:-0.952594 23:-1.405839 24:2.044352 25:1.428694 26:-1.102323 27:0.349979 28:0.184057 29:0.768718 30:0.300341 31:-0.905900 32:-1.382949 33:0.459914 34:0.716231 35:0.144601 36:-0.390358 37:-0.832461 38:-0.484162 39:-0.792524 40:0.527475 41:-0.883570 42:-0.954732 43:-0.607566 44:-1.119808 45:1.719003 46:-2.742599 47:-0.449596 48:0.219288 49:-1.297631 50:0.023597 51:-1.510925 52:-1.418741 53:-1.888504 54:-0.837223 55:0.522789 56:-0.189897 57:-0.258362 58:0.140539 59:-0.848076 60:-1.140121 61:-0.300929 62:-2.076933 63:0.894859 64:1.852416 65:0.363164
-1 1:0.182697 2:0.173999 3:-0.632914 4:-1.458715 5:-0.179406 6:-0.111824 7:0.414654 8:-0.073867 9:-1.528892 10:-0.668625 11:-0.673899 12:0.484427 13:2.045562 14:-0.794542 15:-0.162216 16:-1.170974 17:0.210282 18:2.577594 19:0.454816 20:1.359677 21:1.468509 22:0.892836 23:-1.133649 24:0.115630 25:0.374240 26:1.672514 27:-1.149888 28:-0.872564 29:-0.547859 30:-0.403620 31:0.921077 32:-0.490636 33:1.435284 34:-0.066310 35:-2.297104 36:1.170742 37:0.334318 38:0.717994 39:0.198557 40:-0.046599 41:-1.090288 42:-0.305241 43:0.265219 44:1.220593 45:-0.273180 46:-0.366163 47:1.087445 48:0.508231 49:0.022426 50:0.356906 51:0.412527 52:1.979292 53:-0.603243 54:0.495566 55:-3.752002 56:0.387498 57:0.039296 58:-0.188643 59:-1.136521 60:1.262660 61:0.740662 62:0.564839 63:0.109465 64:-0.563779 65:-0.974400
-1 1:0.722066 2:0.832634 3:1.060395 4:0.082892 5:1.162931 6:0.168096 7:0.706761 8:0.820993 9:0.447955 10:-0.716179 11:0.495578 12:0.901394 13:0.103536 14:0.114137 15:0.491595 16:-1.729086 17:-1.649235 18:0.685872 19:-0.765668 20:0.108221 21:-0.599101 22:-0.926491 23:-0.754643 24:-0.116332 25:-0.212053 26:0.811459 27:-0.925492 28:0.088493 29:1.093697 30:-1.778891 31:-1.785116 32:-0.332322 33:-1.023606 34:0.149443 35:-0.783281 36:0.398561 37:0.633212 38:1.405200 39:0.526365 40:-0.085077 41:1.000867 42:-0.992979 43:1.233922 44:0.366434 45:0.883988 46:-0.104230 47:-0.141298 48:1.455994 49:-0.642459 50:0.780638 51:-0.133701 52:-1.198195 53:-0.856326 54:0.630727 55:-0.784032 56:0.352767 57:0.154417 58:-0.953091 59:-1.324320 60:1.019501 61:-0.553219 62:1.188235 63:0.930524 64:1.244238 65:0.465295
-1 1:-0.651732 2:1.035494 3:0.590467 4:-0.546591 5:-0.314975 6:-0.063526 7:0.514893 8:-0.377576 9:-0.690774 10:-0.221994 11:0.896439 12:0.874452 13:-0.944132 14:1.105337 15:-1.756700 16:-1.464241 17:-1.134813 18:1.118327 19:-1.114871 20:1.250795 21:2.152469 22:-0.666402 23:1.011438 24:0.044206 25:-0.147591 26:-0.342674 27:-0.212687 28:-1.144742 29:1.214030 30:-0.610606 31:0.490437 32:-1.160939 33:-0.645909 34:0.280857 35:-0.129574 36:-0.340640 37:-2.128093 38:0.730100 39:-0.916145 40:1.687741 41:1.136890 42:1.735800 43:-0.766307 44:0.477336 45:-1.738264 46:-1.135403 47:-1.218237 48:0.216202 49:0.953337 50:-1.980545 51:0.050299 52:-0.292962 53:-0.642732 54:-0.398919 55:1.253934 56:0.833291 57:0.985704 58:0.924178 59:-0.024217 60:-0.457896 61:-2.903460 62:-1.075277 63:-1.208133 64:-1.446142 65:0.591320
-1 1:0.074131 2:0.385657 3:-1.535240 4:1.626501 5:0.395696 6:-0.242449 7:1.674151 8:-0.673826 9:1.418172 10:-1.034630 11:0.183397 12:-0.783685 13:0.379542 14:-0.042622 15:3.005520 16:1.235562 17:0.308395 18:-0.622955 19:1.764768 20:-0.921035 21:-0.101571 22:-1.407073 23:0.854469 24:1.134940 25:1.390319 26:-1.390747 27:0.700207 28:2.400375 29:-2.235569 30:-0.308909 31:-1.156797 32:0.732185 33:0.123592 34:0.542434 35:0.157239 36:-1.863382 37:0.100260 38:-2.569474 39:-0.165030 40:0.228755 41:-0.538792 42:-0.603982 43:0.536149 44:-1.197484 45:-1.727772 46:-1.064397 47:0.412935 48:0.758878 49:-0.916567 50:1.690943 51:-1.364381 52:-0.683688 53:0.073922 54:-0.318324 55:0.190531 56:-0.097349 57:-0.077674 58:0.661619 59:-1.176457 60:0.731429 61:0.976607 62:0.957011 63:-0.254500 64:-0.642125 65:-1.064879
-1 1:0.314963 2:0.917460 3:2.651753 4:0.964891 5:0.567699 6:-1.432207 7:-2.047837 8:1.786810 9:0.283296 10:-0.774257 11:0.902454 12:0.683422 13:0.464945 14:-1.070275 15:0.692657 16:0.665505 17:-0.054466 18:-0.872703 19:-1.328599 20:0.244667 21:-0.366364 22:-0.490316 23:-0.075345 24:-0.939694 25:-0.449688 26:0.474511 27:1.189522 28:1.784451 29:-0.415339 30:-0.335116 31:1.984288 32:-1.560205 33:1.566613 34:-0.547514 35:-0.240416 36:-0.557597 37:0.167358 38:0.987523 39:-0.640762 40:-0.648203 41:0.981518 42:1.461353 43:-0.419340 44:-0.056709 45:-0.149353 46:0.142355 47:-1.080791 48:-0.634830 49:-0.529391 50:-0.142210 51:0.949946 52:-1.050434 53:-1.086788 54:-0.258479 55:0.208916 56:0.230990 57:-0.312800 58:0.272425 59:0.055481 60:1.040270 61:-1.266304 62:-1.328092 63:0.689387 64:0.354853 65:0.765224
-1 1:-0.433826 2:0.489287 3:-0.864149 4:0.799589 5:0.260578 6:0.482128 7:0.668629 8:-1.441370 9:1.986747 10:1.137480 11:0.614946 12:-1.020335 13:-0.065286 14:0.683384 15:-0.136496 16:0.543482 17:1.253047 18:0.022160 19:0.148950 20:-1.057521 21:0.744509 22:-1.283531 23:0.156741 24:-1.685316 25:-1.947689 26:1.965007 27:1.328533 28:-0.328222 29:0.460824 30:0.396823 31:-0.167281 32:1.508207 33:0.944549 34:-1.958139 35:-0.371230 36:-0.281751 37:0.718523 38:-1.413481 39:0.648327 40:0.830355 41:1.459614 42:1.429700 43:1.639989 44:-0.384233 45:0.526830 46:-1.304583 47:-0.353902 48:-0.269121 49:-3.169480 50:0.413006 51:-0.419256 52:0.153792 53:-1.378690 54:0.517410 55:1.031904 56:1.072031 57:-0.300647 58:0.382099 59:-0.071134 60:-0.774851 61:-0.048186 62:0.820056 63:-0.690694 64:-0.001011 65:2.242796
-1 1:0.264504 2:-0.341364 3:-0.685230 4:1.155453 5:-1.718390 6:-0.527771 7:0.157712 8:-0.643523 9:0.074914 10:-0.418555 11:-0.684310 12:-0.046453 13:0.303754 14:1.461168 15:-1.300037 16:0.325806 17:0.532159 18:-0.857643 19:1.105038 20:-0.639677 21:-0.772412 22:0.693596 23:1.417597 24:1.627950 25:-0.664679 26:-0.427291 27:-1.965343 28:0.312239 29:-0.190159 30:1.271897 31:0.052652 32:-1.095597 33:1.599559 34:-0.456287 35:2.329173 36:-1.036532 37:1.944004 38:-0.112033 39:-0.191768 40:1.880168 41:0.001185 42:0.522430 43:-0.036093 44:2.831776 45:-0.059489 46:0.332099 47:0.004281 48:-0.965428 49:-0.052419 50:0.689099 51:1.259435 52:0.884372 53:-0.216833 54:0.689125 55:0.000946 56:0.552906 57:0.988574 58:-0.289924 59:0.647374 60:-0.676523 61:1.246798 62:-0.571971 63:0.467514 64:0.863624 65:0.080947
-1 1:0.160033 2:-0.778252 3:0.214898 4:1.031139 5:-0.226137 6:0.493522 7:1.014040 8:-1.303078 9:1.012171 10:1.156635 11:-0.119400 12:0.025558 13:-1.327988 14:0.638408 15:-0.467797 16:-0.487641 17:1.022966 18:-0.933101 19:-1.504506 20:-0.538515 21:-0.887405 22:1.076186 23:0.381964 24:-1.735133 25:-0.890249 26:-0.184329 27:-0.489339 28:0.853756 29:0.805971 30:1.928856 31:-1.554540 32:0.625968 33:-0.579937 34:1.257461 35:-0.106192 36:-2.365010 37:0.280733 38:2.007022 39:0.430104 40:0.277637 41:0.550748 42:1.181295 43:0.869362 44:0.099098 45:-0.698881 46:0.744959 47:-1.207502 48:0.501060 49:-1.166791 50:-0.829316 51:1.186868 52:1.877094 53:-1.247197 54:0.679496 55:-0.214226 56:-1.956358 57:2.169757 58:-0.856725 59:0.284510 60:1.344028 61:-0.495826 62:-0.243494 63:-0.732992 64:-1.095603 65:0.363090
-1 1:-0.663967 2:0.447863 3:2.576531 4:-0.579063 5:-1.508772 6:2.527163 7:1.193164 8:-0.087567 9:-2.172143 10:-1.103267 11:-0.225876 12:0.219295 13:-0.498283 14:-0.288809 15:0.887151 16:-0.246506 17:-0.639832 18:-0.120597 19:0.699908 20:1.133306 21:-0.965311 22:1.792623 23:1.036348 24:0.128927 25:-2.488772 26:-1.097401 27:-0.890332 28:1.118958 29:-0.732596 30:-0.295803 31:1.089223 32:-0.991903 33:0.742028 34:0.446741 35:1.826046 36:-0.139406 37:0.105034 38:1.126110 39:0.171148 40:1.689547 41:0.818320 42:-0.965498 43:-0.961218 44:1.352188 45:1.180268 46:0.785544 47:-0.400069 48:-0.652905 49:-0.350781 50:-1.728245 51:2.081587 52:-0.467291 53:0.202863 54:1.228460 55:0.282321 56:0.928800 57:0.693411 58:0.474944 59:1.072272 60:-1.421364 61:0.925103 62:0.694821 63:-0.701089 64:1.922577 65:0.546937
-1 1:-0.872955 2:-0.242620 3:0.456054 4:1.112431 5:0.031363 6:0.262867 7:-1.104896 8:-1.958302 9:0.052458 10:2.119500 11:1.061230 12:-1.423191 13:-0.149071 14:-1.445887 15:-2.127692 16:-0.555417 17:-1.534152 18:-1.419900 19:-0.121684 20:-0.855583 21:1.127450 22:0.468328 23:0.326706 24:-1.523336 25:0.160231 26:0.747251 27:0.365439 28:-1.000664 29:0.765710 30:-0.030705 31:1.294661 32:-0.110910 33:-0.488777 34:-0.048781 35:0.443287 36:0.107291 37:-0.729612 38:0.674332 39:-0.136416 40:0.880256 41:0.353771 42:-1.818659 43:1.115292 44:-0.524866 45:-0.559755 46:-1.767645 47:0.704115 48:-0.730781 49:-1.332478 50:0.029188 51:-1.325740 52:1.113350 53:0.683495 54:-0.211898 55:-1.149589 56:1.189705 57:-0.899708 58:1.921256 59:-0.012305 60:-0.145255 61:-0.192956 62:1.511316 63:0.390225 64:-0.600334 65:-1.186922
-1 1:-1.836768 2:0.892455 3:2.113364 4:0.689996 5:0.830186 6:0.852576 7:2.132611 8:0.247999 9:-0.053640 10:0.530784 11:1.243524 12:-0.897203 13:-0.330596 14:0.198032 15:-0.256424 16:0.704618 17:0.166026 18:-0.029148 19:-0.285110 20:-0.596540 21:1.927848 22:-0.305982 23:-0.854122 24:0.880291 25:-0.139194 26:-0.862216 27:0.916104 28:1.180999 29:0.215033 30:1.019342 31:0.801142 32:-0.563550 33:-0.215327 34:-1.256191 35:-0.706740 36:0.393914 37:0.603117 38:-0.793156 39:-1.992997 40:0.068025 41:1.577977 42:-1.158207 43:1.065515 44:-1.410347 45:0.574248 46:1.937567 47:-0.983525 48:-0.947645 49:-1.837972 50:0.147588 51:-0.539255 52:0.342210 53:1.112333 54:-1.885956 55:-0.851491 56:-1.455792 57:-0.231697 58:0.717964 59:0.561075 60:-1.477985 61:-1.808745 62:1.656540 63:0.674064 64:0.049188 65:-0.117294
-1 1:-0.618717 2:0.789688 3:-0.903300 4:0.245493 5:0.709286 6:-0.247529 7:-0.388383 8:-0.303293 9:-0.157844 10:-0.161436 11:0.191360 12:-1.063350 13:-0.034222 14:-0.137320 15:-0.261014 16:-0.503888 17:0.420056 18:0.296161 19:-0.697384 20:0.634223 21:0.967857 22:-0.478471 23:0.131526 24:-0.249552 25:-1.653492 26:0.253937 27:-0.628869 28:-0.480344 29:0.266046 30:-0.742421 31:-1.740926 32:0.800078 33:2.157389 34:1.261104 35:-0.848375 36:1.787412 37:-0.924691 38:-0.242945 39:-0.244708 40:-1.237160 41:0.022594 42:0.444517 43:0.443608 44:1.470495 45:0.518175 46:0.494863 47:2.203061 48:-0.249129 49:0.691237 50:-1.199031 51:0.066478 52:0.594120 53:1.888042 54:0.328603 55:1.216377 56:-0.886079 57:0.417908 58:-1.557489 59:0.825735 60:1.432743 61:0.565302 62:0.685433 63:2.455418 64:-1.386235 65:-1.115584
-1 1:-0.765603 2:-1.128648 3:-1.696959 4:1.160929 5:-0.618115 6:1.177790 7:-1.768814 8:1.918424 9:0.775815 10:-0.998005 11:1.662836 12:0.144345 13:0.124590 14:0.983459 15:-1.436689 16:-1.220699 17:-1.109658 18:-1.114361 19:0.056752 20:-0.172751 21:0.029359 22:0.566697 23:-0.164834 24:-0.728993 25:-0.630164 26:1.565311 27:1.189089 28:-2.683565 29:-0.776327 30:-2.407865 31:0.615984 32:-1.051808 33:0.596808 34:0.184273 35:-1.272355 36:-1.403568 37:0.622415 38:-0.091855 39:-2.010863 40:-1.311941 41:-0.743057 42:-0.547041 43:0.687397 44:-0.830016 45:1.785735 46:0.023157 47:0.094650 48:-0.917975 49:0.981924 50:0.155644 51:-0.390212 52:-0.185074 53:0.466800 54:-1.019816 55:-1.272207 56:-1.086091 57:0.372359 58:-1.734166 59:0.697280 60:0.049859 61:0.154944 62:-0.111208 63:0.590399 64:1.394761 65:0.555241
-1 1:-0.924242 2:-1.052317 3:0.150963 4:-0.992328 5:0.452884 6:0.074043 7:-1.612561 8:1.060631 9:-0.634481 10:1.677376 11:1.168205 12:-0.957471 13:-0.905928 14:1.747256 15:-1.420052 16:-0.173110 17:-1.424611 18:-0.627276 19:-0.687849 20:1.069660 21:0.052169 22:-0.820901 23:-0.276807 24:1.027190 25:-0.299666 26:1.422349 27:-0.455279 28:-0.133823 29:1.260133 30:-0.560804 31:-0.260054 32:1.546265 33:-0.387554 34:-0.597994 35:-1.125334 36:0.312171 37:0.410916 38:-0.391812 39:-0.243590 40:1.446141 41:0.090714 42:-1.508843 43:1.552713 44:0.025747 45:1.518819 46:0.310935 47:-0.208991 48:0.805280 49:-0.750044 50:0.523521 51:-0.326998 52:-2.028707 53:-1.083304 54:-0.668865 55:0.728750 56:0.649421 57:0.663712 58:-2.127521 59:0.002950 60:1.397448 61:0.581492 62:1.184221 63:1.578817 64:-0.007571 65:-2.058273
-1 1:-1.540676 2:0.319555 3:-0.443416 4:1.153056 5:-0.619544 6:0.732145 7:0.205882 8:-0.045600 9:-0.088674 10:-0.690038 11:-1.812196 12:0.808497 13:0.129983 14:-0.476441 15:1.013435 16:-1.496425 17:1.444055 18:-0.592540 19:-2.223115 20:-0.798053 21:1.166751 22:-0.755494 23:-1.820143 24:2.738487 25:-1.440547 26:-0.767999 27:1.033815 28:-0.107438 29:0.132600 30:0.682641 31:1.328059 32:0.104566 33:0.570454 34:0.309348 35:-0.956249 36:-1.310251 37:-1.055779 38:-0.860850 39:-0.389791 40:-0.272613 41:1.531939 42:0.055179 43:2.824276 44:-0.317009 45:0.905032 46:-1.943669 47:0.094680 48:0.853667 49:0.256371 50:-2.795872 51:-0.342151 52:-1.193808 53:0.200082 54:-1.058297 55:0.346222 56:0.042833 57:1.255093 58:0.349985 59:0.004355 60:-0.514273 61:1.657172 62:0.417186 63:0.572006 64:0.571425 65:2.217174
-1 1:0.447392 2:0.299898 3:-0.707325 4:-0.724158 5:-0.877994 6:-0.981018 7:-0.063621 8:-0.025150 9:0.181440 10:-0.707477 11:1.073102 12:0.374022 13:-0.238941 14:1.330226 15:0.595064 16:-0.223927 17:-0.693128 18:-0.056879 19:-0.446572 20:0.806005 21:-0.924991 22:-0.949445 23:-0.003413 24:-1.187839 25:-0.131185 26:-2.050842 27:1.268554 28:0.467742 29:-0.149477 30:-0.898663 31:0.734290 32:-0.297825 33:0.768129 34:0.946818 35:2.715520 36:0.955489 37:0.498411 38:0.047946 39:0.669666 40:-0.560084 41:-0.839234 42:-0.271217 43:-0.398714 44:1.572320 45:-0.287863 46:0.598341 47:0.851507 48:0.089576 49:-2.026509 50:-0.360352 51:-0.756321 52:-1.510082 53:0.635809 54:-0.046683 55:1.403979 56:-3.306804 57:0.583064 58:-0.056591 59:-0.384445 60:0.167065 61:-0.856748 62:-0.640018 63:0.897802 64:-0.215294 65:1.027888
-1 1:0.027862 2:0.046264 3:0.979540 4:1.185329 5:0.095753 6:1.573135 7:-1.500925 8:-0.115439 9:-0.586346 10:-1.045540 11:-0.701510 12:0.011131 13:-0.209930 14:0.466372 15:-1.465752 16:-1.617824 17:-0.461523 18:-0.163574 19:-1.446616 20:2.097211 21:-0.717000 22:-0.379173 23:-0.063878 24:0.253219 25:0.920843 26:-0.024199 27:0.172042 28:-0.877516 29:0.307531 30:-0.390506 31:-0.741717 32:-0.959975 33:-0.836721 34:-0.462001 35:0.778132 36:-0.907542 37:-1.333978 38:-1.121056 39:0.821663 40:0.165794 41:-1.135187 42:-0.306111 43:0.522742 44:-0.548348 45:0.626415 46:-0.333611 47:-0.070873 48:0.679991 49:-0.795954 50:-0.942014 51:1.228193 52:1.924476 53:0.337520 54:0.622584 55:1.190560 56:-1.503332 57:-0.692590 58:0.450942 59:-0.922648 60:-0.727427 61:-1.260356 62:0.950885 63:0.935473 64:0.404510 65:-1.558126
-1 1:0.550732 2:0.581122 3:0.404299 4:-1.600642 5:0.183093 6:0.720066 7:-1.117958 8:0.798945 9:-0.231583 10:1.437515 11:-0.018297 12:0.770183 13:0.903917 14:1.706722 15:0.124693 16:1.576946 17:-0.153193 18:-0.306347 19:-0.177218 20:0.654842 21:-0.113293 22:-0.425246 23:0.904081 24:-0.074242 25:0.307037 26:-1.241645 27:1.361025 28:-1.872368 29:-0.643892 30:-0.731242 31:0.119326 32:-0.897783 33:0.018715 34:0.352844 35:0.240910 36:0.434079 37:-1.566269 38:-0.705776 39:-0.252839 40:1.466849 41:0.363083 42:-0.929613 43:-0.021881 44:-0.873705 45:-0.387705 46:-0.148938 47:0.224195 48:-0.587653 49:-1.286823 50:0.648476 51:0.534634 52:1.839816 53:0.403450 54:0.151814 55:-2.246030 56:0.410428 57:1.255996 58:-0.235970 59:0.187221 60:-0.742877 61:1.955198 62:-0.504781 63:1.240403 64:-0.455992 65:-0.793050
-1 1:0.307440 2:-0.370893 3:0.808650 4:-0.127910 5:2.819959 6:0.230419 7:-0.305964 8:0.510645 9:0.079496 10:-1.696855 11:-1.496874 12:0.042934 13:1.031020 14:0.861855 15:-0.490698 16:0.693034 17:0.852071 18:-0.801356 19:1.088231 20:-0.172116 21:-0.176235 22:-1.588360 23:0.632980 24:0.988904 25:0.098844 26:-0.870401 27:-0.389743 28:-0.649499 29:-0.192332 30:0.547096 31:-0.993677 32:0.569903 33:-0.523166 34:0.432924 35:-0.889388 36:-1.244653 37:-0.299304 38:0.342778 39:-0.708594 40:0.635740 41:-0.518444 42:-1.103917 43:0.271815 44:0.242901 45:-0.544602 46:-0.529270 47:-0.994180 48:0.183589 49:0.596876 50:1.296927 51:-0.995457 52:0.878381 53:1.262651 54:0.968599 55:0.651167 56:0.649160 57:0.986061 58:-1.122644 59:-1.298550 60:0.433868 61:-1.437358 62:1.135827 63:-1.159885 64:0.825376 65:0.633525
-1 1:-0.083478 2:1.489416 3:1.281459 4:0.181244 5:-0.435066 6:-2.270016 7:-0.196515 8:0.092118 9:0.350351 10:0.598700 11:-0.458217 12:0.930988 13:-0.464034 14:-0.400427 15:0.000677 16:-1.018667 17:-1.533517 18:0.000252 19:1.038567 20:1.891285 21:-0.230860 22:0.525264 23:0.988135 24:-0.604785 25:0.830831 26:0.346223 27:0.000907 28:-0.978481 29:0.825793 30:1.368336 31:0.743715 32:-0.339219 33:-0.720258 34:0.643215 35:-0.809694 36:-0.271353 37:-0.786279 38:0.058814 39:-0.998325 40:-1.357025 41:0.319013 42:0.776154 43:-0.020609 44:-0.590956 45:0.558043 46:0.087758 47:-0.594010 48:2.029270 49:-1.227081 50:1.108264 51:0.239416 52:1.260064 53:2.021561 54:0.594611 55:1.519063 56:-0.721355 57:0.063304 58:1.711351 59:-1.076983 60:0.126257 61:1.500888 62:0.172914 63:-1.517153 64:-0.215329 65:-0.226664
-1 1:-0.345239 2:2.124815 3:-0.703525 4:1.540038 5:0.812243 6:-2.060480 7:0.443218 8:1.878257 9:1.907468 10:-0.969679 11:-1.326400 12:-0.173871 13:-0.200225 14:0.477263 15:2.247369 16:0.987603 17:-1.955153 18:1.182862 19:-0.250443 20:1.004740 21:-0.500895 22:-1.954360 23:-0.806062 24:0.049921 25:-0.462616 26:1.389713 27:-1.129507 28:0.235845 29:0.357713 30:1.757219 31:0.001384 32:0.073534 33:-1.733552 34:1.230610 35:0.426351 36:1.674057 37:0.475440 38:-0.435196 39:-1.074657 40:0.170345 41:0.888105 42:-0.539445 43:0.885248 44:1.579125 45:-1.299796 46:-0.996573 47:0.100831 48:1.247637 49:-0.092984 50:0.745633 51:1.171821 52:-0.825597 53:-2.111458 54:0.087060 55:1.255768 56:-0.479413 57:0.032732 58:-0.302407 59:-0.545066 60:0.039041 61:0.395141 62:0.241368 63:0.608020 64:0.494744 65:2.061368
-1 1:-0.120050 2:-0.497959 3:-0.870996 4:1.656426 5:-0.137897 6:0.076408 7:0.755033 8:2.483614 9:-2.444039 10:0.451372 11:-1.179396 12:-1.643671 13:0.506033 14:-0.066853 15:0.412006 16:0.360088 17:-0.134127 18:0.109437 19:-0.624866 20:2.665973 21:0.193923 22:-0.622597 23:-1.147090 24:-0.043902 25:-0.978656 26:1.537620 27:-1.445547 28:1.705000 29:-0.644727 30:1.280684 31:-0.190162 32:0.676414 33:-1.009776 34:0.822804 35:0.674094 36:0.438229 37:-0.467535 38:-0.205056 39:-0.041801 40:-0.935206 41:0.351222 42:-0.460360 43:0.934471 44:-0.023315 45:1.083364 46:0.606945 47:1.586347 48:0.140828 49:1.477775 50:0.186728 51:-0.743110 52:-0.575202 53:-1.393534 54:0.975437 55:0.539210 56:-0.686410 57:1.343117 58:1.856754 59:-1.897070 60:0.842184 61:-0.097992 62:0.236113 63:1.691578 64:-1.921162 65:-0.433750
-1 1:0.014753 2:-0.931329 3:2.679453 4:-1.420121 5:0.240381 6:-0.184198 7:-0.293645 8:-0.945624 9:1.787449 10:-0.043840 11:-0.906192 12:-0.220899 13:-1.055117 14:2.778475 15:-0.416222 16:-0.582911 17:2.416580 18:1.156098 19:0.850529 20:1.115122 21:0.714362 22:-0.119383 23:0.094412 24:0.045332 25:0.828295 26:-0.380943 27:-1.300042 28:0.511756 29:1.023455 30:-1.673649 31:-0.043097 32:0.777099 33:0.237634 34:1.385394 35:-0.540089 36:-1.400206 37:0.100953 38:-0.533379 39:0.632637 40:0.511196 41:0.488180 42:-1.113433 43:0.743116 44:0.564735 45:-0.189925 46:-0.089434 47:-1.030842 48:-0.085715 49:0.031599 50:-0.047398 51:0.188992 52:-0.636103 53:-0.363418 54:-0.048287 55:-0.989161 56:-0.627078 57:1.533240 58:0.458040 59:-1.594245 60:2.070766 61:-0.537445 62:-0.577799 63:-0.590273 64:0.201159 65:-0.505146
-1 1:-0.930658 2:-0.420299 3:0.208763 4:1.116590 5:-1.142286 6:0.338831 7:-0.910966 8:-0.524737 9:-0.718097 10:-0.348701 11:-1.145307 12:0.072870 13:-0.696331 14:1.530310 15:0.472172 16:0.589003 17:-0.855478 18:0.766032 19:-0.869362 20:-0.024576 21:2.141683 22:0.497422 23:-0.119827 24:0.140012 25:0.479757 26:1.207639 27:0.984783 28:1.090004 29:-0.382550 30:-0.642273 31:0.701783 32:0.199403 33:-0.147688 34:0.741655 35:-0.257389 36:0.582514 37:-0.779812 38:0.159343 39:1.290677 40:0.064040 41:1.163312 42:1.616670 43:0.350714 44:-0.214477 45:1.013849 46:-1.743527 47:-1.393866 48:-0.082388 49:-0.311392 50:1.020691 51:0.658625 52:-0.209783 53:-0.827973 54:-0.106729 55:0.093928 56:0.677168 57:-0.469867 58:-1.001735 59:1.266168 60:0.366612 61:0.672081 62:-0.750123 63:0.318103 64:0.194983 65:-2.352104
-1 1:-0.632031 2:1.696970 3:1.718747 4:0.823086 5:0.151374 6:-1.151797 7:0.420113 8:0.335701 9:0.088571 10:0.895330 11:1.329391 12:-0.925953 13:0.387263 14:0.445126 15:-0.533853 16:0.333290 17:0.438298 18:-0.721646 19:0.163150 20:0.438234 21:-0.051296 22:1.138839 23:0.526110 24:-1.743357 25:-1.792386 26:0.886831 27:-0.148545 28:0.122240 29:-0.371232 30:1.393318 31:1.170735 32:-3.247736 33:-0.577084 34:-0.475273 35:0.534984 36:0.174069 37:1.462966 38:-0.392392 39:0.782712 40:-1.372755 41:0.275249 42:-0.184720 43:0.660114 44:-1.292400 45:0.166879 46:-0.262819 47:-0.878983 48:-0.569915 49:-0.149589 50:0.119849 51:0.157001 52:0.347511 53:1.700279 54:1.114211 55:0.734709 56:-2.359155 57:-0.707774 58:0.132550 59:1.328450 60:0.706461 61:-0.001122 62:-1.597540 63:-1.791291 64:-1.087323 65:-0.048851
-1 1:-1.554166 2:0.309910 3:-0.809277 4:1.576554 5:-2.155717 6:-0.395501 7:-1.357508 8:0.356035 9:-1.679828 10:0.514682 11:0.794111 12:-0.833232 13:-0.766689 14:2.317753 15:-0.002091 16:-0.040766 17:0.845872 18:1.103749 19:-0.279400 20:-0.935193 21:0.106751 22:0.670431 23:-1.257532 24:-0.090428 25:0.632603 26:-1.280430 27:-2.133798 28:2.554140 29:0.411394 30:-0.264404 31:0.489556 32:0.556793 33:-1.461715 34:0.726675 35:-0.478999 36:-0.888091 37:-0.135365 38:-0.491285 39:-0.018353 40:-0.322132 41:-0.693985 42:-0.059847 43:-0.242314 44:0.057287 45:1.331819 46:1.019180 47:1.000220 48:0.743658 49:0.714484 50:-0.870271 51:-0.113578 52:-0.773241 53:0.994949 54:-1.495655 55:0.837893 56:0.153496 57:0.860277 58:-0.133597 59:-1.530071 60:1.179012 61:-0.209346 62:-0.946995 63:0.296811 64:0.045748 65:0.399716
-1 1:0.623808 2:0.384526 3:-0.114279 4:0.124506 5:0.084747 6:0.734202 7:0.393678 8:0.043250 9:-0.031168 10:0.218653 11:1.310728 12:0.350844 13:-0.175259 14:0.400844 15:-1.152123 16:0.842471 17:-0.502886 18:-1.315012 19:-0.062095 20:-1.751724 21:0.818234 22:-0.060689 23:0.182478 24:-0.222544 25:-1.141643 26:-0.901112 27:-0.569292 28:-0.901832 29:-0.330364 30:-0.639300 31:-0.627423 32:0.386078 33:0.357502 34:0.266869 35:-1.922337 36:-0.674412 37:-1.719239 38:0.027846 39:1.528110 40:0.467745 41:0.868111 42:0.197409 43:-0.660743 44:0.487314 45:-0.240240 46:0.238468 47:-2.017839 48:-0.129833 49:-0.334094 50:0.539503 51:0.005079 52:0.114382 53:0.167768 54:-1.831177 55:0.126940 56:-0.288015 57:1.739465 58:2.415688 59:-2.372655 60:0.050399 61:-0.025327 62:0.708546 63:0.362398 64:-0.902496 65:0.794434
-1 1:-0.769550 2:-1.160290 3:2.269516 4:-1.668723 5:-0.724022 6:0.006839 7:-1.632888 8:0.745323 9:0.087594 10:-0.607412 11:-1.432003 12:-1.691526 13:-0.221255 14:0.069593 15:0.081758 16:2.001086 17:-1.934035 18:-0.265830 19:2.076565 20:0.971864 21:-0.865182 22:0.251640 23:-0.392788 24:0.003522 25:0.232490 26:1.311291 27:0.928183 28:-1.031182 29:0.951522 30:1.366439 31:-1.594797 32:-0.706496 33:-0.073521 34:-1.540093 35:1.440609 36:2.008721 37:0.065923 38:1.862586 39:-0.465305 40:0.146181 41:0.434710 42:1.869663 43:0.251343 44:0.209541 45:-0.095472 46:-0.443639 47:-0.093656 48:-0.831862 49:-2.041154 50:1.068202 51:-0.539699 52:-3.386465 53:-0.212955 54:-1.062516 55:2.191528 56:-2.198444 57:-0.056071 58:0.841172 59:0.372279 60:0.894377 61:-0.734565 62:-0.299059 63:1.011517 64:0.787747 65:-0.116321
-1 1:1.494179 2:-0.139262 3:0.761716 4:0.878733 5:1.816989 6:0.834817 7:1.241560 8:-0.075965 9:-0.649216 10:0.145125 11:-1.886617 12:1.104639 13:-1.110390 14:1.312397 15:0.342505 16:-0.864302 17:0.137931 18:-2.119390 19:-0.160257 20:0.894058 21:0.791981 22:1.191125 23:0.187827 24:-0.233128 25:1.079861 26:-0.458352 27:-0.401292 28:-0.118508 29:-0.009817 30:-1.782501 31:-0.417423 32:-0.010464 33:-0.400486 34:-0.315956 35:-1.509844 36:-0.056656 37:0.527451 38:-1.073208 39:1.565325 40:0.015576 41:0.611216 42:-0.613998 43:-0.545446 44:-0.540092 45:0.262140 46:-1.228585 47:-3.118084 48:-0.926130 49:-1.056463 50:1.520857 51:-0.243575 52:0.908891 53:-0.246916 54:-0.408383 55:0.973866 56:0.705033 57:-1.271271 58:1.265457 59:1.250377 60:0.255593 61:1.292185 62:1.709352 63:-0.359168 64:-1.039774 65:-0.630889
-1 1:0.394441 2:0.406096 3:0.284661 4:-1.037939 5:1.278239 6:-0.505401 7:-1.278609 8:1.253553 9:1.058515 10:0.209725 11:1.690195 12:-1.062171 13:-1.582079 14:-0.643346 15:-0.101274 16:1.448607 17:-1.188113 18:-0.503206 19:0.525331 20:-0.721865 21:-0.539861 22:2.105922 23:-0.327280 24:-0.215746 25:-0.951080 26:0.927927 27:0.509494 28:0.725250 29:-1.073566 30:-0.580849 31:0.684471 32:0.348098 33:0.346416 34:1.164264 35:-1.013720 36:-0.028039 37:1.191376 38:-0.385519 39:1.258417 40:-1.765672 41:1.580593 42:0.282277 43:0.118156 44:-0.452440 45:-0.095645 46:-0.402522 47:0.882022 48:0.998831 49:0.852423 50:0.742723 51:-0.314441 52:0.737915 53:-0.437653 54:1.186173 55:-1.554676 56:0.071306 57:0.114397 58:-0.483270 59:-0.832802 60:0.300014 61:0.239515 62:1.622829 63:0.053347 64:-0.946643 65:0.647725
-1 1:0.075511 2:1.881895 3:-0.067996 4:1.127960 5:-0.375181 6:-0.628282 7:-0.257635 8:0.461451 9:-0.395790 10:-0.897051 11:0.495764 12:0.744181 13:-0.485738 14:-0.094295 15:0.439207 16:-0.329965 17:0.141245 18:-0.998366 19:1.085147 20:-0.264650 21:-0.332846 22:-0.919527 23:-0.499705 24:1.046555 25:-0.907387 26:1.238035 27:1.683270 28:1.033441 29:2.233382 30:-1.420687 31:0.722396 32:0.360547 33:-1.507270 34:0.362843 35:0.744009 36:0.010689 37:0.795006 38:1.649357 39:-0.353820 40:1.222008 41:0.593880 42:-1.476120 43:0.803456 44:-0.195437 45:-0.368448 46:0.028269 47:0.973221 48:-1.952468 49:1.403835 50:-0.762122 51:0.942974 52:0.316961 53:1.453202 54:-0.673044 55:0.061691 56:1.011879 57:-0.614258 58:-0.245163 59:-1.349305 60:-1.517570 61:0.799677 62:1.414363 63:0.728160 64:1.222408 65:-1.000415
-1 1:-0.203990 2:0.617391 3:-0.793795 4:3.596882 5:-0.481197 6:0.810089 7:0.325401 8:-0.865010 9:0.233337 10:0.912001 11:-1.341565 12:-2.332492 13:1.131725 14:0.313539 15:0.458068 16:0.971928 17:0.361662 18:-0.323327 19:0.354364 20:0.262775 21:-0.067322 22:0.554969 23:-0.368604 24:0.941751 25:-0.152872 26:0.260791 27:-0.015343 28:1.182253 29:0.611811 30:-0.197174 31:0.986675 32:1.148885 33:0.141029 34:1.077045 35:-0.177356 36:0.660391 37:1.198413 38:1.926798 39:0.186445 40:1.336292 41:0.943530 42:0.709025 43:0.643440 44:-0.441711 45:-0.599741 46:-1.154734 47:-0.246244 48:-0.536669 49:-0.410304 50:-1.715276 51:0.387910 52:0.251628 53:-1.732252 54:0.690771 55:0.971149 56:-0.452243 57:0.089015 58:0.768990 59:0.880055 60:-0.181851 61:0.020941 62:0.102643 63:-1.542205 64:0.587037 65:0.867722
-1 1:-0.161628 2:2.809938 3:1.356741 4:-0.388471 5:-2.484776 6:0.975917 7:-0.248909 8:0.639255 9:2.352586 10:-0.839652 11:1.063863 12:1.637247 13:0.018494 14:1.342731 15:-1.251478 16:0.697056 17:1.725756 18:-0.556383 19:0.183625 20:1.502624 21:-0.590817 22:0.110131 23:-0.582518 24:0.406664 25:0.515404 26:0.318313 27:0.087717 28:-0.742918 29:-0.244729 30:-1.521866 31:-2.138991 32:-1.878275 33:-2.314689 34:0.338326 35:-0.128735 36:0.806489 37:0.683184 38:-0.476894 39:-0.526298 40:-0.374047 41:-0.026852 42:-1.229546 43:-0.547725 44:0.225800 45:-0.034375 46:-1.212692 47:1.509360 48:-0.214609 49:2.047880 50:1.283650 51:0.423059 52:1.757297 53:0.401966 54:-0.816961 55:1.309840 56:-0.578550 57:-1.968628 58:1.215086 59:-0.815104 60:0.227555 61:-0.660100 62:-0.420691 63:-0.149245 64:0.646395 65:-0.442550
-1 1:0.879839 2:1.239023 3:0.318972 4:-0.787359 5:-0.013541 6:0.510453 7:-0.108400 8:0.849198 9:-1.339207 10:1.607955 11:0.851554 12:0.949149 13:-1.938687 14:1.297931 15:1.611234 16:0.709622 17:-0.273842 18:0.817289 19:0.073319 20:-0.043163 21:-0.247751 22:0.437072 23:0.977130 24:0.700386 25:0.324643 26:1.284461 27:-1.629035 28:0.484847 29:0.178510 30:-0.236077 31:1.060312 32:-1.036311 33:1.965264 34:-1.236699 35:-1.277142 36:0.320434 37:-0.626053 38:0.027503 39:1.925418 40:1.354364 41:-0.006837 42:-1.119773 43:-0.068479 44:-0.356856 45:1.298510 46:2.437194 47:1.410614 48:-1.334352 49:0.148615 50:1.584134 51:0.125222 52:-1.289972 53:0.871729 54:0.635242 55:-0.402291 56:-1.296171 57:0.256073 58:1.536012 59:0.139262 60:-0.102879 61:0.167101 62:-0.980042 63:0.393109 64:0.520110 65:0.590048
-1 1:-0.818960 2:0.658037 3:-1.119053 4:0.642712 5:1.311831 6:1.057328 7:-0.413824 8:1.525366 9:0.668631 10:-0.562730 11:-1.069632 12:0.142624 13:0.203934 14:-0.365340 15:0.322845 16:-0.494619 17:-1.891571 18:-1.410861 19:-1.737491 20:-0.551739 21:-0.263371 22:-0.756568 23:0.133116 24:-0.568356 25:1.897247 26:1.846101 27:0.995814 28:-1.198738 29:1.611713 30:-0.110759 31:1.132735 32:-0.506237 33:0.151379 34:-2.046604 35:-0.438173 36:-1.161511 37:-1.377587 38:0.671976 39:-0.205807 40:1.761180 41:0.457856 42:0.711778 43:0.049981 44:0.446967 45:-1.711434 46:0.174604 47:0.471576 48:-1.029238 49:0.925825 50:1.446659 51:0.297606 52:-1.216673 53:1.900326 54:1.392747 55:-0.614678 56:-0.972285 57:0.182483 58:-2.049764 59:-0.570305 60:-0.535478 61:-0.790812 62:0.063422 63:-0.548863 64:-0.116583 65:0.455359
-1 1:-0.414410 2:0.322282 3:-1.707475 4:-1.385403 5:-1.277770 6:1.337820 7:0.779174 8:-1.395370 9:0.272816 10:1.423468 11:0.020347 12:-0.262395 13:-0.736416 14:-0.461319 15:-0.785350 16:-0.879722 17:0.594795 18:0.113495 19:-0.215228 20:-0.434387 21:0.466079 22:0.494027 23:1.816165 24:-0.485208 25:0.733748 26:1.796044 27:-0.217043 28:0.055274 29:-0.258543 30:0.315545 31:0.511187 32:-0.631501 33:0.203236 34:-1.976701 35:-1.673522 36:2.304134 37:0.969129 38:1.435269 39:-2.772697 40:-0.218232 41:-0.576138 42:-1.114487 43:-0.515030 44:1.331685 45:-1.190430 46:0.889338 47:-0.508905 48:1.043477 49:0.285951 50:-0.452498 51:1.292449 52:0.579642 53:1.324943 54:1.587710 55:-1.108811 56:0.320068 57:0.429725 58:0.305490 59:0.537437 60:-0.278610 61:2.263780 62:0.403592 63:0.457439 64:-0.348128 65:0.681813
-1 1:-0.208162 2:-0.738218 3:-0.912572 4:-1.155244 5:-0.588266 6:0.264867 7:-0.543994 8:1.348023 9:0.417799 10:-1.773482 11:-0.972790 12:0.904440 13:-0.260440 14:0.550621 15:-0.228793 16:0.427683 17:-0.575453 18:1.810794 19:0.714311 20:0.633132 21:-0.235363 22:1.115431 23:-0.215650 24:0.536248 25:0.352462 26:0.620970 27:-0.596644 28:0.477643 29:-0.432719 30:0.047750 31:-0.263726 32:0.923911 33:0.749961 34:-1.151587 35:-0.285142 36:0.690609 37:1.162877 38:-0.033033 39:-0.385472 40:0.467210 41:-0.291760 42:1.048503 43:0.899997 44:-1.136470 45:-0.945645 46:1.196860 47:-0.956405 48:-0.168996 49:-0.311934 50:0.142010 51:0.007792 52:1.477531 53:2.105665 54:0.432175 55:0.775585 56:0.661314 57:-0.002320 58:-0.424265 59:-0.472415 60:0.881910 61:1.303558 62:0.443319 63:-0.564825 64:0.522746 65:-0.509787
-1 1:-1.365417 2:0.293072 3:-2.171716 4:-0.219008 5:-0.676816 6:2.728909 7:1.015838 8:0.606727 9:-1.211248 10:-0.233562 11:-0.987215 12:-0.276232 13:0.440957 14:-1.279286 15:-3.025621 16:-0.481568 17:0.102580 18:1.058282 19:0.744264 20:-0.099273 21:0.841576 22:0.929846 23:0.124731 24:-1.546753 25:0.404638 26:-1.025250 27:0.131550 28:-1.111034 29:-1.118763 30:-0.204358 31:-0.347531 32:-0.096898 33:0.025120 34:0.017231 35:-0.673668 36:0.035230 37:0.553186 38:0.605803 39:-1.563387 40:0.257855 41:-0.166882 42:0.696009 43:0.653464 44:-1.004113 45:0.530541 46:0.098398 47:-1.104203 48:-0.572297 49:-1.612591 50:-3.291565 51:-0.537990 52:0.613421 53:-1.207738 54:-2.034943 55:0.267759 56:0.416622 57:0.238915 58:-0.970185 59:0.131630 60:0.679867 61:-0.136914 62:-0.678910 63:1.466171 64:1.208002 65:-0.695498
-1 1:1.259529 2:-0.373542 3:1.017591 4:0.891858 5:0.249910 6:1.294327 7:-2.352243 8:1.250609 9:-2.028531 10:0.040994 11:1.761177 12:-1.397641 13:1.910514 14:-2.400512 15:-0.540625 16:-0.753417 17:1.352172 18:0.015448 19:-1.952621 20:0.004113 21:-1.508333 22:-1.926353 23:-1.631427 24:1.150727 25:-0.413245 26:-0.626489 27:1.421767 28:0.875582 29:-1.269893 30:-0.131449 31:0.974302 32:0.750869 33:0.431094 34:3.152778 35:-0.006065 36:0.523487 37:-0.406719 38:0.851240 39:0.523169 40:0.268667 41:0.474364 42:0.220638 43:0.441865 44:-0.378505 45:0.610389 46:-0.455002 47:1.067586 48:0.430840 49:-0.131356 50:2.324599 51:-0.680048 52:-0.264539 53:0.054606 54:1.942857 55:-1.276375 56:-0.472206 57:-0.908489 58:-0.309979 59:1.088441 60:-0.241173 61:-1.271284 62:1.100679 63:-1.111495 64:-1.004303 65:1.230244
-1 1:0.484750 2:-0.456999 3:0.649427 4:-0.119565 5:-0.506642 6:-0.055764 7:1.105845 8:0.070694 9:-0.227508 10:2.531345 11:-0.421299 12:-1.029026 13:-0.325563 14:1.384886 15:0.941254 16:-0.387468 17:0.723397 18:-1.324650 19:0.809430 20:-1.820029 21:0.377321 22:-0.368368 23:-3.138382 24:0.861451 25:-1.300158 26:-0.176953 27:0.482419 28:-1.519370 29:0.847683 30:0.456988 31:0.504319 32:-1.279689 33:0.791148 34:1.946668 35:1.252443 36:-1.834703 37:-1.355076 38:-2.042228 39:0.462914 40:-0.814835 41:1.160916 42:0.268249 43:-0.733058 44:-2.537460 45:-0.661145 46:-1.083055 47:0.337123 48:0.348575 49:0.490811 50:-0.128171 51:0.125982 52:-0.072272 53:1.637216 54:1.261303 55:-1.715769 56:2.018911 57:-0.646259 58:-0.492624 59:1.671176 60:0.579716 61:-2.160987 62:0.283719 63:-0.533657 64:-0.324458 65:-0.273110
-1 1:-0.360294 2:0.419569 3:2.595287 4:0.846263 5:-0.335274 6:-0.088943 7:0.576991 8:-0.369673 9:-1.447087 10:1.234122 11:0.217155 12:0.313836 13:0.619001 14:-0.539095 15:1.428932 16:0.397014 17:-0.335218 18:-0.526003 19:-1.262646 20:-1.540189 21:1.069382 22:-0.429431 23:-0.481587 24:0.132907 25:1.388009 26:-1.097723 27:1.359661 28:0.834707 29:1.894550 30:-0.138612 31:-1.425603 32:-0.657283 33:0.473638 34:-2.110299 35:1.086875 36:0.725275 37:0.844810 38:0.522479 39:0.684050 40:0.855878 41:-0.279507 42:2.594463 43:-0.623315 44:0.928697 45:-0.534913 46:-0.496577 47:1.151601 48:1.175501 49:1.863640 50:-1.375027 51:-0.404568 52:-1.240451 53:1.722860 54:-0.334194 55:0.505121 56:0.035027 57:-0.433217 58:-0.529950 59:0.612104 60:0.819275 61:1.695575 62:1.009130 63:0.372151 64:-0.455334 65:-0.149120
-1 1:-1.064652 2:0.881129 3:-0.103096 4:1.013219 5:-0.193866 6:-0.493624 7:0.751920 8:-0.419014 9:0.049377 10:0.006696 11:2.409552 12:1.230650 13:-0.096616 14:0.017621 15:-1.283006 16:0.921924 17:-1.562714 18:-0.242886 19:1.192385 20:0.358061 21:0.379508 22:1.603608 23:0.140098 24:0.297016 25:-0.370570 26:-0.857448 27:-0.144853 28:1.064514 29:-0.271345 30:-0.304451 31:0.567480 32:-0.055669 33:-1.387780 34:-0.480660 35:0.369452 36:1.493822 37:0.163111 38:0.626923 39:0.008462 40:1.108205 41:1.150132 42:0.258100 43:2.390155 44:-1.076702 45:0.925698 46:-0.356911 47:0.876936 48:1.779439 49:0.498305 50:-1.853187 51:1.807132 52:-1.078884 53:-0.190629 54:-0.791275 55:0.445672 56:0.041932 57:-0.203187 58:0.470846 59:-0.650505 60:0.675049 61:1.536864 62:-0.046849 63:-1.566057 64:-0.998168 65:2.121426
-1 1:0.451591 2:0.833122 3:0.668379 4:-2.051828 5:0.672080 6:-0.204167 7:-0.397349 8:-0.624397 9:1.663155 10:0.508482 11:1.810910 12:-0.685072 13:0.792293 14:-0.737015 15:-1.130099 16:0.959804 17:1.715674 18:0.036120 19:0.034522 20:0.147923 21:-0.633311 22:-1.382079 23:0.973328 24:0.367614 25:0.558461 26:-2.269966 27:-1.699692 28:1.001246 29:-0.000924 30:-0.160937 31:-0.176020 32:0.243717 33:0.307004 34:-0.049212 35:-0.804437 36:-0.097483 37:1.112293 38:0.089780 39:0.292272 40:-0.119512 41:-1.409706 42:-0.771273 43:-0.199884 44:1.239057 45:-0.312643 46:0.816998 47:-0.091436 48:0.154182 49:-0.090510 50:0.732386 51:0.877029 52:0.434580 53:-1.915063 54:1.461278 55:-0.004960 56:1.145647 57:-1.180942 58:0.887758 59:-0.885137 60:0.263664 61:2.104840 62:-0.465123 63:-2.706825 64:-1.116934 65:0.184470
-1 1:1.881766 2:1.423624 3:0.621222 4:-0.933330 5:-0.030966 6:-0.931797 7:-0.745486 8:-0.735410 9:1.529872 10:-0.133780 11:1.074095 12:1.256561 13:-0.289665 14:-0.402128 15:-1.110073 16:0.964643 17:0.896315 18:1.090969 19:-2.254560 20:-1.386549 21:1.866385 22:-1.893970 23:0.624335 24:0.004072 25:-0.027165 26:-0.118822 27:-1.149122 28:0.048435 29:-0.768525 30:-1.309009 31:0.110069 32:-1.087001 33:-0.629293 34:0.791724 35:1.036928 36:-1.800147 37:-0.718189 38:-0.718344 39:0.350731 40:-1.351425 41:-0.076393 42:0.836653 43:0.957271 44:1.404882 45:-0.895072 46:1.569961 47:-0.184078 48:-0.246131 49:-0.387969 50:-0.131152 51:1.713475 52:0.375496 53:-1.185796 54:0.100072 55:-0.731044 56:-1.113583 57:0.112884 58:0.807669 59:-0.505108 60:-0.781535 61:0.354509 62:1.076990 63:0.852946 64:0.025868 65:0.517597
-1 1:-1.165445 2:-0.825042 3:0.069317 4:0.415525 5:-0.181061 6:-1.123487 7:0.883921 8:-0.211238 9:0.518735 10:0.004173 11:-0.070757 12:1.273831 13:1.034646 14:-1.027658 15:-0.348673 16:2.240872 17:-3.102072 18:0.355610 19:-1.280027 20:-1.058870 21:-0.627217 22:-1.602225 23:-0.336159 24:0.369723 25:0.445252 26:0.061361 27:1.111255 28:-0.438831 29:0.619715 30:0.170599 31:-0.679866 32:-1.224413 33:-2.534294 34:0.963794 35:-1.937085 36:-1.462514 37:0.528538 38:1.663150 39:1.104887 40:0.640749 41:0.367529 42:2.200696 43:-0.723867 44:-0.261012 45:-0.140988 46:-1.270631 47:0.721637 48:-0.495240 49:-0.093247 50:-0.583140 51:0.063276 52:0.394794 53:-1.560812 54:2.598592 55:-0.831874 56:-0.821966 57:1.919828 58:0.471278 59:1.097567 60:-0.068597 61:0.387566 62:0.607197 63:0.214327 64:0.070307 65:-0.019702
-1 1:0.175506 2:1.211284 3:-1.293648 4:-3.074626 5:0.568634 6:1.262493 7:0.275948 8:-1.216908 9:-0.033999 10:0.276441 11:-1.541430 12:0.644791 13:-0.285120 14:-0.015290 15:0.451025 16:0.538554 17:1.406593 18:2.389914 19:-0.078667 20:2.325706 21:0.216476 22:0.580079 23:-0.189275 24:-0.026625 25:0.138729 26:1.296377 27:0.247583 28:-0.300242 29:-0.296617 30:1.650511 31:-0.751024 32:0.030830 33:-0.827486 34:-0.450871 35:-0.195705 36:-0.428154 37:1.122099 38:-1.660725 39:0.119262 40:0.069100 41:-0.148920 42:-0.343432 43:-0.942736 44:-0.440701 45:0.448404 46:-0.250194 47:-0.453990 48:-0.154080 49:0.452152 50:1.280999 51:0.072812 52:-0.029734 53:-0.106722 54:0.381971 55:-0.394667 56:0.604061 57:-0.247838 58:0.459957 59:0.280844 60:0.765582 61:0.970745 62:-1.131271 63:-0.744931 64:-0.800476 65:0.215747
-1 1:1.380463 2:-0.766443 3:-0.892532 4:-0.053388 5:0.653768 6:-1.527929 7:-0.196431 8:-0.001962 9:-0.239602 10:0.882811 11:0.377607 12:1.126241 13:-0.008019 14:-0.588029 15:1.185417 16:-1.837198 17:0.852725 18:0.653429 19:-0.067506 20:-0.165269 21:-0.533420 22:1.199037 23:0.704879 24:0.673676 25:-0.239852 26:1.049247 27:-0.835165 28:1.303591 29:-0.252420 30:-2.021512 31:-0.150648 32:1.653714 33:0.120656 34:1.755575 35:-1.153388 36:1.011536 37:0.911948 38:-2.241990 39:0.831644 40:-2.009666 41:-0.138732 42:1.899643 43:1.864925 44:-0.157806 45:1.386496 46:0.034103 47:-1.523566 48:0.718003 49:1.939294 50:0.494302 51:0.063658 52:0.509041 53:-0.111675 54:-0.363774 55:-2.138426 56:1.395456 57:1.178924 58:-0.558621 59:-0.915872 60:0.514764 61:-1.540865 62:-1.532435 63:0.754920 64:-0.098608 65:0.110177
-1 1:-0.570436 2:-0.710348 3:-0.303520 4:0.529940 5:0.957871 6:-1.111783 7:-1.052838 8:-0.242833 9:0.247187 10:0.773660 11:0.555277 12:-0.475333 13:-0.569680 14:1.591294 15:-1.194356 16:0.941414 17:1.422071 18:-0.129153 19:-0.436985 20:0.033518 21:0.558238 22:0.133456 23:-1.831477 24:0.701685 25:1.097436 26:-0.459489 27:1.927590 28:-0.271287 29:-0.809827 30:-1.078484 31:0.553680 32:1.573860 33:-0.121889 34:0.261913 35:1.020618 36:1.913734 37:-1.442050 38:2.169160 39:0.200485 40:-0.862348 41:-0.456704 42:-0.782092 43:-0.172535 44:-0.336599 45:0.601197 46:0.075701 47:0.152387 48:-0.589050 49:-0.140959 50:1.139344 51:-0.879459 52:0.922472 53:-0.267034 54:-0.504171 55:0.342454 56:-0.727994 57:-0.658256 58:-0.219660 59:0.832981 60:0.283336 61:1.492184 62:-0.155567 63:-0.330612 64:-0.040380 65:-0.141585
-1 1:0.672714 2:1.591068 3:-0.572099 4:-0.788020 5:0.092055 6:2.157464 7:0.722102 8:-0.097703 9:0.325675 10:-2.588209 11:0.622181 12:0.037210 13:-1.412429 14:-0.524888 15:0.281281 16:-0.235478 17:-0.259082 18:-1.011068 19:-0.828992 20:-0.147695 21:-1.974094 22:0.590167 23:1.415391 24:1.616536 25:-0.022496 26:-0.313758 27:-0.175068 28:0.852340 29:0.081388 30:-0.196371 31:0.112569 32:-0.721257 33:-0.893230 34:0.306558 35:0.154385 36:-0.194449 37:1.279326 38:0.891808 39:-0.606849 40:0.494618 41:-1.678805 42:0.366957 43:0.860393 44:0.632148 45:-1.130772 46:-0.269920 47:0.209110 48:0.767144 49:-0.564027 50:0.829512 51:-1.122470 52:0.129999 53:0.184544 54:0.771487 55:-1.201782 56:0.536065 57:2.332256 58:-1.194759 59:1.145723 60:1.746601 61:0.433843 62:0.199472 63:1.305836 64:-0.389823 65:1.012574
-1 1:0.943274 2:2.486598 3:0.644997 4:0.914051 5:0.488147 6:-0.576878 7:1.205480 8:0.118563 9:-0.494798 10:0.924210 11:-0.112647 12:0.074950 13:-0.583440 14:-1.096731 15:-0.493251 16:-0.433272 17:-0.352457 18:-0.471782 19:-0.399944 20:-2.418040 21:-0.603715 22:0.093644 23:-0.092788 24:-1.279342 25:1.171664 26:0.061338 27:0.515786 28:0.219318 29:-0.426330 30:-1.461922 31:0.954743 32:0.180909 33:-0.745742 34:-1.117938 35:-0.091479 36:-0.897798 37:-0.786624 38:-1.318992 39:-0.899593 40:2.367311 41:-2.620535 42:1.931664 43:-1.043682 44:1.299488 45:-1.089915 46:-0.492912 47:-1.219833 48:-1.165404 49:0.565418 50:-0.006634 51:1.280409 52:-0.987756 53:1.498385 54:-0.878626 55:1.204279 56:0.066408 57:1.511245 58:-0.738761 59:-1.296183 60:-0.750024 61:0.590749 62:0.681551 63:0.714759 64:-0.326590 65:-0.474040
-1 1:-0.088460 2:1.128669 3:0.054293 4:-1.310302 5:1.427312 6:-1.309762 7:-0.138376 8:-1.356652 9:0.627965 10:-0.137048 11:-0.929205 12:0.579745 13:-0.846430 14:1.488709 15:0.985544 16:0.548295 17:-1.043534 18:-0.354522 19:0.281166 20:0.378490 21:0.727689 22:-0.669368 23:0.933157 24:0.402247 25:1.022969 26:1.027064 27:0.473578 28:1.779743 29:0.267728 30:-0.158972 31:1.628782 32:-1.339587 33:-0.966819 34:0.900537 35:-1.424154 36:-0.989489 37:0.805697 38:-0.714241 39:-0.051397 40:0.220042 41:-0.549536 42:-0.052235 43:0.512798 44:0.071300 45:-1.702345 46:-0.415300 47:-1.070445 48:-0.318202 49:-1.142285 50:0.279716 51:0.382390 52:1.232878 53:1.080572 54:0.735852 55:-1.937478 56:1.363259 57:-0.169933 58:2.851606 59:2.088016 60:0.940408 61:1.290851 62:-1.679390 63:-0.985197 64:0.077542 65:0.999901
-1 1:1.385585 2:0.077809 3:0.937131 4:-0.615080 5:0.710646 6:-1.151773 7:-0.125013 8:-0.142196 9:0.146448 10:1.954698 11:-0.346798 12:0.765055 13:-0.415856 14:-0.731729 15:-0.236402 16:-0.497449 17:0.706381 18:-0.025122 19:0.457784 20:0.627873 21:0.630623 22:0.022543 23:1.830185 24:0.845806 25:0.264103 26:1.250455 27:-0.750140 28:0.112562 29:0.130898 30:-0.320336 31:0.015580 32:0.009581 33:-0.507925 34:0.072538 35:-0.651598 36:0.322521 37:0.153131 38:0.760184 39:-0.619236 40:-0.600957 41:1.065241 42:0.030552 43:0.613791 44:-0.937835 45:-0.251420 46:-1.173904 47:0.889707 48:0.223968 49:-0.533073 50:0.698417 51:0.148951 52:-2.453868 53:1.146036 54:-0.041489 55:0.072189 56:0.474289 57:-1.977666 58:1.164707 59:-0.089148 60:0.473009 61:-1.848885 62:0.753615 63:-1.010500 64:-1.515232 65:1.331937
-1 1:0.544256 2:0.513297 3:-0.608854 4:-0.434664 5:0.954622 6:0.109698 7:-0.163708 8:-2.459302 9:0.606280 10:0.556339 11:-0.640228 12:0.725918 13:1.205984 14:0.270068 15:-0.867417 16:-0.992144 17:-0.276717 18:-2.404775 19:-0.656406 20:-0.157166 21:-0.836460 22:-0.698219 23:-0.483978 24:-1.722444 25:0.903816 26:0.003922 27:-0.270573 28:-0.539080 29:-0.140603 30:-0.518234 31:-1.839673 32:1.698964 33:-1.926434 34:-0.649833 35:1.836530 36:-0.553456 37:0.539431 38:-1.770989 39:1.427505 40:-0.019510 41:-0.369002 42:0.127221 43:0.244247 44:0.642258 45:-2.250587 46:0.323757 47:0.422216 48:-1.374808 49:-0.186039 50:-0.252115 51:-1.302820 52:-1.124199 53:-1.028155 54:1.327023 55:-2.091857 56:-1.130085 57:0.110462 58:0.322090 59:-0.934987 60:-1.141449 61:-0.770403 62:-0.074789 63:-0.171869 64:0.541665 65:-0.996304
-1 1:-0.411870 2:-1.051970 3:0.640311 4:-0.921785 5:-0.615571 6:-1.188632 7:-0.377543 8:-1.637715 9:1.538950 10:-1.857648 11:-1.119156 12:-0.577708 13:-0.602805 14:-0.138130 15:-0.700160 16:0.228553 17:-2.009621 18:-0.574981 19:1.076843 20:-0.121063 21:0.263550 22:-0.621775 23:-0.382443 24:-1.616347 25:-0.554752 26:1.411724 27:2.420598 28:-0.828488 29:-1.006110 30:-0.741729 31:0.429738 32:0.221196 33:0.517134 34:-0.581360 35:-1.041225 36:1.380751 37:0.910997 38:0.818231 39:-0.298995 40:-0.424888 41:1.278958 42:0.103786 43:0.605940 44:-0.279231 45:0.840131 46:-1.839060 47:0.098451 48:1.513587 49:-0.368358 50:-0.565161 51:2.124915 52:-0.492244 53:-0.637347 54:-0.372660 55:1.427700 56:1.359642 57:0.324486 58:-2.526715 59:-0.927105 60:1.594074 61:0.924696 62:0.985143 63:1.435970 64:0.477211 65:-0.062213
-1 1:-0.656818 2:-1.709372 3:0.512114 4:0.607176 5:0.490261 6:-0.912468 7:-0.280898 8:-0.120839 9:-0.289562 10:-1.287258 11:-1.171621 12:-0.433277 13:-0.698877 14:-0.019759 15:2.659806 16:0.162549 17:1.877722 18:-0.535239 19:0.749083 20:1.147447 21:-0.177239 22:0.024733 23:1.053943 24:0.819150 25:-1.494166 26:0.245042 27:-0.145683 28:0.348949 29:1.930273 30:0.309999 31:1.098162 32:0.684684 33:-0.313732 34:-0.123108 35:-0.760866 36:-0.361456 37:1.480897 38:-0.713014 39:-1.252468 40:0.423678 41:-1.911667 42:-1.383872 43:0.983220 44:-0.330058 45:0.316876 46:-1.090675 47:0.452483 48:1.384332 49:1.033103 50:-0.002646 51:1.924295 52:-0.930000 53:-0.960347 54:1.521726 55:-1.359558 56:0.888924 57:2.019492 58:0.519967 59:-0.439392 60:-1.135070 61:1.892475 62:0.375685 63:-0.644713 64:-1.066077 65:1.977626
-1 1:-0.968057 2:0.118424 3:0.474815 4:-0.195083 5:-0.156837 6:1.012483 7:0.273745 8:0.199938 9:-0.719735 10:-0.991874 11:-0.208317 12:-0.043595 13:0.748043 14:-1.194274 15:-0.742294 16:-0.649406 17:1.016636 18:-0.474495 19:-0.905995 20:0.680910 21:-1.002988 22:-0.338461 23:0.120254 24:0.703766 25:-0.419686 26:0.774140 27:0.499096 28:1.155748 29:-0.920304 30:-1.962883 31:0.856445 32:-1.974148 33:1.712120 34:-0.855044 35:2.650992 36:1.232842 37:-0.606532 38:-0.016701 39:0.205323 40:0.453993 41:-1.218784 42:-0.381436 43:0.371884 44:-0.315156 45:-0.402021 46:-0.499218 47:-0.859566 48:1.840045 49:0.807918 50:-1.056578 51:-1.118196 52:0.201985 53:-1.113644 54:-0.511471 55:0.217077 56:-0.153525 57:-0.670201 58:0.252882 59:-0.738847 60:0.607896 61:-1.002131 62:0.033440 63:2.419957 64:-0.579299 65:0.209123
-1 1:-1.448724 2:0.332887 3:-0.383207 4:-1.370093 5:-0.749965 6:0.369849 7:-0.689738 8:-1.078801 9:0.270025 10:-0.525956 11:0.254621 12:-0.108280 13:-1.040232 14:0.067042 15:-0.400664 16:-0.949800 17:0.445474 18:0.087067 19:-0.226066 20:0.135050 21:-0.788715 22:-2.233825 23:-1.933513 24:0.247750 25:-0.916389 26:-0.341106 27:-0.974184 28:-0.326855 29:-0.469332 30:0.358332 31:-0.144646 32:2.072064 33:1.565188 34:1.982651 35:0.167399 36:0.933304 37:-0.405878 38:0.369087 39:0.378880 40:-0.337333 41:0.585981 42:0.424260 43:0.013434 44:1.879592 45:1.606860 46:0.691513 47:-0.969036 48:1.693666 49:-0.873785 50:-1.217649 51:0.148023 52:0.817617 53:-0.151916 54:-0.483342 55:1.225813 56:0.777332 57:1.238818 58:1.103573 59:1.351771 60:-0.119659 61:0.215642 62:-0.496448 63:0.089194 64:0.323046 65:-1.461221
-1 1:-1.796156 2:-1.488739 3:0.177835 4:0.808457 5:0.260262 6:0.836091 7:-0.529632 8:-0.961118 9:-0.382797 10:0.411749 11:-0.335206 12:-0.422809 13:-0.564520 14:-0.221715 15:1.993612 16:-1.250402 17:-0.010130 18:0.214330 19:0.234084 20:-0.935067 21:-1.461331 22:0.565159 23:0.151646 24:0.448773 25:0.387844 26:0.616718 27:-0.123320 28:-0.543982 29:0.249047 30:-0.036015 31:-1.413937 32:0.888715 33:-0.074146 34:-0.556143 35:0.643249 36:-0.349338 37:-0.160134 38:0.422481 39:1.194809 40:1.670904 41:0.130267 42:-0.223160 43:-0.515052 44:0.167385 45:-1.278176 46:0.920386 47:-1.108401 48:0.582851 49:0.312040 50:-1.548539 51:-1.604879 52:0.417046 53:-0.104943 54:0.003393 55:-0.026176 56:0.022494 57:0.874490 58:1.064864 59:-0.638588 60:-0.122041 61:-1.367164 62:2.252283 63:-0.336512 64:0.968044 65:1.348111
-1 1:-0.893515 2:0.479100 3:0.306710 4:-1.192676 5:0.362984 6:-0.135701 7:0.705376 8:0.988480 9:1.522432 10:1.748340 11:-0.920630 12:0.071075 13:1.045915 14:-1.749693 15:-0.490090 16:-0.352942 17:0.137992 18:-0.051778 19:-0.858830 20:-1.145202 21:0.987425 22:0.813021 23:1.871924 24:0.983442 25:-1.250713 26:1.277422 27:-1.279607 28:-1.443534 29:1.644937 30:-0.427145 31:-0.195923 32:-0.933893 33:-0.283869 34:-0.027909 35:-0.012920 36:-0.250555 37:-2.071231 38:0.655399 39:-0.805691 40:1.787676 41:-0.683120 42:1.063997 43:1.198156 44:-0.440707 45:1.641080 46:-0.950287 47:-3.053367 48:-0.107029 49:0.630352 50:0.374501 51:0.639799 52:-0.701069 53:-0.100785 54:0.655519 55:1.177370 56:-1.255702 57:-0.149149 58:-0.219270 59:1.444862 60:-1.321894 61:0.586252 62:0.370246 63:-0.907660 64:1.522172 65:-0.832541
-1 1:-1.380981 2:0.240728 3:-0.130267 4:0.604478 5:-1.238864 6:0.358549 7:0.109127 8:0.944494 9:-0.815266 10:0.699279 11:0.392265 12:-0.059942 13:0.858172 14:-0.825072 15:-1.842531 16:1.264191 17:-2.183568 18:0.951368 19:0.008500 20:0.834713 21:0.666117 22:0.684257 23:0.089436 24:-1.014738 25:-1.425178 26:-0.522104 27:0.646054 28:-0.024486 29:-1.410780 30:0.597617 31:0.120720 32:-0.315024 33:-0.473949 34:-0.917971 35:1.305105 36:0.078771 37:0.538059 38:-1.244694 39:-0.200705 40:0.911556 41:-0.957119 42:0.837277 43:-0.481694 44:-0.578688 45:1.577293 46:0.288696 47:-0.750041 48:0.508686 49:-0.351438 50:-1.124762 51:-0.648543 52:-0.283444 53:0.243015 54:0.539505 55:-1.121219 56:0.866607 57:0.098442 58:0.548090 59:1.400009 60:0.432605 61:-1.009122 62:0.940653 63:1.797136 64:0.479105 65:1.532966
-1 1:1.942248 2:-0.274694 3:0.121867 4:-0.765012 5:0.428880 6:0.980451 7:0.832425 8:0.446326 9:0.439909 10:0.311521 11:-0.763226 12:0.279973 13:-0.023683 14:0.283271 15:-0.432382 16:-1.899135 17:1.753183 18:1.837450 19:-0.912215 20:-0.043881 21:1.238452 22:-0.631366 23:-1.595827 24:-0.775673 25:-0.879327 26:-0.710191 27:0.243469 28:0.772717 29:-1.018631 30:-0.669166 31:-1.082193 32:0.454028 33:-1.923064 34:-0.547922 35:0.916672 36:-0.184485 37:-1.421805 38:0.118206 39:0.360382 40:0.628548 41:-0.197896 42:-0.837865 43:1.591273 44:1.016481 45:1.350693 46:0.709058 47:-0.983399 48:0.271527 49:0.776849 50:0.937030 51:0.052454 52:2.661488 53:1.459022 54:0.580470 55:0.899932 56:-1.175072 57:0.195404 58:-1.625159 59:-0.666020 60:-0.170420 61:0.481552 62:1.688669 63:0.925204 64:-0.867214 65:0.082922
-1 1:-1.518444 2:-0.158440 3:-0.170797 4:-0.729147 5:1.743758 6:0.171797 7:0.894894 8:-1.182101 9:0.227425 10:1.721773 11:-0.621464 12:0.079959 13:1.496556 14:-0.890073 15:-0.387469 16:1.485214 17:0.339611 18:-0.388956 19:-0.977957 20:0.909461 21:0.284512 22:1.071405 23:1.131306 24:0.060561 25:0.082137 26:-0.333287 27:-0.295733 28:0.918355 29:0.778067 30:-0.598491 31:-0.647004 32:0.501680 33:0.154448 34:0.003085 35:0.515303 36:-0.015588 37:-1.634272 38:0.002735 39:-0.472200 40:0.649231 41:0.540290 42:0.795878 43:-0.847927 44:-1.092746 45:-0.287153 46:-0.367603 47:1.098775 48:1.521415 49:-2.367822 50:1.355454 51:-1.089215 52:0.759980 53:-1.663749 54:2.001019 55:-1.105579 56:-1.031361 57:0.193904 58:-1.412879 59:0.625693 60:-0.670157 61:0.215149 62:-0.034713 63:0.346920 64:0.435242 65:-0.858646
-1 1:2.089256 2:1.148247 3:1.590757 4:0.435918 5:1.977289 6:-0.709442 7:0.648987 8:0.856715 9:1.535514 10:-0.281391 11:-1.498031 12:-0.573800 13:1.238399 14:-2.096927 15:-1.398333 16:-0.638464 17:1.138805 18:0.332201 19:-0.097527 20:2.500427 21:-0.997657 22:0.604374 23:1.101809 24:0.293466 25:0.710849 26:-0.343782 27:-0.407312 28:-0.614225 29:1.206740 30:-1.290506 31:-1.243781 32:-0.788043 33:0.553516 34:-0.100506 35:-0.471730 36:-0.596646 37:1.705153 38:-0.106489 39:-0.477012 40:0.089072 41:0.112414 42:-0.015588 43:0.644428 44:-0.087279 45:-0.985128 46:-0.205186 47:-0.578296 48:-0.632579 49:0.335694 50:-0.084404 51:-1.239406 52:-1.775532 53:-1.126312 54:-0.601231 55:0.411764 56:-0.314390 57:-1.207249 58:-0.316928 59:2.189515 60:-0.103426 61:0.615280 62:0.735722 63:-0.039065 64:-1.198608 65:-0.325739
-1 1:-0.829498 2:0.363656 3:0.881915 4:0.717694 5:-0.226822 6:0.170293 7:0.965428 8:-1.293027 9:0.297590 10:-0.896366 11:-1.264020 12:-1.615866 13:0.255195 14:0.315677 15:3.048855 16:0.858656 17:0.130420 18:0.510149 19:0.915130 20:-1.457109 21:0.465829 22:-0.160743 23:0.302163 24:-1.231451 25:-0.276581 26:1.590604 27:0.128899 28:0.351982 29:-0.268278 30:0.457338 31:0.641192 32:-0.179159 33:2.028733 34:-0.700374 35:0.093504 36:-0.914111 37:0.897001 38:2.289791 39:0.134281 40:-0.614875 41:-1.185223 42:0.050270 43:-0.253411 44:0.596079 45:0.987196 46:0.060105 47:0.246970 48:-1.069243 49:0.303518 50:1.203154 51:-0.314893 52:-0.026430 53:0.482294 54:-0.846789 55:1.442378 56:0.076849 57:0.158502 58:0.611596 59:-0.220337 60:-0.466608 61:-0.388540 62:-2.483881 63:-0.920753 64:1.023445 65:-0.339445
-1 1:-1.080226 2:-0.026992 3:-0.426283 4:-1.007591 5:0.143340 6:-1.364428 7:-0.718471 8:-0.187730 9:-0.160107 10:-0.437108 11:0.720706 12:0.775673 13:0.912019 14:0.110679 15:-0.485683 16:0.703091 17:1.751876 18:-1.907908 19:0.156886 20:-0.334684 21:1.056627 22:-0.232874 23:-1.572033 24:-0.386950 25:-0.408518 26:-0.058909 27:-2.218314 28:0.003237 29:0.097172 30:0.410598 31:0.268238 32:1.837008 33:-0.306605 34:1.466028 35:0.636389 36:1.705904 37:-1.756835 38:-0.387448 39:-0.120573 40:0.447613 41:0.355742 42:-0.279346 43:0.164389 44:-1.464485 45:-0.175107 46:0.984152 47:-0.198776 48:-1.941589 49:0.658485 50:0.255777 51:-0.049725 52:-0.548859 53:0.321416 54:-0.449803 55:-1.223656 56:-0.270315 57:-0.359492 58:0.916877 59:0.097447 60:-0.636232 61:-0.497094 62:0.157883 63:1.153141 64:-0.294146 65:-0.512084
-1 1:-1.596549 2:0.142447 3:0.816450 4:0.257648 5:-0.494200 6:-0.614832 7:0.519256 8:0.193663 9:0.404775 10:-1.046333 11:0.990959 12:0.862339 13:2.404006 14:0.650722 15:0.072949 16:-0.489116 17:0.862647 18:0.251198 19:-1.112332 20:-0.980395 21:-0.457532 22:-0.302150 23:-0.226601 24:0.142863 25:1.130226 26:-0.407951 27:-1.135397 28:-0.043171 29:0.855178 30:-1.064590 31:1.598868 32:0.545608 33:-1.750379 34:-0.576156 35:1.817333 36:-0.578083 37:-0.117221 38:-0.953998 39:-0.505444 40:-1.117114 41:0.749634 42:0.452852 43:-0.508279 44:1.210651 45:1.052525 46:0.892162 47:0.018503 48:1.247076 49:-1.758080 50:-1.161831 51:0.735332 52:-0.646202 53:0.729793 54:-0.254140 55:0.766385 56:-0.054614 57:0.273164 58:-1.786528 59:-1.003487 60:1.313165 61:0.047987 62:0.491404 63:-3.198950 64:0.327325 65:0.464931
-1 1:-0.830074 2:1.654625 3:-1.804196 4:-0.188092 5:1.196022 6:1.879088 7:1.038806 8:0.761017 9:-2.096351 10:-0.269749 11:-0.650903 12:2.514951 13:-0.053707 14:0.493229 15:0.481754 16:0.275391 17:0.348011 18:0.052377 19:-0.021452 20:1.027311 21:0.862892 22:-0.584272 23:0.154311 24:0.273970 25:-1.034326 26:0.534511 27:0.407530 28:0.195629 29:0.592911 30:-2.964854 31:-0.902291 32:0.938036 33:-1.097858 34:0.405210 35:1.534799 36:-0.416533 37:-1.201885 38:0.084972 39:-1.126807 40:0.239861 41:-0.815082 42:0.771975 43:0.469039 44:1.267674 45:-2.531414 46:-0.781957 47:0.617184 48:-0.010031 49:-0.936023 50:0.368658 51:1.083561 52:-1.193604 53:1.295867 54:-0.758853 55:0.762114 56:0.137169 57:-0.909169 58:-2.458350 59:-0.497306 60:-1.362909 61:-0.076185 62:0.214861 63:-0.237646 64:0.131264 65:0.753074
-1 1:1.073838 2:1.250093 3:-0.461448 4:1.045824 5:0.571489 6:-0.575807 7:-0.974467 8:-0.235248 9:2.347868 10:1.013770 11:-0.650886 12:-1.143281 13:-1.195848 14:1.206270 15:0.176207 16:0.943662 17:-1.839053 18:-1.794949 19:2.977604 20:-1.275693 21:-1.119766 22:1.380921 23:1.365211 24:-1.547415 25:0.972733 26:0.259222 27:-0.369583 28:-0.276372 29:1.364345 30:0.739486 31:-0.652522 32:1.260198 33:-0.911912 34:0.369905 35:0.442176 36:-0.602619 37:-1.683904 38:-0.771404 39:-0.397535 40:-0.473805 41:0.061598 42:-0.558341 43:1.023982 44:-0.223800 45:0.670047 46:-0.562488 47:0.148593 48:0.314541 49:-0.545339 50:-0.607507 51:-0.125571 52:-0.749878 53:0.139047 54:-0.666742 55:-0.043876 56:0.462109 57:-1.861221 58:1.584974 59:-0.369677 60:0.543420 61:-0.918210 62:0.336060 63:1.655410 64:-0.091683 65:-0.227309
-1 1:-2.889297 2:-1.291906 3:1.052240 4:-0.875165 5:-0.069934 6:2.034906 7:0.058821 8:-0.120613 9:-0.407221 10:-1.193183 11:1.716805 12:-0.761626 13:0.433640 14:-0.627406 15:0.244771 16:-0.025903 17:1.196220 18:1.001241 19:0.397494 20:1.689984 21:0.848185 22:-1.413539 23:-1.564816 24:0.707621 25:0.010493 26:-0.063571 27:-0.582107 28:2.537655 29:0.111168 30:-0.160251 31:-0.508198 32:0.510618 33:-0.622127 34:-0.539604 35:-1.224821 36:-0.582836 37:-0.268832 38:0.602792 39:-0.372362 40:-0.398100 41:1.251052 42:0.629734 43:0.247295 44:-0.341404 45:-0.568244 46:2.223327 47:0.144208 48:0.402387 49:-0.129265 50:-0.710869 51:2.254304 52:0.129410 53:0.192589 54:-0.673370 55:1.039123 56:1.134503 57:-0.004218 58:0.033363 59:0.699596 60:-2.891371 61:-0.875822 62:1.020603 63:-0.674339 64:0.353499 65:-1.232670
-1 1:0.146901 2:-0.051548 3:-0.938755 4:0.471839 5:-1.376851 6:1.238201 7:1.981936 8:-0.737215 9:1.080347 10:-0.537784 11:0.365055 12:0.143917 13:-0.520872 14:0.694432 15:0.389267 16:-0.761346 17:0.281605 18:0.977860 19:1.677832 20:-0.542240 21:1.003940 22:-1.040443 23:-0.209381 24:0.985251 25:-0.372079 26:0.864640 27:-1.588797 28:-2.569661 29:1.107424 30:0.141322 31:-2.675206 32:-0.326215 33:0.104063 34:-0.325476 35:-0.272696 36:0.271422 37:-0.164195 38:-0.546506 39:-0.147823 40:0.656167 41:0.369394 42:0.240704 43:-0.846291 44:0.096766 45:1.157164 46:0.233391 47:0.511257 48:0.142101 49:-1.241051 50:-0.058735 51:-0.632047 52:0.564547 53:1.211045 54:-1.162034 55:-0.087342 56:-2.279332 57:0.215388 58:0.137166 59:0.533113 60:0.488014 61:0.207673 62:1.417988 63:2.799763 64:-0.410169 65:0.852059
-1 1:1.368775 2:-1.166895 3:1.342597 4:1.064545 5:1.442630 6:1.296113 7:0.366254 8:-1.426237 9:-0.328590 10:-1.176885 11:2.207838 12:1.495484 13:0.278066 14:-0.535693 15:1.958063 16:0.163842 17:-1.713177 18:-0.820072 19:-0.309516 20:1.296102 21:-0.092868 22:-0.356144 23:-0.066871 24:2.059831 25:-0.141015 26:1.070780 27:-1.146632 28:-1.760285 29:1.109953 30:0.668230 31:-1.022037 32:-0.492058 33:-0.148850 34:1.184726 35:-0.364042 36:-0.516155 37:0.273323 38:0.119735 39:1.931630 40:-0.079755 41:0.014216 42:1.325330 43:2.260491 44:-1.126283 45:0.079365 46:-0.467778 47:0.219462 48:-0.426204 49:1.089515 50:-0.650736 51:-0.381769 52:-0.934890 53:-2.201114 54:1.632240 55:-0.797147 56:-0.755348 57:0.159984 58:1.093915 59:-0.748948 60:-0.588988 61:2.190848 62:-0.422206 63:-0.413199 64:-0.596642 65:0.152978
-1 1:1.151408 2:0.136094 3:-1.176284 4:-0.558879 5:-0.366333 6:0.357055 7:0.754685 8:1.717152 9:-0.362327 10:-0.527061 11:0.253122 12:-0.702820 13:-0.841504 14:0.502203 15:-0.656307 16:-1.499448 17:0.452803 18:1.047452 19:-0.723016 20:-0.731218 21:1.155471 22:-0.190301 23:0.589466 24:-1.404307 25:0.421758 26:0.932961 27:-0.121567 28:0.102958 29:-1.580343 30:-0.088059 31:1.267485 32:1.368177 33:-0.741232 34:-0.287426 35:-1.586680 36:0.377080 37:0.924593 38:0.280580 39:-1.321244 40:-0.201537 41:-0.894517 42:0.272954 43:2.517476 44:-1.168680 45:0.006440 46:0.766668 47:2.217617 48:-0.291646 49:-0.443693 50:-0.632126 51:0.397531 52:-0.178848 53:-0.851972 54:0.944615 55:-0.633033 56:-1.367143 57:-0.129369 58:0.189602 59:-0.190377 60:-1.796868 61:-0.643138 62:1.723028 63:0.538143 64:-1.600813 65:-1.739127
-1 1:-1.020893 2:0.174857 3:0.259965 4:-0.210396 5:0.485055 6:-1.602622 7:-0.160231 8:1.425728 9:-0.018353 10:-0.006701 11:1.118276 12:-0.654998 13:-0.806067 14:-1.038638 15:0.263745 16:-0.493005 17:-0.890089 18:0.289553 19:-0.957541 20:0.387309 21:-0.357016 22:2.082881 23:0.090995 24:-0.765445 25:-0.766132 26:0.933769 27:0.263173 28:1.396919 29:-0.574465 30:-0.457553 31:0.690517 32:0.869567 33:-0.453879 34:1.260662 35:0.412301 36:0.614160 37:-0.608103 38:0.010406 39:-0.173864 40:-0.351755 41:2.196106 42:-2.547226 43:1.717519 44:-0.026415 45:0.288224 46:-1.742350 47:0.258999 48:1.443076 49:1.315850 50:1.790322 51:-0.465044 52:-1.328588 53:-0.142158 54:-0.044952 55:-0.644139 56:-0.280382 57:1.190927 58:-0.645659 59:0.351205 60:-1.861737 61:-0.068251 62:1.009256 63:-0.196143 64:-0.953816 65:-1.415507
-1 1:-1.203750 2:0.435955 3:0.086109 4:2.018077 5:0.294731 6:-0.388681 7:-1.562064 8:-0.095646 9:0.633486 10:-0.540725 11:2.149415 12:-0.121653 13:-1.166917 14:-1.260330 15:-1.365673 16:0.127939 17:-0.419653 18:0.134632 19:0.993647 20:-0.042848 21:-1.348778 22:-1.047772 23:0.047429 24:1.011882 25:-0.754625 26:-0.041886 27:0.384285 28:0.438057 29:1.858251 30:1.061191 31:0.060337 32:0.845022 33:-0.975460 34:0.979452 35:1.042220 36:-0.121629 37:0.834034 38:0.578355 39:0.001590 40:-1.366035 41:0.060046 42:1.047550 43:1.946503 44:-1.793203 45:2.148548 46:-1.619668 47:-0.476487 48:-1.061440 49:0.549743 50:-0.475941 51:1.011787 52:0.164862 53:1.332904 54:0.367422 55:-1.699329 56:0.150532 57:-0.929464 58:2.068197 59:0.002398 60:0.268451 61:1.332708 62:1.068826 63:0.165841 64:2.058393 65:-1.301168
-1 1:0.576991 2:-0.319363 3:-0.429262 4:-2.016833 5:1.336615 6:-1.641512 7:1.630917 8:1.611504 9:0.831800 10:0.507912 11:0.904147 12:-1.533017 13:1.324698 14:-0.095940 15:-0.084724 16:0.666253 17:0.748513 18:-2.317557 19:-0.652615 20:-1.543514 21:-0.927359 22:-0.058133 23:-0.622925 24:-0.882184 25:0.461515 26:-0.196864 27:0.344860 28:-2.409865 29:-0.403405 30:-1.385098 31:0.040974 32:0.069799 33:-0.869807 34:-0.520790 35:0.832901 36:-0.641632 37:1.327805 38:-0.734674 39:0.249792 40:0.015963 41:-0.426473 42:-0.071842 43:0.964060 44:0.118176 45:-0.960334 46:-0.661753 47:1.275682 48:-1.001183 49:0.571478 50:-0.677790 51:-1.085708 52:-1.206285 53:0.176097 54:0.787481 55:-0.321858 56:-0.456934 57:0.781443 58:-0.182249 59:-0.660268 60:0.762963 61:-0.761246 62:-0.006589 63:0.050888 64:-0.321362 65:-0.331544
-1 1:0.033230 2:-1.231981 3:-0.004800 4:-2.424153 5:0.465214 6:2.125807 7:0.427168 8:-2.589034 9:-1.111785 10:0.346806 11:0.888825 12:1.023776 13:0.102875 14:-0.677414 15:-1.158339 16:1.484422 17:-0.508598 18:3.288137 19:0.553300 20:-1.047961 21:1.343164 22:0.974193 23:-1.798488 24:-0.654934 25:0.273845 26:0.285612 27:0.590079 28:-0.359544 29:0.479563 30:1.216915 31:1.201026 32:-0.376419 33:-1.270213 34:1.793881 35:-2.478649 36:0.879488 37:0.732903 38:0.781916 39:-0.067527 40:-0.234871 41:-1.127009 42:1.750634 43:-0.267163 44:0.758453 45:2.496083 46:0.650516 47:2.317788 48:0.923789 49:-0.273391 50:0.379465 51:0.145118 52:-1.885668 53:1.428275 54:-0.783371 55:-0.635211 56:0.633419 57:0.008141 58:-1.380787 59:1.490836 60:-0.077053 61:0.016272 62:0.231643 63:1.135295 64:-1.488526 65:-1.323508
-1 1:1.226231 2:-0.329531 3:0.519045 4:1.566676 5:0.086038 6:0.025260 7:-0.700476 8:-0.512880 9:-1.957630 10:0.010812 11:1.313154 12:0.524062 13:-1.276522 14:-0.899114 15:2.580700 16:0.586362 17:1.064877 18:-0.992689 19:0.515991 20:0.072950 21:-0.261037 22:0.332625 23:2.167399 24:-2.427535 25:0.725301 26:0.783016 27:0.960281 28:0.792199 29:1.068590 30:1.175556 31:0.988283 32:1.461210 33:1.048005 34:1.070364 35:-0.443271 36:0.423453 37:0.279827 38:0.271003 39:-0.187310 40:0.388381 41:1.790547 42:1.146695 43:-1.017599 44:-0.862214 45:-0.565328 46:-0.726384 47:-1.666821 48:0.588379 49:0.967757 50:-0.558624 51:-0.068474 52:-0.247698 53:-1.528114 54:1.112090 55:-1.878051 56:-1.533197 57:-1.515011 58:1.680098 59:0.234421 60:0.155100 61:-0.649606 62:0.397262 63:-0.643470 64:-0.875290 65:0.955904
1 1:0.099176 2:0.167467 3:-0.030091 4:0.058553 5:-0.094259 6:0.117737 7:-0.128171 8:-0.099508 9:0.066269 10:0.085940 11:0.143483 12:-0.040030 13:-0.118299 14:-0.178716 15:-0.068100 16:0.100028 17:0.143643 18:-0.044247 19:0.102134 20:0.024360 21:-0.033870 22:-0.102959 23:-0.003599 24:0.009884 25:0.009780 26:0.274619 27:0.051990 28:0.135816 29:-0.134019 30:-0.213792 31:-0.020832 32:-0.059425 33:0.187722 34:0.043329 35:0.073266 36:-0.031021 37:0.003071 38:-0.082961 39:-0.188530 40:-0.072304 41:0.111327 42:0.087302 43:0.134714 44:-0.064543 45:-0.017358 46:-0.150128 47:-0.015794 48:-0.058375 49:0.218276 50:0.386404 51:0.135553 52:-0.175282 53:-0.037177 54:0.010210 55:-0.202195 56:0.086200 57:0.127976 58:0.229836 59:-0.057036 60:-0.065846 61:-0.002571 62:-0.096926 63:-0.110054 64:0.012937 65:0.223916
1 1:-0.031122 2:0.168382 3:0.094448 4:0.044210 5:-0.117402 6:-0.211194 7:-0.105559 8:0.016397 9:0.100753 10:0.171171 11:0.221255 12:0.004366 13:-0.158052 14:-0.156946 15:-0.125528 16:0.162041 17:0.055036 18:0.171279 19:0.085719 20:0.087900 21:-0.141255 22:-0.163361 23:-0.095926 24:-0.005340 25:0.146382 26:0.213451 27:0.085537 28:-0.051060 29:-0.033363 30:0.026912 31:0.089225 32:-0.051747 33:0.026644 34:0.153192 35:0.107188 36:0.151179 37:-0.056643 38:-0.240079 39:-0.124610 40:-0.060689 41:-0.005658 42:0.037167 43:0.080989 44:0.003337 45:-0.035430 46:-0.077632 47:-0.203850 48:0.171896 49:0.098489 50:0.243735 51:0.223912 52:0.079947 53:-0.010934 54:-0.206756 55:-0.146728 56:-0.151185 57:0.110088 58:0.186523 59:0.023223 60:-0.129385 61:-0.049794 62:-0.080639 63:-0.054414 64:0.011465 65:-0.056182
1 1:0.178117 2:0.128419 3:0.169831 4:-0.051326 5:-0.094480 6:-0.213211 7:-0.063818 8:0.102510 9:0.100347 10:0.273750 11:0.231638 12:-0.114875 13:-0.107322 14:-0.017222 15:0.057504 16:-0.145762 17:0.017431 18:0.038476 19:0.022350 20:-0.019485 21:-0.081500 22:-0.114290 23:-0.027194 24:-0.051862 25:0.150744 26:0.121242 27:0.034658 28:-0.044737 29:-0.132527 30:-0.014927 31:0.002142 32:0.010786 33:0.131275 34:0.031170 35:0.219446 36:0.043432 37:-0.033873 38:-0.313555 39:-0.019478 40:0.022764 41:0.076336 42:0.031801 43:0.042544 44:0.172053 45:0.001788 46:-0.139000 47:-0.090580 48:-0.102223 49:0.421034 50:0.020545 51:0.003331 52:-0.088029 53:-0.087334 54:-0.185897 55:0.061734 56:0.072953 57:0.171035 58:0.048519 59:-0.056606 60:-0.076403 61:-0.152181 62:-0.044501 63:-0.078478 64:0.054969 65:0.149006
1 1:0.146313 2:0.228760 3:0.106691 4:-0.113129 5:0.015441 6:-0.161633 7:-0.138837 8:-0.045362 9:-0.093790 10:0.147949 11:0.094677 12:-0.192382 13:-0.108974 14:-0.209229 15:-0.086347 16:-0.104642 17:0.056977 18:0.096595 19:-0.001044 20:-0.019996 21:0.044589 22:-0.171215 23:0.013811 24:-0.088937 25:-0.126608 26:0.056041 27:0.058944 28:-0.043336 29:-0.282293 30:0.110265 31:-0.015507 32:-0.082126 33:0.174317 34:0.033010 35:0.038713 36:-0.202297 37:-0.025460 38:-0.006816 39:-0.050407 40:0.100997 41:0.210853 42:0.060297 43:0.016567 44:-0.092514 45:-0.308009 46:0.024974 47:0.044689 48:0.117024 49:0.042048 50:0.266422 51:0.116275 52:-0.073270 53:-0.104544 54:-0.143008 55:-0.012404 56:-0.113752 57:0.220227 58:0.138583 59:-0.089027 60:-0.031631 61:-0.096549 62:-0.110261 63:-0.142451 64:-0.129863 65:0.033209
1 1:0.075116 2:0.073327 3:-0.098707 4:0.048291 5:-0.043269 6:-0.183430 7:-0.115697 8:-0.090639 9:0.072956 10:0.345516 11:0.165126 12:0.002557 13:-0.040466 14:-0.036017 15:0.127583 16:-0.038104 17:0.072657 18:0.130247 19:0.084551 20:0.105475 21:-0.117026 22:-0.285692 23:-0.058998 24:-0.024944 25:0.068506 26:-0.066544 27:0.138188 28:-0.063817 29:-0.242105 30:-0.015534 31:-0.158026 32:-0.081047 33:0.150858 34:0.027166 35:-0.010533 36:-0.039106 37:-0.197574 38:-0.088051 39:-0.190853 40:-0.140701 41:0.138712 42:0.225322 43:0.129493 44:0.164880 45:-0.153506 46:0.004824 47:-0.130246 48:0.116641 49:0.172780 50:0.082655 51:-0.011938 52:0.084468 53:0.013108 54:-0.072898 55:-0.024964 56:-0.070388 57:0.246765 58:0.139508 59:-0.008678 60:-0.089368 61:-0.097932 62:-0.078644 63:-0.009213 64:0.107861 65:0.131595
1 1:-0.005924 2:0.198754 3:-0.055478 4:-0.101484 5:-0.134266 6:-0.293637 7:-0.103605 8:-0.036154 9:0.065819 10:0.107232 11:0.180937 12:-0.107730 13:-0.106344 14:0.051119 15:-0.075814 16:-0.135582 17:0.184452 18:0.101477 19:-0.029822 20:-0.079458 21:-0.198718 22:0.057177 23:-0.183962 24:0.123197 25:0.026878 26:0.112825 27:0.034938 28:-0.213708 29:-0.147016 30:-0.057793 31:-0.192754 32:-0.102989 33:0.127451 34:0.085956 35:0.097648 36:0.090977 37:-0.159653 38:-0.122035 39:0.086562 40:0.061628 41:0.109551 42:0.099674 43:0.201909 44:-0.112275 45:-0.059515 46:-0.143281 47:0.029658 48:-0.037379 49:0.049930 50:0.024303 51:0.056513 52:0.093904 53:0.009579 54:0.024255 55:-0.143278 56:-0.027782 57:0.204586 58:0.286503 59:-0.089012 60:-0.056919 61:-0.200538 62:-0.132560 63:-0.071747 64:0.055917 65:0.152292
1 1:0.142589 2:0.167276 3:-0.026435 4:0.061506 5:-0.117201 6:-0.179034 7:0.039980 8:0.012501 9:0.075429 10:0.231004 11:0.036358 12:0.094264 13:-0.065029 14:0.017573 15:-0.131836 16:0.021817 17:0.050433 18:0.124141 19:-0.089461 20:0.107385 21:-0.029250 22:-0.159873 23:0.273593 24:-0.048485 25:-0.142297 26:0.265593 27:0.047719 28:0.131213 29:-0.044435 30:-0.211264 31:-0.092375 32:-0.024936 33:-0.011023 34:0.106800 35:0.073564 36:-0.136297 37:-0.047665 38:-0.069368 39:-0.303073 40:-0.175971 41:0.095715 42:0.056084 43:0.140002 44:0.046379 45:-0.120736 46:-0.001196 47:-0.075531 48:-0.102031 49:0.255607 50:0.310977 51:0.023753 52:-0.106492 53:-0.065223 54:-0.127174 55:-0.122468 56:0.016179 57:0.059202 58:0.063467 59:0.109510 60:-0.105747 61:0.053836 62:-0.089855 63:0.006850 64:0.114410 65:0.078955
1 1:0.088812 2:-0.026268 3:-0.059639 4:0.108246 5:-0.303208 6:-0.002954 7:0.007383 8:0.078929 9:0.297959 10:0.199727 11:-0.024627 12:-0.103355 13:-0.195215 14:-0.039891 15:-0.021378 16:-0.013812 17:-0.035669 18:0.092945 19:0.055576 20:0.037752 21:-0.168968 22:-0.040619 23:0.048620 24:-0.141988 25:-0.036116 26:0.222179 27:0.088143 28:-0.050223 29:-0.221247 30:-0.081516 31:-0.057840 32:-0.056768 33:0.140527 34:0.143416 35:-0.091835 36:-0.013396 37:-0.138534 38:-0.053668 39:0.079400 40:-0.002216 41:0.063626 42:0.156421 43:0.171364 44:0.042786 45:0.053434 46:0.051208 47:-0.176017 48:-0.013115 49:0.148166 50:0.111936 51:-0.075321 52:0.110023 53:-0.204846 54:-0.078175 55:0.008089 56:-0.167568 57:0.243571 58:0.116647 59:-0.090178 60:0.104114 61:-0.061843 62:-0.256549 63:-0.050078 64:0.201785 65:0.020905
1 1:0.047121 2:0.260977 3:0.110864 4:0.032146 5:-0.190742 6:0.003541 7:-0.161149 8:0.027073 9:0.025024 10:0.087125 11:-0.118077 12:-0.013763 13:-0.160944 14:-0.141747 15:-0.050237 16:0.176049 17:0.003737 18:-0.007757 19:-0.076050 20:0.082070 21:-0.148856 22:-0.127197 23:-0.035390 24:0.194398 25:0.090008 26:0.201692 27:0.119780 28:0.043420 29:-0.068093 30:-0.014566 31:-0.186366 32:-0.021378 33:0.043948 34:0.067983 35:0.030700 36:-0.168693 37:-0.226213 38:-0.147371 39:-0.145366 40:-0.122948 41:0.223270 42:0.252177 43:0.080655 44:0.028049 45:-0.123863 46:-0.286187 47:-0.022009 48:-0.063770 49:0.068958 50:0.078143 51:0.121822 52:-0.016194 53:-0.061002 54:-0.077289 55:-0.212378 56:0.052138 57:0.071200 58:0.085517 59:0.029168 60:-0.104702 61:-0.206653 62:0.048772 63:-0.129629 64:0.015891 65:-0.137560
1 1:0.186813 2:0.046236 3:0.040686 4:0.003179 5:0.131552 6:-0.228353 7:-0.223135 8:-0.044936 9:0.133368 10:-0.019451 11:0.025019 12:0.124656 13:-0.038215 14:-0.043142 15:0.002514 16:-0.064121 17:0.119942 18:0.115705 19:0.156423 20:-0.092854 21:-0.142475 22:-0.283941 23:-0.024121 24:0.068033 25:0.128634 26:0.148129 27:0.077856 28:-0.037420 29:-0.003154 30:0.141557 31:-0.040352 32:0.123663 33:0.207721 34:-0.077478 35:0.096380 36:-0.026660 37:-0.127917 38:-0.176323 39:-0.158195 40:0.100297 41:0.061305 42:0.061025 43:0.089159 44:-0.114055 45:-0.111955 46:-0.046389 47:-0.212760 48:-0.120514 49:-0.046827 50:-0.076254 51:0.096037 52:-0.067838 53:-0.144955 54:-0.224962 55:-0.228193 56:0.081837 57:0.166309 58:0.219422 59:0.083914 60:0.114896 61:0.115747 62:0.008911 63:0.081508 64:0.148646 65:0.115162
1 1:0.192992 2:0.219392 3:-0.014885 4:-0.015897 5:0.028043 6:-0.229615 7:0.011366 8:-0.077301 9:0.021706 10:0.139319 11:-0.185928 12:0.023391 13:-0.128369 14:-0.067855 15:-0.128036 16:-0.101272 17:0.157043 18:0.175996 19:0.192315 20:-0.060394 21:-0.114613 22:-0.229507 23:-0.135270 24:-0.030828 25:0.157160 26:0.281122 27:0.069486 28:0.007322 29:-0.139630 30:0.003228 31:-0.119883 32:-0.102256 33:0.005472 34:0.115069 35:-0.022172 36:-0.012477 37:-0.093451 38:-0.227764 39:-0.122169 40:-0.092726 41:0.030819 42:0.304744 43:-0.044359 44:0.110440 45:-0.053101 46:-0.057399 47:-0.022044 48:0.045925 49:-0.042237 50:0.120192 51:0.157393 52:-0.046577 53:-0.122998 54:-0.001278 55:-0.173847 56:-0.091680 57:-0.044669 58:0.030141 59:0.145803 60:-0.076902 61:-0.199315 62:-0.181760 63:-0.030008 64:-0.044712 65:-0.010764
1 1:-0.116881 2:0.134713 3:0.086238 4:0.053718 5:-0.084945 6:-0.118749 7:0.073953 8:0.010978 9:0.001323 10:0.249140 11:0.088189 12:0.066689 13:-0.275347 14:-0.055561 15:-0.207773 16:-0.009139 17:0.221438 18:-0.015883 19:0.104058 20:0.051475 21:-0.200536 22:-0.029663 23:-0.158866 24:-0.135600 25:-0.022177 26:0.271618 27:0.226114 28:0.023463 29:-0.130035 30:-0.002984 31:0.072493 32:0.019005 33:0.152442 34:0.048545 35:0.069841 36:-0.044039 37:-0.118823 38:-0.087791 39:-0.140818 40:-0.094507 41:0.142026 42:-0.046035 43:0.146871 44:0.037530 45:-0.100370 46:-0.179806 47:0.004850 48:-0.008609 49:0.022374 50:0.083003 51:0.174435 52:-0.026983 53:-0.019137 54:0.049459 55:-0.099243 56:0.053046 57:0.036183 58:-0.044155 59:0.216946 60:-0.072459 61:-0.039467 62:-0.332582 63:-0.212877 64:-0.025647 65:0.005631
1 1:-0.000390 2:0.100389 3:0.047640 4:0.078158 5:-0.129997 6:-0.182996 7:-0.154101 8:0.068213 9:0.070333 10:0.161919 11:0.087772 12:-0.076327 13:-0.055627 14:-0.380069 15:0.025376 16:0.027224 17:0.048875 18:0.009488 19:0.124008 20:0.125225 21:-0.031304 22:-0.226067 23:-0.051194 24:-0.001585 25:0.140753 26:0.100313 27:0.044487 28:0.032531 29:-0.060572 30:-0.072725 31:0.037435 32:-0.010541 33:0.225327 34:0.193869 35:0.149513 36:0.127939 37:0.029230 38:-0.204023 39:-0.216238 40:0.029464 41:0.074202 42:0.064395 43:0.136714 44:0.018198 45:-0.205391 46:-0.012265 47:0.025329 48:-0.040246 49:0.219994 50:-0.006862 51:0.095751 52:0.078158 53:0.084331 54:-0.091277 55:-0.325526 56:-0.094375 57:0.105433 58:0.112295 59:-0.020317 60:0.044059 61:-0.192854 62:-0.119520 63:0.099793 64:0.067990 65:0.029424
1 1:0.049570 2:0.184384 3:0.256485 4:0.014268 5:-0.099593 6:0.031407 7:-0.151128 8:0.038183 9:0.094725 10:0.102777 11:0.187988 12:-0.033709 13:0.044692 14:-0.095037 15:-0.259739 16:0.076470 17:-0.019145 18:0.087500 19:0.044363 20:0.088867 21:-0.287849 22:-0.157671 23:-0.018271 24:0.015323 25:0.042381 26:0.026232 27:0.096373 28:-0.092138 29:0.057271 30:-0.093889 31:-0.049870 32:-0.004220 33:0.153449 34:0.209979 35:0.044027 36:-0.156811 37:-0.054349 38:-0.167586 39:-0.044900 40:0.011799 41:0.210695 42:0.007987 43:0.013473 44:-0.109565 45:-0.056635 46:-0.066187 47:-0.083424 48:0.104342 49:-0.113570 50:0.065405 51:-0.046370 52:0.216197 53:-0.194587 54:-0.190084 55:-0.247795 56:-0.062133 57:0.210903 58:0.002715 59:0.076772 60:-0.040880 61:-0.039643 62:-0.005213 63:-0.034523 64:-0.288344 65:-0.090650
1 1:0.101903 2:-0.037782 3:-0.013349 4:0.035332 5:-0.028455 6:0.010435 7:-0.055174 8:-0.035160 9:0.110645 10:0.290184 11:0.144241 12:0.009064 13:-0.019024 14:-0.113412 15:-0.307953 16:0.067413 17:0.018526 18:0.100725 19:-0.011983 20:0.158603 21:-0.113962 22:-0.171471 23:-0.079709 24:-0.025706 25:0.076984 26:0.004663 27:0.190217 28:-0.059619 29:-0.096355 30:-0.155800 31:-0.071256 32:-0.003297 33:0.099356 34:0.146631 35:0.306884 36:0.009785 37:-0.004037 38:-0.107067 39:0.019054 40:-0.096399 41:-0.087572 42:0.254347 43:0.226205 44:0.019292 45:-0.140878 46:-0.234461 47:-0.132814 48:0.038232 49:-0.014492 50:0.094595 51:0.151648 52:-0.081887 53:-0.042891 54:-0.085624 55:-0.145002 56:-0.029666 57:-0.014563 58:0.038339 59:0.255267 60:0.063407 61:-0.143516 62:-0.209417 63:-0.019926 64:-0.001055 65:0.108833
1 1:0.076382 2:0.114331 3:0.280636 4:0.052887 5:-0.184959 6:-0.083419 7:-0.008615 8:0.063525 9:0.314727 10:0.076271 11:0.200732 12:-0.028019 13:0.078623 14:-0.008861 15:-0.071956 16:0.052844 17:-0.014636 18:0.106784 19:0.289469 20:-0.036068 21:-0.181901 22:-0.004977 23:-0.136210 24:-0.039151 25:-0.105075 26:0.110455 27:0.039483 28:0.111261 29:-0.007131 30:-0.218874 31:-0.092838 32:-0.182480 33:0.003006 34:-0.003095 35:0.065451 36:-0.050298 37:-0.142795 38:-0.183795 39:-0.129972 40:0.152308 41:0.064342 42:0.008221 43:0.034317 44:0.018929 45:-0.094694 46:-0.049873 47:0.021821 48:-0.144687 49:-0.039500 50:-0.036539 51:0.097939 52:-0.044484 53:-0.031665 54:-0.049873 55:-0.126668 56:-0.080076 57:-0.186292 58:0.225290 59:0.156109 60:-0.036793 61:-0.035015 62:-0.223874 63:-0.214650 64:0.031452 65:0.165567
1 1:-0.031889 2:0.004420 3:0.205864 4:-0.033317 5:0.000515 6:-0.099239 7:-0.129578 8:-0.134292 9:-0.008270 10:0.073782 11:0.078486 12:0.119075 13:-0.144417 14:-0.207978 15:-0.052674 16:0.180817 17:0.152401 18:0.019891 19:0.226483 20:-0.025557 21:-0.118946 22:-0.134259 23:-0.126260 24:-0.050797 25:0.125382 26:0.262050 27:0.338591 28:0.048894 29:-0.053272 30:-0.121813 31:0.099789 32:-0.048896 33:0.048085 34:-0.077035 35:0.061905 36:0.061326 37:-0.190600 38:-0.036227 39:0.053124 40:0.029847 41:0.113293 42:0.184404 43:0.311291 44:-0.071941 45:0.017195 46:-0.000761 47:0.013990 48:-0.093359 49:0.059720 50:0.053526 51:-0.046479 52:0.021238 53:-0.131613 54:-0.193424 55:-0.181342 56:0.083580 57:0.141226 58:0.117730 59:0.004077 60:0.057568 61:0.168306 62:-0.026124 63:-0.115041 64:-0.073881 65:0.154430
1 1:-0.058653 2:0.188320 3:0.060690 4:-0.008529 5:-0.180815 6:-0.028619 7:-0.047159 8:-0.010149 9:0.061310 10:0.140975 11:0.069351 12:-0.013966 13:-0.206603 14:-0.176706 15:0.003633 16:0.072114 17:0.180711 18:0.078933 19:0.100455 20:-0.103867 21:-0.091182 22:-0.070107 23:-0.145180 24:-0.139681 25:0.099079 26:0.039909 27:0.207955 28:0.042784 29:-0.078348 30:0.065763 31:0.063169 32:-0.066440 33:0.106337 34:-0.016978 35:0.160684 36:0.027722 37:0.021218 38:-0.006770 39:-0.330222 40:-0.177128 41:0.102843 42:0.168459 43:0.098907 44:0.025952 45:0.028853 46:-0.171766 47:0.070982 48:-0.060407 49:0.225823 50:0.149658 51:0.324913 52:-0.035142 53:0.022971 54:-0.111969 55:-0.060040 56:-0.144590 57:0.089096 58:0.035448 59:0.096872 60:0.044985 61:0.042007 62:-0.166670 63:-0.282797 64:0.001314 65:0.096810
1 1:0.266694 2:0.206196 3:0.116094 4:-0.044431 5:0.066306 6:-0.101144 7:-0.059485 8:0.040069 9:0.168783 10:0.157994 11:0.106303 12:-0.038298 13:-0.198647 14:-0.102434 15:0.030078 16:0.062288 17:-0.026209 18:-0.030074 19:0.233809 20:-0.035997 21:-0.110214 22:-0.139419 23:-0.320835 24:0.084626 25:0.127212 26:0.170638 27:0.014333 28:-0.159989 29:-0.056071 30:-0.055612 31:-0.158290 32:-0.076512 33:0.139519 34:-0.033260 35:-0.012608 36:0.007569 37:-0.085482 38:-0.141623 39:-0.005891 40:0.162878 41:-0.003713 42:0.046699 43:0.055192 44:-0.037560 45:-0.104671 46:-0.090627 47:-0.201243 48:0.036614 49:0.224342 50:-0.027768 51:-0.014939 52:-0.121154 53:-0.020627 54:-0.102726 55:-0.189456 56:-0.001984 57:0.089338 58:0.157444 59:-0.021792 60:0.002616 61:-0.144191 62:-0.202401 63:-0.244749 64:0.091821 65:-0.064038
1 1:0.202018 2:0.055906 3:0.001269 4:0.011408 5:-0.086050 6:-0.214309 7:0.066527 8:0.130649 9:0.103252 10:0.326623 11:0.171939 12:-0.041456 13:-0.029931 14:-0.073368 15:-0.046882 16:0.030899 17:0.157591 18:0.000894 19:0.029419 20:-0.182665 21:-0.047617 22:0.009859 23:-0.017584 24:-0.016925 25:0.166318 26:0.040243 27:0.065806 28:-0.206099 29:-0.109469 30:-0.056575 31:-0.115680 32:0.000980 33:0.007470 34:0.030607 35:0.021811 36:-0.161606 37:-0.048307 38:-0.203817 39:-0.115142 40:0.064921 41:0.176894 42:0.211330 43:0.089983 44:-0.039179 45:0.060812 46:-0.056469 47:-0.202591 48:0.094730 49:0.072350 50:0.205686 51:0.251720 52:0.142037 53:-0.054079 54:0.036302 55:-0.060126 56:-0.073585 57:0.195493 58:0.035897 59:0.081379 60:-0.023635 61:-0.010891 62:-0.318135 63:-0.150993 64:0.062003 65:0.077034
1 1:0.088980 2:0.124529 3:0.146447 4:-0.088152 5:-0.127494 6:0.014682 7:-0.018254 8:-0.089846 9:-0.002659 10:0.166261 11:-0.024918 12:0.062111 13:-0.125316 14:-0.099152 15:0.058485 16:0.028506 17:0.079009 18:0.116937 19:-0.006556 20:0.176130 21:0.011380 22:-0.246956 23:-0.064519 24:0.038326 25:0.184562 26:0.312590 27:0.043424 28:-0.118074 29:0.012317 30:-0.052178 31:0.121098 32:0.146687 33:0.179534 34:0.168371 35:0.092236 36:-0.000869 37:-0.124789 38:0.013138 39:-0.135899 40:-0.090910 41:0.208751 42:0.172370 43:0.031529 44:-0.017575 45:-0.043346 46:-0.214522 47:-0.118481 48:0.051026 49:0.251547 50:0.060658 51:-0.151002 52:-0.047235 53:-0.047289 54:0.028892 55:-0.046567 56:0.065051 57:0.076051 58:0.219867 59:0.177703 60:-0.200198 61:-0.017003 62:-0.097166 63:-0.149592 64:-0.194587 65:0.091013
1 1:0.013464 2:0.183363 3:0.092394 4:0.228595 5:-0.039328 6:-0.086748 7:-0.151265 8:0.239020 9:0.149793 10:0.144798 11:0.172972 12:-0.043443 13:-0.056664 14:-0.076735 15:-0.167027 16:0.118129 17:-0.064356 18:0.093401 19:-0.006358 20:-0.031200 21:-0.050368 22:-0.244792 23:-0.131859 24:-0.096714 25:0.002516 26:-0.017938 27:0.076932 28:-0.098421 29:-0.074752 30:-0.264277 31:-0.087813 32:0.045076 33:0.169412 34:0.171433 35:-0.068776 36:-0.009083 37:-0.099733 38:-0.029587 39:-0.144426 40:0.098064 41:0.117600 42:0.127077 43:-0.058215 44:-0.050043 45:-0.069821 46:-0.216731 47:-0.125782 48:-0.130375 49:0.016947 50:0.150467 51:0.093285 52:-0.099932 53:-0.170228 54:0.010775 55:-0.069089 56:0.074972 57:0.020962 58:-0.053519 59:0.231660 60:0.041637 61:-0.109759 62:-0.088612 63:-0.208196 64:-0.200185 65:0.134567
1 1:-0.069661 2:0.092912 3:-0.038266 4:-0.031631 5:0.047728 6:-0.151890 7:-0.008623 8:0.127479 9:-0.150050 10:0.200477 11:0.003807 12:0.113456 13:-0.152075 14:-0.199594 15:-0.112946 16:-0.018531 17:0.288454 18:0.144302 19:-0.046313 20:-0.061115 21:-0.032252 22:-0.145866 23:-0.104877 24:-0.143970 25:0.197733 26:0.112457 27:0.212508 28:-0.040913 29:0.030408 30:-0.152392 31:-0.298961 32:-0.063064 33:0.171706 34:0.097461 35:0.034050 36:0.033698 37:-0.200125 38:0.014115 39:-0.120804 40:0.120602 41:0.073352 42:0.020768 43:0.158649 44:0.053672 45:0.125135 46:-0.170328 47:-0.100237 48:-0.063612 49:0.016564 50:0.147598 51:0.050137 52:-0.101097 53:0.041126 54:-0.101143 55:0.062929 56:0.102300 57:0.183574 58:-0.022852 59:0.181835 60:0.134391 61:0.059397 62:-0.143888 63:-0.063912 64:0.054189 65:-0.172204
1 1:0.226348 2:0.155709 3:0.080860 4:-0.091612 5:-0.156214 6:-0.160112 7:0.046184 8:-0.051288 9:0.147347 10:0.252445 11:0.055285 12:0.057075 13:-0.269572 14:-0.031687 15:0.032641 16:0.158432 17:0.099566 18:0.217466 19:-0.071161 20:-0.070622 21:-0.108437 22:-0.033112 23:-0.059606 24:0.093754 25:0.135783 26:0.270753 27:0.028661 28:-0.071852 29:0.083803 30:-0.076531 31:-0.087033 32:-0.124317 33:0.190706 34:-0.070996 35:0.118965 36:-0.050106 37:-0.000765 38:-0.074739 39:-0.128423 40:0.044494 41:-0.089037 42:0.075726 43:-0.011520 44:-0.141894 45:-0.117737 46:-0.101981 47:-0.202299 48:-0.049051 49:0.016825 50:-0.073193 51:0.005896 52:0.151644 53:0.083943 54:-0.316653 55:-0.104957 56:0.083500 57:0.069314 58:0.156143 59:-0.031177 60:0.060123 61:-0.118330 62:-0.167245 63:-0.068666 64:0.043837 65:0.130746
1 1:0.061337 2:0.045445 3:0.072461 4:-0.051975 5:0.026232 6:-0.024236 7:0.038390 8:-0.142635 9:0.260667 10:0.201895 11:0.132235 12:0.079493 13:0.026121 14:-0.157903 15:-0.055178 16:0.211781 17:-0.033983 18:0.079540 19:0.061877 20:0.112079 21:-0.233935 22:-0.121644 23:-0.003360 24:-0.066072 25:0.044387 26:0.088552 27:0.193985 28:0.094394 29:-0.029096 30:-0.058281 31:-0.122726 32:0.133071 33:-0.150427 34:0.233512 35:0.033712 36:-0.265781 37:-0.166455 38:-0.045760 39:-0.112855 40:-0.025871 41:0.236270 42:-0.033831 43:0.124229 44:0.082748 45:0.004010 46:-0.128892 47:-0.075654 48:-0.123955 49:0.048715 50:0.114484 51:0.297218 52:-0.042460 53:-0.022419 54:-0.047463 55:0.001499 56:0.106208 57:0.181507 58:-0.020759 59:0.091377 60:-0.059671 61:-0.149107 62:-0.172394 63:0.037438 64:0.180128 65:-0.078193
1 1:0.170899 2:0.214844 3:0.095424 4:-0.177324 5:-0.030976 6:-0.157863 7:0.027662 8:0.039273 9:0.158959 10:0.103948 11:0.018476 12:0.034683 13:-0.161204 14:-0.104223 15:-0.058612 16:-0.070215 17:0.015000 18:0.067091 19:0.050512 20:0.034680 21:-0.279412 22:-0.056129 23:-0.214112 24:0.105311 25:0.097212 26:0.238253 27:0.049407 28:0.160286 29:-0.034117 30:-0.229141 31:-0.015431 32:-0.161576 33:0.199050 34:0.044127 35:0.262264 36:-0.052317 37:-0.132030 38:-0.124459 39:-0.082361 40:-0.039231 41:0.066307 42:0.053324 43:-0.055537 44:0.179250 45:-0.007327 46:-0.051530 47:-0.129681 48:-0.017720 49:0.103288 50:0.096186 51:0.204015 52:-0.011495 53:-0.009473 54:-0.244219 55:-0.069211 56:0.102566 57:-0.047459 58:0.017309 59:-0.039059 60:0.055751 61:-0.029834 62:-0.044649 63:-0.157252 64:0.243438 65:-0.068298
1 1:0.260853 2:0.124498 3:0.069781 4:0.046254 5:-0.033705 6:-0.017785 7:-0.088639 8:0.049749 9:0.100114 10:0.146398 11:0.170203 12:0.020243 13:-0.036311 14:-0.205462 15:-0.145486 16:-0.106402 17:0.091758 18:0.045745 19:0.154683 20:0.099072 21:-0.194985 22:-0.172798 23:0.188303 24:-0.093914 25:0.098111 26:0.108503 27:0.173346 28:0.093643 29:-0.002625 30:-0.004748 31:-0.078904 32:0.133776 33:0.023901 34:0.150766 35:0.079670 36:-0.056412 37:0.102180 38:0.143496 39:-0.016072 40:0.045259 41:0.089838 42:0.091182 43:0.161552 44:-0.123158 45:-0.099901 46:-0.226196 47:-0.016408 48:0.003876 49:0.215693 50:0.111261 51:0.065670 52:-0.083529 53:-0.100126 54:-0.033410 55:-0.133325 56:-0.120993 57:-0.103363 58:0.132187 59:0.211447 60:-0.003317 61:-0.297571 62:-0.100805 63:-0.004978 64:0.011823 65:0.221986
1 1:0.077859 2:0.106876 3:0.082309 4:0.158975 5:-0.051431 6:-0.009765 7:-0.022880 8:0.152236 9:0.106826 10:0.111537 11:0.205047 12:0.092109 13:-0.197558 14:-0.083649 15:0.101099 16:0.031837 17:0.044156 18:0.131786 19:0.077171 20:-0.107455 21:-0.067130 22:-0.211553 23:-0.022157 24:-0.073553 25:0.082823 26:0.193289 27:-0.191277 28:-0.020440 29:0.064618 30:-0.055340 31:-0.002309 32:-0.048264 33:0.168570 34:0.219408 35:0.207393 36:0.077611 37:-0.112512 38:-0.227420 39:-0.119090 40:-0.027801 41:0.018247 42:0.247535 43:-0.020254 44:0.069795 45:-0.119347 46:-0.099909 47:-0.198154 48:0.113335 49:0.186549 50:0.221248 51:-0.053171 52:0.055495 53:-0.159534 54:-0.006687 55:-0.046971 56:0.043454 57:-0.040475 58:-0.013646 59:-0.056235 60:0.119988 61:-0.086442 62:-0.304840 63:-0.015404 64:0.146925 65:-0.024551
1 1:0.129390 2:0.111843 3:0.029249 4:0.084567 5:-0.109646 6:-0.157941 7:0.013670 8:0.236926 9:0.099929 10:-0.107637 11:-0.078380 12:-0.053551 13:-0.023370 14:-0.194287 15:-0.050367 16:-0.021836 17:-0.053300 18:0.137943 19:0.083348 20:0.138656 21:-0.010201 22:-0.112995 23:-0.234989 24:-0.116310 25:0.074146 26:0.072505 27:0.077161 28:-0.017099 29:-0.156267 30:-0.088233 31:-0.107302 32:-0.028477 33:0.089390 34:0.164201 35:0.096546 36:-0.076922 37:-0.046998 38:-0.140399 39:-0.280715 40:0.123700 41:0.089188 42:0.007574 43:0.100574 44:0.091684 45:-0.017483 46:-0.263946 47:-0.116507 48:0.089055 49:0.054797 50:0.088046 51:0.126892 52:-0.004397 53:-0.097806 54:-0.025795 55:-0.247760 56:-0.051080 57:-0.102218 58:0.371660 59:0.043591 60:-0.061763 61:-0.145172 62:-0.115118 63:-0.085635 64:-0.011687 65:0.157972
1 1:0.202104 2:-0.031353 3:0.234811 4:-0.100115 5:-0.097780 6:-0.298002 7:0.031587 8:-0.093227 9:-0.035191 10:0.176457 11:0.059451 12:0.025814 13:-0.071190 14:0.007095 15:-0.155540 16:0.052244 17:0.009418 18:0.181652 19:0.087317 20:-0.078104 21:-0.133003 22:-0.155043 23:-0.136022 24:-0.141994 25:0.091998 26:0.185860 27:0.208673 28:-0.097353 29:-0.093726 30:-0.064945 31:-0.027940 32:-0.063930 33:-0.121292 34:0.071052 35:0.159739 36:-0.049470 37:-0.027163 38:-0.113822 39:-0.036284 40:-0.154734 41:0.123862 42:0.029993 43:0.117039 44:0.067125 45:0.096149 46:-0.117393 47:-0.038721 48:-0.068797 49:0.136257 50:0.201902 51:0.007495 52:-0.104771 53:-0.127391 54:0.023982 55:-0.008909 56:0.183243 57:0.207577 58:0.177671 59:0.241671 60:-0.099020 61:-0.203798 62:-0.078653 63:-0.085258 64:0.051595 65:-0.059305
1 1:0.191280 2:0.038168 3:0.111149 4:-0.100482 5:-0.111695 6:-0.104876 7:-0.003192 8:-0.061590 9:0.319495 10:0.069646 11:0.129956 12:0.083826 13:-0.032987 14:-0.149422 15:-0.034133 16:-0.029039 17:0.031375 18:0.137416 19:0.102860 20:0.013482 21:-0.153573 22:-0.129726 23:-0.306097 24:0.113255 25:0.053797 26:0.151415 27:0.181593 28:-0.100368 29:-0.186425 30:-0.089914 31:-0.131590 32:-0.013871 33:-0.021461 34:0.105261 35:-0.014449 36:-0.006435 37:-0.125204 38:-0.121648 39:0.006302 40:-0.008136 41:0.143576 42:0.016684 43:-0.051644 44:-0.000267 45:-0.012219 46:-0.161084 47:0.053116 48:-0.012238 49:0.105051 50:-0.070085 51:0.035638 52:0.099612 53:-0.007932 54:-0.388944 55:-0.015191 56:-0.146315 57:0.102283 58:0.137859 59:0.132392 60:0.096734 61:-0.090666 62:-0.261695 63:0.052360 64:-0.037927 65:-0.129697
1 1:0.065245 2:-0.037662 3:0.014773 4:0.014618 5:-0.045472 6:0.083419 7:-0.027763 8:0.129827 9:0.191532 10:0.143070 11:-0.147295 12:-0.041538 13:-0.035296 14:-0.168033 15:-0.097511 16:-0.211955 17:0.022463 18:0.147006 19:-0.102572 20:0.007766 21:-0.103029 22:-0.290426 23:-0.048900 24:0.007645 25:0.129610 26:0.267346 27:0.044337 28:-0.152789 29:-0.192916 30:-0.046763 31:0.114712 32:0.104822 33:-0.009113 34:0.143851 35:-0.000123 36:0.003116 37:-0.214016 38:-0.030219 39:-0.095864 40:0.146935 41:0.092880 42:0.178745 43:0.155638 44:-0.006210 45:-0.177701 46:-0.001452 47:-0.263894 48:-0.000287 49:0.014321 50:0.037180 51:0.158674 52:-0.154833 53:-0.282737 54:0.030414 55:-0.089421 56:-0.023570 57:0.137951 58:-0.022779 59:0.198882 60:-0.079937 61:-0.046797 62:0.015394 63:-0.030690 64:-0.083271 65:0.123369
1 1:-0.082611 2:-0.076890 3:0.118475 4:-0.055739 5:-0.010427 6:-0.182603 7:-0.186240 8:0.103366 9:-0.019181 10:-0.045212 11:0.189540 12:-0.016042 13:-0.065085 14:-0.091928 15:-0.181960 16:0.016748 17:0.014560 18:0.216832 19:0.174592 20:-0.141572 21:-0.103552 22:-0.028981 23:-0.279720 24:-0.042139 25:0.087407 26:-0.041260 27:0.189663 28:0.065324 29:-0.071020 30:0.049114 31:-0.103132 32:0.089638 33:0.027682 34:0.057876 35:0.054542 36:0.062950 37:-0.116995 38:-0.125670 39:-0.054902 40:-0.029155 41:0.129363 42:0.169558 43:-0.042150 44:0.003025 45:-0.086725 46:-0.010125 47:-0.279667 48:-0.063298 49:0.030856 50:0.170413 51:-0.038719 52:-0.149972 53:0.040343 54:-0.307928 55:-0.222167 56:-0.012590 57:-0.019097 58:-0.163945 59:0.009702 60:0.164097 61:0.025965 62:-0.155734 63:-0.251429 64:0.010223 65:0.132695
1 1:0.048607 2:0.151463 3:0.270058 4:0.089289 5:0.027810 6:-0.201469 7:-0.208270 8:-0.086769 9:-0.031519 10:0.180473 11:-0.018548 12:0.028739 13:-0.077944 14:-0.201520 15:-0.197001 16:-0.134514 17:0.169481 18:0.074750 19:0.079914 20:0.067350 21:-0.006006 22:-0.098375 23:-0.104386 24:0.003286 25:-0.032694 26:0.210603 27:0.169159 28:0.178948 29:-0.084426 30:-0.186984 31:0.100580 32:0.078384 33:0.078840 34:0.089836 35:-0.174691 36:0.048959 37:-0.042343 38:-0.133996 39:-0.124584 40:-0.119644 41:0.136925 42:0.132388 43:0.055168 44:-0.095243 45:-0.167802 46:-0.201276 47:-0.058219 48:0.028630 49:0.221925 50:0.191321 51:-0.084705 52:-0.025793 53:-0.050886 54:-0.163804 55:-0.106548 56:0.060416 57:0.095992 58:0.062664 59:0.067360 60:0.046695 61:-0.050637 62:-0.150096 63:-0.059195 64:-0.033728 65:0.164836
1 1:0.092979 2:0.165836 3:0.249999 4:0.167992 5:-0.092958 6:-0.113846 7:-0.204930 8:-0.125683 9:0.010033 10:-0.022033 11:0.069893 12:0.181177 13:-0.004785 14:-0.046410 15:-0.065893 16:-0.047552 17:0.138879 18:0.168234 19:0.114180 20:-0.044263 21:-0.067398 22:-0.272121 23:0.009470 24:-0.047667 25:-0.067191 26:0.280292 27:0.216164 28:-0.042123 29:-0.123807 30:-0.198871 31:-0.105282 32:0.102279 33:0.002944 34:0.067683 35:0.103144 36:0.136560 37:-0.183489 38:-0.013135 39:0.061345 40:0.141599 41:-0.052847 42:-0.001689 43:0.015727 44:-0.043535 45:-0.106318 46:0.021888 47:0.020540 48:-0.123726 49:0.020915 50:0.143684 51:-0.124820 52:-0.018600 53:0.011928 54:-0.036151 55:-0.103272 56:0.110960 57:0.111973 58:0.229804 59:0.036090 60:-0.022408 61:-0.069761 62:-0.203431 63:-0.240146 64:-0.166290 65:0.104763
1 1:0.189954 2:0.243829 3:0.190606 4:0.052882 5:-0.013038 6:-0.085792 7:-0.022051 8:-0.024741 9:0.120175 10:0.036665 11:0.111743 12:-0.006744 13:-0.013288 14:0.032254 15:-0.038288 16:-0.016882 17:0.152238 18:0.010388 19:0.126996 20:0.023316 21:-0.136789 22:-0.282624 23:-0.056522 24:-0.140806 25:0.171875 26:0.238875 27:0.110260 28:-0.113248 29:-0.145017 30:-0.005363 31:-0.100414 32:-0.135908 33:0.016180 34:0.085580 35:0.208373 36:0.080498 37:-0.002245 38:0.142041 39:-0.250664 40:-0.082453 41:0.160795 42:0.003540 43:-0.074689 44:0.069253 45:-0.163551 46:-0.127529 47:-0.096231 48:0.035106 49:0.008174 50:0.274595 51:-0.121305 52:0.010632 53:-0.107312 54:-0.007483 55:0.108139 56:0.085306 57:0.205098 58:0.094470 59:0.026207 60:-0.114224 61:-0.021984 62:-0.125732 63:-0.063949 64:-0.120921 65:0.212248
1 1:0.050084 2:0.017598 3:0.100534 4:-0.061905 5:0.000636 6:-0.090576 7:-0.114822 8:0.077999 9:0.103838 10:0.188893 11:-0.010807 12:0.026111 13:0.001514 14:-0.153200 15:0.016011 16:-0.031326 17:0.118087 18:-0.020259 19:0.151368 20:-0.019630 21:-0.158622 22:-0.146961 23:-0.030497 24:0.180156 25:0.039003 26:0.088264 27:0.172752 28:0.099700 29:0.012147 30:-0.093923 31:-0.193665 32:-0.001203 33:0.171769 34:-0.073502 35:0.040169 36:-0.028146 37:-0.016050 38:-0.177547 39:-0.232914 40:-0.092996 41:0.054768 42:-0.028877 43:0.234426 44:-0.120562 45:-0.042764 46:-0.032417 47:-0.172092 48:0.035063 49:0.258601 50:0.072924 51:-0.061771 52:-0.051450 53:-0.154440 54:-0.275031 55:0.038909 56:-0.071698 57:-0.001899 58:0.204451 59:0.111078 60:0.258864 61:0.083309 62:-0.068129 63:-0.327413 64:0.039489 65:0.071367
1 1:0.185949 2:0.053424 3:-0.152577 4:-0.046067 5:-0.160280 6:-0.073611 7:-0.150504 8:0.108639 9:0.143237 10:0.116428 11:0.023887 12:0.126918 13:-0.083394 14:-0.052342 15:0.081443 16:0.027973 17:0.192659 18:0.153629 19:0.087872 20:-0.009404 21:-0.173082 22:0.052016 23:0.010368 24:0.041538 25:-0.103083 26:0.167302 27:0.095370 28:-0.131133 29:-0.050720 30:-0.242850 31:-0.059717 32:-0.019870 33:0.176463 34:0.248885 35:0.082330 36:-0.061223 37:-0.090347 38:-0.312366 39:-0.102227 40:-0.016595 41:0.096008 42:0.105470 43:-0.010852 44:-0.155877 45:0.008459 46:-0.076075 47:-0.227887 48:-0.018832 49:0.049184 50:0.089592 51:0.274484 52:-0.046126 53:0.030916 54:0.087378 55:-0.185091 56:0.047174 57:-0.064154 58:0.131480 59:-0.087783 60:-0.123683 61:-0.122136 62:-0.208461 63:-0.097238 64:-0.040543 65:0.021455
1 1:-0.029634 2:0.023328 3:0.048495 4:0.026017 5:-0.138146 6:-0.079688 7:-0.058047 8:-0.012499 9:0.210680 10:0.101681 11:0.036008 12:-0.119230 13:-0.136143 14:-0.206918 15:0.059086 16:-0.201374 17:0.109152 18:0.087045 19:0.143111 20:-0.124779 21:0.010509 22:-0.127788 23:-0.062457 24:0.030891 25:0.158797 26:-0.034350 27:0.172953 28:0.126153 29:-0.092316 30:-0.106972 31:-0.113118 32:-0.111728 33:0.249240 34:0.067944 35:0.144769 36:0.082745 37:-0.208906 38:-0.202450 39:0.070475 40:-0.104000 41:0.079351 42:0.128297 43:0.155526 44:0.189033 45:-0.072758 46:-0.003618 47:-0.214855 48:0.058891 49:0.111546 50:0.171938 51:0.220836 52:-0.091317 53:-0.024753 54:-0.036319 55:-0.075144 56:0.074397 57:0.055151 58:0.027126 59:0.050980 60:0.124616 61:-0.183537 62:-0.302501 63:-0.027313 64:-0.042829 65:0.046706
1 1:-0.079409 2:0.200978 3:0.281249 4:0.134635 5:0.023494 6:-0.030020 7:-0.019119 8:0.025952 9:0.093787 10:0.129690 11:0.000997 12:-0.072299 13:-0.056332 14:-0.114642 15:-0.033032 16:-0.035354 17:-0.074726 18:0.085640 19:-0.006979 20:0.026419 21:-0.136755 22:-0.167856 23:0.001288 24:-0.065119 25:0.017190 26:0.269560 27:-0.122765 28:0.110074 29:-0.094384 30:-0.054597 31:-0.118789 32:-0.010194 33:0.107236 34:0.264257 35:0.262450 36:-0.035077 37:0.120373 38:-0.092634 39:-0.166224 40:0.244139 41:-0.032892 42:0.221018 43:0.072887 44:-0.035158 45:-0.159727 46:0.015810 47:-0.089765 48:0.036385 49:-0.076259 50:0.106738 51:-0.071348 52:0.197949 53:-0.055772 54:-0.117129 55:0.059179 56:-0.259631 57:0.073054 58:0.104034 59:0.122370 60:0.093119 61:-0.187177 62:-0.004727 63:-0.086529 64:-0.095465 65:0.137802
1 1:0.126695 2:0.157368 3:-0.143440 4:0.029754 5:-0.049020 6:-0.012996 7:-0.125509 8:0.070750 9:0.113526 10:0.136803 11:0.110641 12:0.057934 13:-0.164077 14:-0.201543 15:-0.010930 16:-0.052375 17:0.041879 18:0.114724 19:0.069235 20:-0.069463 21:-0.222517 22:-0.034119 23:-0.081208 24:-0.080479 25:0.147833 26:-0.076524 27:0.047926 28:-0.022219 29:-0.074699 30:0.039454 31:-0.064818 32:0.109653 33:0.090890 34:0.060781 35:-0.010933 36:0.057635 37:0.126253 38:-0.116206 39:0.010802 40:0.098848 41:0.034068 42:0.119697 43:0.090711 44:0.008030 45:-0.179980 46:0.108591 47:-0.087148 48:-0.066637 49:0.262958 50:0.044835 51:0.337513 52:0.000413 53:-0.051133 54:-0.013786 55:-0.183140 56:-0.136253 57:0.322414 58:0.125113 59:0.038518 60:0.029062 61:-0.130210 62:0.146104 63:-0.031906 64:-0.151578 65:0.309363
1 1:0.188637 2:0.241910 3:0.063176 4:0.072208 5:-0.240199 6:0.088896 7:-0.131135 8:-0.035431 9:0.101589 10:0.182053 11:0.025828 12:0.046758 13:0.144099 14:-0.211677 15:-0.182059 16:0.015280 17:0.248596 18:0.210509 19:-0.058390 20:-0.041670 21:0.024340 22:-0.098901 23:-0.068209 24:-0.035508 25:0.060683 26:0.124185 27:0.009410 28:0.052967 29:-0.047490 30:-0.046430 31:-0.075172 32:0.181064 33:-0.005381 34:-0.004273 35:0.122030 36:0.002305 37:0.013559 38:-0.198629 39:-0.205589 40:-0.126821 41:0.075319 42:-0.011558 43:0.047259 44:-0.015092 45:-0.060750 46:-0.118329 47:-0.097850 48:0.054203 49:0.062571 50:0.173131 51:-0.089278 52:0.143381 53:-0.076271 54:-0.254378 55:-0.105138 56:0.043773 57:0.109368 58:0.173376 59:0.255906 60:-0.052668 61:-0.084373 62:-0.159615 63:-0.176730 64:0.059492 65:0.003578
1 1:-0.019472 2:0.023255 3:0.123222 4:0.119468 5:-0.017804 6:-0.128078 7:-0.185763 8:0.071463 9:0.157570 10:0.124058 11:0.053087 12:-0.056730 13:0.030450 14:-0.045091 15:0.047972 16:0.073228 17:0.133604 18:0.001957 19:0.169820 20:0.088993 21:-0.141968 22:-0.256582 23:-0.069126 24:0.215867 25:0.016417 26:0.082837 27:0.081293 28:0.031469 29:-0.200555 30:-0.058076 31:-0.076142 32:-0.009424 33:0.194768 34:0.228382 35:0.246603 36:0.242010 37:-0.192884 38:-0.242143 39:-0.128681 40:0.069620 41:0.201349 42:0.121249 43:0.063615 44:-0.100565 45:-0.011405 46:-0.039173 47:0.059361 48:0.118916 49:0.064674 50:0.201435 51:0.219660 52:-0.041324 53:-0.140430 54:0.022969 55:-0.057287 56:0.093500 57:-0.009461 58:0.059021 59:-0.035347 60:-0.036290 61:0.097561 62:0.173941 63:-0.070703 64:0.065484 65:-0.050786
1 1:0.002065 2:0.018103 3:0.058970 4:-0.093881 5:-0.186819 6:-0.079804 7:-0.168527 8:-0.051334 9:0.099590 10:0.077719 11:0.138282 12:-0.162959 13:-0.133020 14:-0.313403 15:-0.044464 16:-0.013789 17:0.148687 18:0.176114 19:-0.093094 20:0.024518 21:-0.126445 22:-0.038842 23:-0.231252 24:-0.012694 25:0.079452 26:0.031312 27:-0.014524 28:0.035064 29:-0.059925 30:-0.265658 31:-0.165237 32:-0.012743 33:0.143406 34:0.095653 35:0.018504 36:-0.026822 37:0.005666 38:-0.230991 39:0.089620 40:0.079494 41:0.090984 42:0.139143 43:0.072860 44:0.185313 45:-0.058322 46:-0.204845 47:-0.164143 48:-0.063130 49:0.015797 50:0.208944 51:0.000054 52:0.036516 53:-0.013229 54:-0.034075 55:-0.065285 56:-0.155189 57:0.187810 58:0.116431 59:-0.058764 60:-0.049944 61:-0.263654 62:-0.159969 63:-0.066399 64:-0.124189 65:0.068778
1 1:0.067014 2:0.041440 3:-0.112833 4:-0.061609 5:-0.239701 6:-0.112534 7:0.085345 8:0.109905 9:0.139896 10:0.167908 11:0.198906 12:-0.037156 13:-0.075679 14:-0.228476 15:-0.204219 16:-0.130311 17:0.159985 18:0.094440 19:-0.060338 20:0.014573 21:-0.179827 22:-0.085751 23:-0.170174 24:-0.091384 25:0.020678 26:-0.029454 27:0.040973 28:-0.059969 29:-0.013210 30:0.094982 31:-0.282653 32:-0.088407 33:0.216553 34:0.058946 35:0.101400 36:-0.253293 37:-0.053525 38:0.010155 39:-0.131089 40:-0.064340 41:0.121498 42:0.108539 43:0.165859 44:-0.103787 45:0.048565 46:-0.124960 47:-0.171050 48:0.263922 49:0.131899 50:0.042037 51:0.066743 52:-0.032305 53:-0.042786 54:-0.097775 55:-0.111474 56:0.109754 57:0.049142 58:0.152073 59:0.143109 60:0.037060 61:-0.033899 62:-0.069436 63:-0.102747 64:0.040341 65:0.082034
1 1:0.021441 2:0.229606 3:0.050169 4:0.113944 5:-0.210514 6:-0.013194 7:-0.120789 8:-0.109573 9:0.059722 10:0.159289 11:0.008383 12:-0.032522 13:-0.117301 14:-0.116494 15:0.117694 16:0.151722 17:0.165057 18:-0.008893 19:0.155207 20:-0.079099 21:-0.003513 22:-0.193077 23:-0.029923 24:0.045492 25:0.007560 26:0.121762 27:0.091554 28:-0.069605 29:-0.211422 30:-0.034376 31:-0.159396 32:0.164687 33:0.084181 34:0.074789 35:0.021113 36:0.083917 37:-0.078231 38:0.031120 39:-0.140093 40:0.137691 41:0.107972 42:0.138887 43:-0.097490 44:-0.018820 45:-0.222199 46:-0.061852 47:0.076711 48:0.039761 49:0.105442 50:0.055084 51:0.080864 52:0.008567 53:-0.180391 54:-0.171391 55:-0.134795 56:-0.026108 57:-0.009704 58:0.066417 59:0.169047 60:0.224245 61:-0.248634 62:-0.165018 63:-0.260258 64:-0.170707 65:-0.058179
1 1:0.161800 2:0.054223 3:0.123932 4:-0.024960 5:0.030549 6:-0.080378 7:-0.137586 8:-0.118298 9:0.032363 10:0.154293 11:0.203555 12:0.053019 13:-0.098080 14:-0.074726 15:-0.097289 16:-0.001020 17:0.091874 18:0.145487 19:0.228140 20:-0.019565 21:-0.232631 22:-0.078711 23:0.120697 24:0.005265 25:0.031409 26:0.216790 27:-0.040954 28:-0.053737 29:-0.060918 30:-0.090756 31:-0.140746 32:0.011812 33:0.183731 34:0.104527 35:0.264116 36:-0.135121 37:-0.221383 38:-0.083480 39:-0.161503 40:-0.088617 41:0.012118 42:0.080618 43:0.197314 44:0.069292 45:-0.169759 46:-0.063998 47:-0.151132 48:0.102968 49:0.129912 50:0.163366 51:0.020089 52:0.068344 53:-0.031148 54:-0.174267 55:-0.164031 56:0.154142 57:0.125521 58:0.116538 59:0.093284 60:0.165296 61:-0.121939 62:-0.126042 63:-0.104005 64:-0.032222 65:0.038079
1 1:0.144752 2:0.173385 3:-0.033622 4:-0.097409 5:-0.041250 6:-0.241445 7:-0.179783 8:-0.061092 9:0.105634 10:0.349057 11:-0.053593 12:0.057557 13:-0.039992 14:-0.130027 15:0.127291 16:0.048244 17:0.115589 18:0.044763 19:-0.054414 20:0.013005 21:-0.151538 22:-0.254312 23:-0.005470 24:-0.037988 25:-0.036703 26:0.020115 27:0.103630 28:-0.078151 29:0.108533 30:-0.199824 31:-0.074714 32:0.065005 33:-0.002819 34:0.103383 35:0.119371 36:-0.094037 37:-0.155802 38:-0.135356 39:0.021029 40:-0.059080 41:-0.015059 42:0.160273 43:0.179625 44:0.017691 45:-0.156772 46:-0.052581 47:-0.172448 48:-0.100533 49:-0.026938 50:0.189408 51:0.121076 52:-0.074766 53:-0.002381 54:0.045484 55:0.157764 56:0.076551 57:0.184782 58:0.162820 59:0.152739 60:0.007976 61:-0.170074 62:-0.103317 63:-0.196440 64:0.000235 65:0.143052
1 1:0.053791 2:0.122172 3:0.171454 4:-0.103303 5:-0.068205 6:-0.078629 7:-0.159859 8:0.122719 9:0.078982 10:-0.084102 11:0.267284 12:-0.113891 13:0.058991 14:-0.260382 15:-0.059796 16:0.043960 17:0.159396 18:0.129299 19:0.176652 20:-0.002774 21:-0.078824 22:-0.065425 23:-0.128021 24:-0.043550 25:-0.193842 26:0.109645 27:0.162356 28:0.084741 29:-0.128817 30:-0.121325 31:0.001026 32:0.240490 33:0.040050 34:0.064312 35:0.016319 36:-0.148816 37:-0.152182 38:0.075410 39:-0.033412 40:-0.025481 41:0.192103 42:0.025769 43:0.003918 44:-0.168556 45:-0.175011 46:0.153876 47:-0.150841 48:0.022156 49:0.108418 50:0.016393 51:-0.011584 52:-0.092163 53:-0.070732 54:-0.240170 55:0.041942 56:0.111747 57:-0.076279 58:0.238445 59:0.236584 60:0.058830 61:0.012567 62:-0.045227 63:-0.010290 64:-0.016105 65:0.131070
1 1:0.111094 2:0.050315 3:0.096512 4:-0.014665 5:-0.154661 6:-0.103961 7:0.088729 8:0.061615 9:-0.127190 10:-0.001980 11:0.053464 12:0.120084 13:-0.014209 14:-0.017186 15:0.021028 16:-0.028199 17:0.066130 18:0.200342 19:0.124915 20:-0.076507 21:-0.162470 22:-0.289920 23:-0.025744 24:-0.068097 25:0.088627 26:0.071297 27:-0.086068 28:0.013826 29:-0.165115 30:-0.086908 31:-0.053989 32:0.018637 33:-0.024099 34:0.254859 35:0.113159 36:-0.064931 37:-0.095496 38:-0.159047 39:-0.027082 40:-0.051139 41:0.262181 42:0.172740 43:-0.055963 44:0.116247 45:-0.009544 46:-0.038914 47:-0.081372 48:-0.009859 49:-0.093631 50:0.305566 51:0.170848 52:0.009702 53:-0.161722 54:-0.077691 55:-0.155806 56:-0.026012 57:0.300210 58:0.200403 59:0.031102 60:-0.053983 61:0.043443 62:0.004473 63:-0.281347 64:0.000713 65:-0.077532
1 1:0.190852 2:0.233289 3:0.305261 4:-0.240619 5:-0.090174 6:-0.137831 7:-0.023536 8:0.080076 9:0.149683 10:0.174303 11:0.080092 12:-0.036296 13:-0.075714 14:-0.121943 15:-0.306235 16:-0.050029 17:-0.105718 18:0.012671 19:0.115531 20:0.147886 21:-0.070034 22:0.010710 23:-0.174334 24:0.071637 25:0.052622 26:-0.063698 27:0.098221 28:0.165245 29:0.086660 30:-0.067323 31:-0.010985 32:0.247575 33:-0.045715 34:0.108318 35:0.078434 36:0.100954 37:0.015713 38:-0.012353 39:-0.059695 40:0.167953 41:-0.078913 42:0.051346 43:0.018511 44:-0.113766 45:-0.035792 46:-0.147324 47:-0.169851 48:-0.106957 49:0.032701 50:-0.019777 51:0.020061 52:0.004674 53:-0.101453 54:-0.135000 55:-0.040135 56:0.072686 57:-0.005816 58:0.184999 59:0.178124 60:0.100802 61:-0.194741 62:-0.104978 63:-0.100161 64:0.142241 65:-0.042677
1 1:0.047184 2:0.234450 3:0.037641 4:-0.042943 5:-0.195939 6:-0.123807 7:0.087335 8:-0.079449 9:0.101219 10:0.113363 11:0.156831 12:-0.047921 13:-0.101631 14:-0.213948 15:0.058365 16:-0.005092 17:-0.085764 18:0.221395 19:0.118204 20:0.109529 21:-0.108711 22:-0.138326 23:0.010247 24:-0.063812 25:0.108224 26:0.025195 27:0.106798 28:0.138291 29:-0.089207 30:0.057863 31:0.043523 32:-0.041732 33:-0.025041 34:0.127023 35:-0.088577 36:-0.009475 37:0.032309 38:-0.226989 39:-0.033086 40:-0.086483 41:-0.073816 42:0.402427 43:-0.032051 44:0.035117 45:-0.164048 46:0.024864 47:-0.027788 48:-0.199050 49:0.133223 50:0.251792 51:0.157077 52:0.207988 53:-0.080513 54:-0.045327 55:-0.115336 56:-0.080471 57:0.101034 58:0.000874 59:0.028915 60:0.088704 61:0.043290 62:-0.179663 63:-0.063544 64:0.014857 65:0.170105
1 1:-0.126638 2:0.186479 3:0.167726 4:-0.043633 5:-0.025619 6:-0.268797 7:0.040898 8:-0.138366 9:0.098124 10:0.129130 11:0.225010 12:-0.010333 13:0.132624 14:-0.143876 15:0.001601 16:-0.068750 17:-0.007681 18:0.046968 19:0.233119 20:0.004880 21:0.055904 22:-0.309457 23:-0.015660 24:0.001774 25:-0.139773 26:0.179488 27:0.037879 28:-0.236229 29:-0.039646 30:-0.154402 31:-0.051705 32:-0.079154 33:0.023855 34:-0.058458 35:0.187339 36:0.126833 37:-0.122574 38:-0.257839 39:-0.113530 40:0.038194 41:0.021387 42:-0.034450 43:-0.159409 44:0.012480 45:0.001166 46:0.184924 47:0.060202 48:0.031993 49:0.052033 50:0.195100 51:0.002376 52:-0.215670 53:0.052166 54:-0.058552 55:-0.079259 56:0.054500 57:-0.031249 58:0.143776 59:0.052965 60:0.080430 61:-0.066377 62:-0.167534 63:-0.131722 64:0.071624 65:-0.024658
1 1:0.200227 2:0.058594 3:-0.097256 4:0.220881 5:-0.136812 6:-0.187230 7:-0.054893 8:-0.053623 9:0.009167 10:0.122062 11:-0.006872 12:-0.112380 13:0.014304 14:-0.084142 15:-0.196979 16:0.023415 17:0.013818 18:0.132695 19:0.071341 20:-0.050783 21:-0.066051 22:-0.255815 23:-0.069176 24:-0.026587 25:0.274651 26:0.031163 27:0.109681 28:-0.006492 29:-0.038332 30:-0.183893 31:-0.075531 32:-0.047373 33:0.138757 34:0.142022 35:0.139849 36:0.068464 37:-0.177338 38:-0.257874 39:-0.262418 40:-0.006951 41:0.007701 42:0.024755 43:0.183289 44:-0.023102 45:-0.035738 46:-0.201674 47:0.120551 48:-0.025535 49:0.114423 50:0.202625 51:0.103588 52:-0.110262 53:0.011813 54:0.021544 55:-0.037464 56:0.149370 57:-0.015278 58:0.234106 59:0.074848 60:0.024789 61:-0.089762 62:-0.054487 63:-0.085189 64:0.013853 65:0.168077
1 1:0.298035 2:0.032455 3:-0.032905 4:-0.116757 5:0.034839 6:-0.148798 7:-0.244880 8:-0.136890 9:-0.091311 10:-0.001647 11:0.140300 12:0.051235 13:-0.148811 14:-0.074558 15:0.069756 16:0.105987 17:0.268741 18:0.140907 19:0.119562 20:0.008949 21:-0.162357 22:-0.033739 23:0.023513 24:0.140507 25:0.140032 26:-0.094272 27:0.004450 28:-0.049349 29:-0.276674 30:-0.091706 31:-0.097886 32:-0.011842 33:0.070756 34:-0.031872 35:-0.139654 36:-0.068861 37:-0.077969 38:-0.132690 39:0.015097 40:0.096211 41:0.173545 42:0.145151 43:0.148446 44:-0.131267 45:-0.190363 46:-0.089269 47:-0.098458 48:-0.174090 49:0.040316 50:0.029750 51:-0.189544 52:0.016160 53:-0.106928 54:-0.178736 55:-0.182322 56:0.009552 57:0.125158 58:0.088211 59:0.157871 60:0.142796 61:-0.001169 62:-0.031061 63:-0.044772 64:-0.089050 65:0.076470
1 1:0.117125 2:0.266455 3:0.237662 4:0.006291 5:-0.169639 6:-0.237047 7:-0.179099 8:0.034972 9:0.178530 10:-0.002302 11:-0.003193 12:-0.071878 13:-0.001837 14:-0.071516 15:0.109334 16:0.055151 17:0.120247 18:0.186824 19:0.040420 20:0.043130 21:-0.197831 22:-0.024734 23:-0.147206 24:0.028019 25:0.052794 26:0.067285 27:0.037855 28:0.207569 29:-0.014681 30:-0.125076 31:0.064425 32:0.094721 33:0.074293 34:0.204535 35:0.082742 36:-0.084018 37:0.112157 38:-0.122690 39:0.090528 40:0.066550 41:0.230708 42:0.065451 43:0.078353 44:-0.013174 45:-0.120138 46:-0.156799 47:-0.158721 48:0.059634 49:0.091249 50:0.146868 51:-0.040655 52:0.024561 53:-0.036478 54:-0.198357 55:-0.086216 56:-0.130950 57:0.070860 58:0.048558 59:0.256784 60:0.108070 61:-0.109022 62:-0.206329 63:0.047976 64:0.054626 65:0.110427
1 1:0.196052 2:0.245359 3:0.223921 4:-0.170149 5:-0.179474 6:-0.070762 7:-0.062086 8:0.064731 9:0.070467 10:0.186256 11:0.142801 12:0.142824 13:-0.123401 14:0.024246 15:-0.073679 16:-0.052089 17:0.000164 18:0.292734 19:-0.041409 20:-0.071723 21:0.068849 22:-0.061312 23:-0.077214 24:0.190002 25:0.082356 26:0.048250 27:0.077503 28:-0.003633 29:-0.120646 30:-0.133890 31:0.111630 32:-0.043390 33:0.224569 34:0.149675 35:0.057961 36:0.104313 37:0.066540 38:-0.051042 39:-0.091988 40:0.006447 41:0.069326 42:0.101330 43:0.193642 44:-0.229541 45:-0.021434 46:-0.057619 47:0.052297 48:-0.174639 49:0.097691 50:0.076485 51:-0.036078 52:0.057669 53:-0.272204 54:0.058006 55:0.013894 56:0.046757 57:0.006969 58:-0.097426 59:0.066048 60:-0.024394 61:-0.175658 62:0.009644 63:-0.250174 64:-0.005632 65:0.121335
1 1:0.117436 2:0.165610 3:0.048141 4:-0.055288 5:-0.128992 6:-0.002434 7:-0.123621 8:-0.008159 9:0.149565 10:0.004699 11:0.156551 12:0.072116 13:-0.210931 14:0.022867 15:-0.024678 16:-0.045379 17:0.311410 18:-0.040734 19:0.067831 20:0.031828 21:-0.134429 22:-0.320794 23:-0.073441 24:-0.059576 25:-0.207286 26:0.003172 27:-0.116827 28:0.002214 29:-0.211673 30:-0.089375 31:-0.186540 32:-0.030200 33:-0.054165 34:0.254787 35:0.077760 36:-0.114546 37:-0.101979 38:-0.148567 39:-0.116031 40:0.003408 41:-0.027271 42:0.190786 43:0.282408 44:-0.087190 45:-0.126997 46:-0.150465 47:0.033394 48:-0.000442 49:0.151380 50:0.192982 51:0.155535 52:-0.101761 53:0.023825 54:0.030472 55:0.003157 56:0.029367 57:0.110267 58:0.048411 59:0.134368 60:-0.003207 61:-0.076173 62:-0.005314 63:-0.070486 64:-0.060146 65:0.030334
1 1:0.093885 2:0.158339 3:0.274154 4:0.058926 5:-0.225019 6:-0.161707 7:0.035383 8:-0.020549 9:0.051881 10:0.145646 11:0.210886 12:-0.005316 13:-0.200178 14:-0.252092 15:-0.019195 16:0.090672 17:0.009844 18:0.220596 19:0.070854 20:-0.046423 21:-0.159110 22:-0.204950 23:-0.212946 24:0.103955 25:0.011906 26:0.097127 27:0.008127 28:-0.093422 29:-0.096317 30:-0.062004 31:-0.083639 32:-0.012881 33:0.147188 34:0.029737 35:0.080715 36:0.097735 37:-0.089257 38:-0.094826 39:-0.034762 40:-0.091115 41:-0.024468 42:0.135726 43:0.067091 44:-0.151138 45:-0.065894 46:0.038245 47:-0.127080 48:-0.238703 49:-0.049228 50:0.234541 51:0.138126 52:-0.055862 53:-0.137102 54:-0.160410 55:0.024653 56:-0.136971 57:0.106251 58:0.092505 59:0.099588 60:-0.055004 61:-0.044019 62:-0.116053 63:-0.105380 64:-0.039848 65:-0.124692
1 1:0.082843 2:0.156180 3:0.011888 4:-0.091866 5:-0.026177 6:-0.201037 7:0.102913 8:-0.122222 9:0.049206 10:0.140453 11:0.199915 12:0.089827 13:0.002875 14:-0.220534 15:-0.148962 16:0.055167 17:0.001224 18:0.145800 19:-0.058527 20:0.140234 21:-0.320821 22:-0.114810 23:-0.097394 24:0.034084 25:0.066663 26:0.139841 27:0.094225 28:-0.001192 29:-0.239967 30:0.062354 31:-0.020991 32:0.096878 33:0.038996 34:-0.118394 35:0.163593 36:-0.050347 37:-0.186928 38:-0.018058 39:-0.011337 40:-0.004823 41:0.191584 42:0.131763 43:0.005215 44:-0.026512 45:-0.156123 46:-0.251478 47:-0.164301 48:-0.051428 49:0.208185 50:0.180838 51:0.073134 52:-0.009157 53:-0.006685 54:-0.051768 55:-0.191437 56:0.074122 57:-0.021542 58:0.009593 59:0.152191 60:-0.090077 61:-0.085684 62:-0.122535 63:-0.121334 64:-0.123098 65:0.107136
1 1:0.054579 2:-0.056844 3:0.080740 4:-0.006384 5:-0.053016 6:-0.007276 7:0.035760 8:0.011722 9:-0.106085 10:0.211858 11:-0.080968 12:0.026530 13:-0.013076 14:-0.084558 15:-0.131713 16:-0.008076 17:0.138731 18:0.249575 19:0.130122 20:0.240760 21:0.060883 22:-0.191169 23:0.045341 24:0.174789 25:0.236410 26:0.100531 27:0.037052 28:0.106489 29:-0.046051 30:-0.150664 31:-0.270172 32:0.139148 33:0.228823 34:-0.023307 35:0.213242 36:0.108073 37:-0.288549 38:-0.020237 39:-0.016066 40:0.173915 41:0.094454 42:-0.019808 43:0.052259 44:-0.050222 45:-0.004749 46:-0.062295 47:-0.152495 48:-0.187751 49:-0.013154 50:-0.010030 51:0.018788 52:0.165002 53:-0.152413 54:-0.159827 55:-0.000680 56:-0.109255 57:-0.013524 58:0.009951 59:0.005583 60:0.153783 61:-0.126276 62:0.034732 63:-0.070773 64:0.170303 65:0.068911
1 1:0.041189 2:0.316051 3:0.063146 4:0.153700 5:-0.063703 6:-0.226184 7:-0.021380 8:-0.016429 9:-0.055921 10:-0.006072 11:0.112290 12:0.001117 13:-0.135379 14:-0.209228 15:-0.059512 16:0.151122 17:-0.032619 18:0.002954 19:-0.049735 20:0.086626 21:-0.120868 22:-0.022704 23:0.014421 24:0.081005 25:0.089186 26:0.095119 27:-0.157063 28:-0.012518 29:-0.017966 30:-0.121689 31:-0.166890 32:-0.074599 33:0.132365 34:0.129600 35:-0.191025 36:0.015307 37:-0.081690 38:-0.231212 39:-0.114378 40:-0.091389 41:0.041943 42:0.219450 43:-0.035731 44:-0.101100 45:-0.077524 46:-0.168933 47:-0.268060 48:0.004722 49:0.054535 50:0.027609 51:0.016318 52:0.058980 53:-0.118265 54:-0.219288 55:-0.060582 56:0.206552 57:0.021565 58:0.087854 59:0.115822 60:0.088242 61:-0.249314 62:-0.113168 63:0.044529 64:0.056132 65:0.203618
1 1:-0.005121 2:0.160264 3:0.203328 4:0.018982 5:-0.102304 6:0.045884 7:-0.005384 8:-0.155087 9:-0.024329 10:0.252912 11:0.165862 12:0.001313 13:0.012732 14:0.051920 15:-0.269782 16:0.046424 17:0.231511 18:-0.152722 19:0.140175 20:0.078505 21:-0.024777 22:-0.136156 23:-0.056482 24:-0.071104 25:0.124819 26:0.073020 27:0.186836 28:0.112517 29:-0.124410 30:-0.141750 31:-0.084739 32:-0.068829 33:0.011728 34:-0.063759 35:0.144420 36:0.057454 37:-0.125719 38:-0.134034 39:-0.179872 40:0.017309 41:0.208037 42:0.176034 43:0.086706 44:0.111012 45:-0.115650 46:-0.222774 47:-0.292646 48:0.058402 49:0.128038 50:0.113290 51:0.029079 52:0.099128 53:-0.074753 54:-0.138765 55:-0.101401 56:-0.018999 57:0.076470 58:0.017622 59:0.069775 60:0.119696 61:0.059016 62:-0.034667 63:-0.002295 64:-0.180982 65:-0.028900
1 1:-0.013353 2:0.203225 3:0.111162 4:0.040928 5:0.084642 6:-0.093930 7:0.000141 8:-0.007806 9:0.271329 10:0.224117 11:0.054135 12:0.069383 13:-0.124328 14:-0.159194 15:-0.073772 16:0.109803 17:-0.050282 18:0.081900 19:0.107375 20:-0.023347 21:-0.069379 22:-0.166347 23:-0.074344 24:0.000605 25:0.055829 26:0.038022 27:0.003970 28:-0.001630 29:-0.006787 30:-0.269392 31:0.040224 32:-0.161314 33:0.102021 34:-0.044957 35:0.216306 36:-0.113065 37:-0.286784 38:0.002950 39:-0.018770 40:0.000026 41:0.004159 42:0.226365 43:0.047358 44:0.030255 45:-0.246683 46:-0.201158 47:-0.118312 48:-0.009257 49:0.221401 50:0.049698 51:-0.077130 52:0.029637 53:-0.075444 54:-0.231758 55:-0.127475 56:0.070661 57:0.009465 58:0.119900 59:0.042479 60:0.050587 61:-0.108227 62:0.061499 63:-0.063516 64:0.035276 65:0.267203
1 1:0.069598 2:-0.068692 3:0.018787 4:-0.281669 5:-0.099943 6:-0.090747 7:-0.030913 8:-0.037333 9:0.002061 10:0.161342 11:0.060543 12:-0.040035 13:-0.106869 14:-0.062565 15:0.086987 16:0.045215 17:0.097754 18:0.121259 19:0.174031 20:-0.042166 21:-0.070347 22:-0.102661 23:-0.169410 24:0.100406 25:0.199123 26:0.084144 27:0.059011 28:-0.113316 29:-0.011178 30:0.005491 31:0.085252 32:0.018314 33:-0.061947 34:0.225620 35:0.060419 36:-0.066319 37:0.001660 38:-0.196627 39:-0.166213 40:-0.091952 41:0.233755 42:-0.027635 43:0.044742 44:-0.151824 45:-0.130011 46:-0.206397 47:-0.135495 48:0.018297 49:0.036700 50:0.166331 51:0.141164 52:-0.169023 53:0.193396 54:-0.056017 55:-0.056646 56:0.131571 57:0.045633 58:0.118143 59:0.198667 60:0.076338 61:-0.231979 62:-0.258921 63:0.012938 64:-0.177662 65:0.061948
1 1:0.060232 2:0.210787 3:0.222321 4:-0.077060 5:-0.176621 6:0.011850 7:-0.228087 8:0.036352 9:0.058555 10:0.211329 11:-0.027316 12:-0.028931 13:-0.232194 14:-0.244911 15:-0.012548 16:0.175515 17:-0.033214 18:0.123148 19:0.042015 20:0.013501 21:-0.154456 22:-0.156508 23:-0.076451 24:-0.214043 25:0.068104 26:0.161312 27:0.011290 28:0.017421 29:-0.023645 30:-0.071106 31:-0.138451 32:-0.022208 33:-0.041746 34:0.318548 35:0.069138 36:0.031224 37:-0.129328 38:-0.164377 39:-0.141469 40:-0.062705 41:0.074606 42:0.100225 43:0.134648 44:-0.121012 45:-0.077346 46:0.035714 47:-0.210857 48:-0.235932 49:0.029740 50:0.095654 51:0.074792 52:0.095143 53:-0.063247 54:0.036731 55:-0.070549 56:-0.046604 57:0.005430 58:0.034216 59:0.049071 60:-0.087737 61:-0.071609 62:-0.145050 63:0.161263 64:-0.064600 65:0.074238
1 1:0.107711 2:0.142864 3:-0.006220 4:-0.057130 5:-0.258763 6:-0.183893 7:0.037423 8:-0.050761 9:0.060577 10:0.151967 11:0.371581 12:-0.093930 13:-0.062578 14:-0.156688 15:-0.057312 16:-0.056806 17:0.099651 18:0.103179 19:0.194298 20:0.134496 21:-0.009078 22:-0.124901 23:-0.086963 24:0.016529 25:0.126754 26:0.164175 27:-0.065965 28:0.016555 29:-0.090264 30:0.017678 31:-0.005599 32:-0.058915 33:-0.026017 34:0.177660 35:0.342982 36:-0.021577 37:-0.129210 38:-0.151959 39:-0.079698 40:0.047372 41:0.084893 42:-0.002388 43:-0.095148 44:0.041094 45:-0.017638 46:0.000221 47:-0.063841 48:-0.083714 49:0.081516 50:-0.026711 51:0.136282 52:0.241522 53:-0.060131 54:-0.070054 55:-0.027740 56:0.029658 57:0.008481 58:0.005258 59:0.143529 60:-0.093728 61:-0.359188 62:-0.035851 63:-0.030964 64:0.068369 65:0.061821
1 1:0.222986 2:0.146360 3:-0.006889 4:0.106898 5:-0.092000 6:-0.049718 7:-0.135396 8:-0.236825 9:0.104154 10:0.167992 11:0.048507 12:-0.027836 13:-0.167212 14:-0.095716 15:0.026575 16:0.127052 17:0.074423 18:0.117400 19:0.109708 20:-0.110757 21:-0.044569 22:-0.043919 23:-0.098006 24:-0.036295 25:0.323082 26:0.089987 27:-0.031862 28:0.004622 29:-0.058032 30:-0.084430 31:-0.067119 32:0.072648 33:-0.005215 34:0.089098 35:0.158714 36:-0.152456 37:-0.015021 38:-0.160634 39:0.024415 40:-0.013263 41:0.085835 42:0.032153 43:0.228150 44:0.059990 45:-0.007732 46:-0.082199 47:-0.026560 48:0.019705 49:0.007867 50:0.242592 51:0.242077 52:-0.017877 53:-0.227450 54:-0.200354 55:0.001913 56:0.041431 57:0.116773 58:0.180462 59:0.037651 60:-0.006435 61:-0.257433 62:-0.122878 63:-0.096066 64:0.177125 65:0.085889
1 1:-0.071491 2:0.193320 3:0.108553 4:0.007202 5:-0.149564 6:-0.220395 7:0.031516 8:0.143415 9:0.041738 10:0.109040 11:0.116685 12:0.027993 13:0.047863 14:0.051506 15:-0.028255 16:0.063502 17:0.143987 18:0.090517 19:0.064937 20:0.071018 21:0.007146 22:-0.301637 23:-0.158601 24:-0.074212 25:-0.191182 26:0.088395 27:0.172254 28:0.164344 29:-0.009513 30:0.077852 31:0.075579 32:0.061426 33:-0.064877 34:-0.032733 35:0.232636 36:-0.122085 37:0.066664 38:-0.115240 39:-0.176094 40:-0.100616 41:0.183165 42:0.054316 43:0.064639 44:-0.039701 45:-0.047729 46:0.010601 47:-0.020861 48:-0.035044 49:0.186783 50:0.151325 51:-0.056944 52:-0.035352 53:-0.303985 54:-0.124681 55:-0.143738 56:-0.044524 57:0.124435 58:0.057841 59:-0.065605 60:-0.040201 61:-0.287859 62:-0.196432 63:-0.084293 64:0.094772 65:0.064632
1 1:0.079023 2:0.032761 3:0.018471 4:0.105069 5:-0.150841 6:-0.066368 7:-0.210515 8:0.052271 9:0.119960 10:0.065676 11:0.060138 12:0.022879 13:-0.147853 14:-0.192605 15:-0.148834 16:-0.132697 17:0.036939 18:0.240534 19:0.157497 20:-0.057187 21:-0.277149 22:-0.191348 23:0.004627 24:-0.023412 25:0.132015 26:0.265238 27:0.016885 28:0.198270 29:-0.052532 30:-0.095092 31:-0.119340 32:0.086321 33:0.173458 34:0.154886 35:0.138600 36:-0.073445 37:0.045386 38:-0.288746 39:-0.145984 40:0.102277 41:0.041101 42:0.177811 43:0.026207 44:-0.052883 45:-0.004745 46:-0.056604 47:0.057082 48:-0.104744 49:0.090663 50:0.079842 51:0.094481 52:-0.086022 53:-0.020480 54:-0.175094 55:-0.205116 56:-0.068470 57:-0.060693 58:-0.011963 59:0.071014 60:0.023164 61:-0.068069 62:-0.045147 63:0.003443 64:0.112402 65:0.189089
1 1:0.113188 2:0.214656 3:0.073356 4:0.151580 5:-0.147756 6:0.003327 7:-0.031482 8:-0.019449 9:0.083437 10:0.075476 11:0.033972 12:-0.091312 13:0.049881 14:-0.150413 15:0.026439 16:0.038949 17:0.043527 18:0.120259 19:0.266743 20:0.044664 21:-0.111678 22:-0.092384 23:-0.081085 24:-0.232743 25:-0.010620 26:0.056269 27:0.279761 28:0.234965 29:-0.062330 30:-0.060527 31:-0.054232 32:-0.010478 33:0.050658 34:0.000531 35:0.143892 36:0.146748 37:-0.039616 38:-0.010914 39:-0.113138 40:0.207686 41:0.046577 42:0.071799 43:0.149907 44:-0.217414 45:-0.195948 46:-0.018884 47:-0.209605 48:-0.036441 49:0.064967 50:-0.153791 51:0.094560 52:-0.064981 53:0.061936 54:-0.185808 55:0.042910 56:0.159890 57:-0.006966 58:0.186976 59:0.176795 60:0.053254 61:-0.146651 62:-0.184696 63:-0.127972 64:-0.008528 65:0.099868
1 1:-0.062855 2:0.057617 3:0.006910 4:-0.015912 5:-0.095781 6:-0.109946 7:-0.188028 8:0.091594 9:-0.105172 10:-0.105740 11:-0.024687 12:-0.185300 13:0.070789 14:-0.177373 15:0.063031 16:-0.079035 17:0.011571 18:0.131267 19:0.139633 20:0.144999 21:-0.043048 22:-0.192975 23:0.120507 24:-0.053643 25:0.211002 26:0.051905 27:0.127005 28:-0.045829 29:-0.059757 30:-0.154723 31:-0.149047 32:0.003475 33:0.207090 34:0.020065 35:0.134121 36:-0.071381 37:-0.113494 38:-0.141838 39:-0.110149 40:-0.047107 41:-0.124295 42:0.199934 43:0.217739 44:-0.057339 45:0.042840 46:-0.171456 47:-0.200111 48:0.095752 49:0.093344 50:0.051944 51:0.012144 52:0.186528 53:-0.132793 54:-0.116956 55:-0.064441 56:0.115162 57:0.096512 58:-0.012043 59:0.077274 60:0.218603 61:-0.167056 62:0.036111 63:-0.280682 64:0.114699 65:-0.119354
1 1:0.215422 2:0.089477 3:0.070695 4:0.044672 5:-0.041423 6:-0.215083 7:-0.137105 8:-0.041728 9:0.025241 10:0.092376 11:-0.011827 12:-0.041644 13:-0.042414 14:-0.151106 15:-0.048898 16:-0.007611 17:0.181568 18:0.016686 19:0.158240 20:0.082736 21:-0.280023 22:-0.158325 23:-0.080602 24:-0.119202 25:0.085320 26:0.028980 27:0.204993 28:-0.084252 29:0.084186 30:-0.045628 31:-0.305483 32:-0.093665 33:0.202565 34:-0.002711 35:-0.003982 36:0.090460 37:0.098492 38:-0.105460 39:-0.181681 40:-0.157574 41:0.053716 42:0.124948 43:0.026738 44:0.129511 45:-0.072853 46:-0.120802 47:-0.255333 48:-0.208202 49:0.052795 50:-0.022161 51:0.091193 52:0.015106 53:-0.122083 54:0.098603 55:0.023190 56:-0.143208 57:0.185664 58:0.160537 59:-0.099661 60:-0.012476 61:-0.040117 62:-0.163470 63:-0.102659 64:0.110554 65:-0.053732
1 1:-0.061325 2:-0.135307 3:0.054155 4:0.164880 5:-0.004891 6:-0.158676 7:-0.018003 8:0.199796 9:0.153501 10:0.082362 11:0.119927 12:-0.147309 13:-0.154241 14:-0.031343 15:-0.181631 16:-0.091266 17:0.168893 18:0.113456 19:0.035036 20:-0.010874 21:0.075344 22:-0.072306 23:-0.254432 24:0.132889 25:-0.044985 26:0.193719 27:0.177644 28:0.293736 29:0.034870 30:-0.054145 31:-0.141118 32:-0.011767 33:0.059431 34:-0.094290 35:0.143643 36:-0.000470 37:-0.065144 38:-0.290274 39:-0.256371 40:-0.046375 41:-0.003734 42:0.051212 43:0.143666 44:0.093793 45:-0.081343 46:-0.254580 47:0.034192 48:0.080769 49:-0.005563 50:-0.078442 51:0.009854 52:-0.062846 53:-0.115503 54:-0.066837 55:0.065608 56:-0.076479 57:0.096755 58:0.027463 59:0.093584 60:-0.092307 61:-0.021472 62:-0.208716 63:-0.119416 64:0.006337 65:0.087612
1 1:0.059198 2:0.095903 3:0.245713 4:0.119601 5:-0.368911 6:-0.143759 7:-0.056370 8:-0.095792 9:0.027271 10:0.298420 11:0.104646 12:0.098072 13:-0.061924 14:-0.041163 15:-0.106727 16:-0.105464 17:0.129125 18:0.035986 19:0.055504 20:-0.083356 21:-0.000632 22:-0.268664 23:0.004036 24:0.044177 25:0.193461 26:-0.027559 27:0.003497 28:-0.044492 29:-0.204817 30:-0.094836 31:-0.035022 32:-0.033374 33:0.021775 34:0.140944 35:0.151603 36:0.087470 37:-0.223551 38:-0.007430 39:0.169585 40:-0.074746 41:0.038264 42:0.203503 43:0.037492 44:0.028250 45:-0.113709 46:-0.095173 47:0.068769 48:0.049724 49:-0.071017 50:-0.057124 51:0.198705 52:0.018833 53:-0.077424 54:-0.151591 55:-0.063200 56:-0.036925 57:-0.006773 58:0.238061 59:-0.000567 60:0.018434 61:-0.145178 62:-0.142862 63:0.080321 64:-0.027283 65:0.107921
1 1:-0.070020 2:0.206552 3:0.015524 4:0.084866 5:-0.047207 6:-0.130418 7:-0.013313 8:-0.130888 9:0.018049 10:0.123035 11:0.203441 12:0.001577 13:-0.063675 14:-0.224910 15:-0.001135 16:0.025209 17:0.293354 18:0.195344 19:-0.071440 20:-0.029127 21:-0.107137 22:-0.052526 23:-0.210798 24:0.206164 25:0.099917 26:0.038688 27:0.033098 28:-0.103100 29:-0.015004 30:-0.054606 31:-0.025235 32:0.007863 33:0.046659 34:0.097304 35:0.152714 36:-0.054133 37:-0.164782 38:0.057148 39:-0.036980 40:0.266619 41:-0.144722 42:0.049523 43:-0.101764 44:0.012672 45:-0.079562 46:0.040077 47:-0.050916 48:0.021837 49:0.103369 50:0.190786 51:0.028196 52:0.068931 53:-0.102860 54:-0.139535 55:0.174971 56:0.085348 57:0.088759 58:0.171337 59:0.156467 60:-0.096976 61:0.069584 62:-0.337418 63:0.061245 64:0.086039 65:0.174990
1 1:0.008779 2:0.067144 3:0.063027 4:0.105196 5:-0.165995 6:-0.020575 7:-0.002746 8:-0.052124 9:-0.051058 10:0.051662 11:0.235227 12:0.068052 13:-0.136495 14:-0.215196 15:0.066916 16:0.075360 17:0.093452 18:-0.009790 19:0.251133 20:0.011754 21:-0.068744 22:-0.084483 23:-0.065032 24:0.125229 25:0.114957 26:0.108800 27:0.031370 28:0.022048 29:-0.005643 30:-0.053624 31:-0.035047 32:-0.038733 33:0.027907 34:0.149233 35:0.174979 36:-0.035398 37:-0.037767 38:-0.320815 39:-0.115517 40:-0.144837 41:0.169637 42:0.128567 43:0.034219 44:0.057527 45:-0.233758 46:-0.270005 47:-0.136232 48:-0.212455 49:0.042825 50:0.069061 51:0.010530 52:0.228563 53:-0.096891 54:-0.069368 55:-0.204065 56:0.105202 57:-0.004114 58:0.229102 59:0.092521 60:-0.128295 61:-0.052732 62:0.076294 63:-0.000200 64:0.104608 65:0.125766
1 1:-0.065988 2:0.229687 3:0.121750 4:-0.037685 5:-0.069799 6:-0.168188 7:-0.240512 8:-0.000512 9:0.146763 10:0.082828 11:0.096081 12:0.040278 13:-0.115232 14:0.017109 15:-0.123669 16:-0.206497 17:-0.177533 18:0.112179 19:0.203493 20:-0.052626 21:0.100702 22:-0.113500 23:-0.081225 24:0.086457 25:0.028170 26:0.086425 27:-0.115084 28:0.066664 29:0.084203 30:-0.054784 31:-0.075282 32:-0.093134 33:0.148691 34:0.029854 35:0.224278 36:-0.045310 37:-0.224136 38:-0.083571 39:0.017710 40:-0.164348 41:0.038830 42:0.211848 43:0.096050 44:-0.036665 45:-0.149429 46:-0.004468 47:-0.216744 48:0.062989 49:0.017141 50:0.228584 51:0.122472 52:-0.027810 53:-0.126817 54:0.046976 55:-0.068236 56:0.091814 57:0.011873 58:0.200561 59:0.025338 60:-0.069675 61:-0.019888 62:-0.153503 63:-0.251787 64:-0.071917 65:0.144527
1 1:0.072906 2:0.136645 3:0.066378 4:-0.127210 5:0.039282 6:-0.069537 7:-0.179939 8:-0.142398 9:-0.023146 10:0.172111 11:0.023305 12:-0.032137 13:-0.055140 14:-0.024885 15:-0.120124 16:-0.023368 17:0.173974 18:0.078113 19:0.134063 20:0.119960 21:-0.068475 22:-0.267461 23:-0.193476 24:-0.197802 25:0.112572 26:0.064023 27:0.138353 28:0.148364 29:-0.122503 30:-0.029033 31:-0.043698 32:0.051416 33:0.123892 34:0.207258 35:-0.008292 36:-0.161492 37:-0.079863 38:-0.113413 39:-0.116104 40:-0.225221 41:-0.036156 42:0.040280 43:0.044018 44:-0.068254 45:-0.243159 46:0.252776 47:-0.053713 48:-0.112124 49:0.075626 50:0.208542 51:0.071099 52:0.059814 53:-0.194585 54:-0.065164 55:-0.183282 56:0.028179 57:0.002443 58:-0.099570 59:-0.000609 60:-0.160536 61:-0.213722 62:-0.073456 63:-0.089149 64:-0.013277 65:-0.032364
1 1:0.140814 2:0.113767 3:0.001145 4:-0.097379 5:-0.063192 6:0.038515 7:-0.046407 8:0.006732 9:0.206862 10:0.190684 11:0.019826 12:0.080610 13:-0.118417 14:-0.027919 15:-0.159576 16:0.059017 17:-0.146441 18:0.095893 19:0.116170 20:0.106954 21:-0.124820 22:-0.252987 23:-0.195198 24:0.119591 25:0.094877 26:-0.077246 27:0.129093 28:0.089900 29:-0.056283 30:-0.181795 31:-0.003419 32:0.017961 33:0.150826 34:0.029586 35:0.109248 36:-0.075134 37:-0.067974 38:-0.140290 39:-0.070099 40:0.052624 41:-0.007242 42:0.189841 43:-0.024226 44:-0.050450 45:-0.009036 46:-0.138772 47:-0.120498 48:-0.019017 49:0.125749 50:0.138653 51:0.087278 52:-0.171704 53:-0.150712 54:-0.003781 55:0.008814 56:0.024546 57:0.114654 58:0.302524 59:0.261444 60:-0.243849 61:0.046851 62:-0.181030 63:-0.208229 64:-0.055683 65:0.018934
1 1:0.134123 2:0.117889 3:0.015660 4:0.173426 5:-0.134828 6:0.038776 7:-0.103932 8:-0.075298 9:0.061665 10:0.026512 11:-0.052432 12:-0.171355 13:-0.305742 14:-0.013769 15:-0.196665 16:-0.156948 17:0.024515 18:-0.015000 19:0.001983 20:0.090605 21:0.051805 22:-0.304956 23:-0.163880 24:-0.074219 25:0.120544 26:0.191785 27:0.168594 28:-0.025109 29:0.043240 30:-0.126323 31:-0.049060 32:-0.033704 33:0.087020 34:0.215876 35:0.115603 36:0.064668 37:-0.066502 38:-0.116642 39:0.014391 40:-0.122698 41:0.058398 42:0.054812 43:0.012239 44:0.144642 45:0.003402 46:-0.015188 47:-0.126035 48:-0.111010 49:0.032111 50:0.067855 51:0.116486 52:-0.130938 53:-0.223170 54:-0.177275 55:-0.059507 56:-0.074946 57:0.335061 58:0.163034 59:0.011964 60:0.068184 61:-0.031367 62:0.024357 63:0.015923 64:0.013859 65:0.189405
1 1:0.050393 2:-0.015884 3:0.046012 4:0.011041 5:-0.113624 6:-0.206421 7:-0.169514 8:0.251676 9:0.017128 10:0.086672 11:0.071060 12:0.074049 13:-0.000576 14:-0.136306 15:-0.160417 16:0.067726 17:-0.015305 18:0.084896 19:0.025531 20:0.138336 21:-0.121465 22:-0.081782 23:0.051510 24:-0.185305 25:0.203199 26:0.340498 27:0.192647 28:-0.085550 29:-0.104237 30:-0.096925 31:-0.098463 32:0.026884 33:-0.015031 34:0.175348 35:0.008231 36:-0.077864 37:-0.085066 38:-0.073679 39:-0.118475 40:-0.038077 41:0.151367 42:0.270922 43:0.134043 44:0.046802 45:0.126679 46:-0.170136 47:0.019818 48:0.099177 49:0.225082 50:-0.015467 51:0.040959 52:0.005851 53:0.008993 54:0.061614 55:-0.238251 56:0.058694 57:-0.053748 58:-0.044887 59:0.164644 60:0.090171 61:-0.033954 62:-0.179638 63:-0.118745 64:-0.075255 65:-0.123131
1 1:0.215336 2:0.255007 3:0.131442 4:0.075967 5:-0.117166 6:-0.170872 7:-0.235600 8:-0.061909 9:0.213512 10:-0.002502 11:0.020440 12:0.030574 13:-0.241338 14:-0.112369 15:-0.119614 16:-0.116676 17:0.202741 18:0.047087 19:0.125876 20:0.011663 21:0.051379 22:-0.026274 23:-0.107109 24:0.104677 25:-0.095051 26:0.102936 27:-0.090740 28:-0.112909 29:-0.163373 30:-0.241758 31:0.078459 32:-0.038239 33:0.055503 34:-0.172432 35:0.043364 36:-0.091026 37:0.003465 38:-0.212906 39:-0.000090 40:0.109990 41:0.105533 42:0.167987 43:0.081299 44:-0.080658 45:0.013940 46:-0.131364 47:-0.130365 48:-0.051460 49:-0.036694 50:0.061164 51:0.098949 52:0.034181 53:0.060048 54:-0.175535 55:-0.064592 56:0.058531 57:0.075322 58:-0.047085 59:0.051781 60:-0.027185 61:-0.145355 62:-0.096883 63:-0.004984 64:-0.009520 65:0.330352
1 1:-0.125503 2:0.114686 3:0.223079 4:0.079679 5:-0.198161 6:-0.155867 7:-0.041951 8:-0.174917 9:0.067440 10:0.036811 11:0.017736 12:-0.234737 13:-0.022226 14:-0.094847 15:0.052064 16:0.113582 17:0.073003 18:0.117727 19:0.109058 20:-0.060878 21:-0.097921 22:-0.107437 23:0.023046 24:0.088187 25:0.139379 26:0.075758 27:0.036377 28:0.053923 29:-0.081355 30:-0.120340 31:0.008207 32:-0.044572 33:0.221468 34:0.052350 35:0.178676 36:0.227272 37:-0.184081 38:-0.087793 39:0.027546 40:-0.062195 41:0.140749 42:0.067872 43:0.108538 44:0.159312 45:-0.107883 46:-0.128293 47:-0.089439 48:0.106509 49:0.042872 50:0.169977 51:0.282361 52:-0.180615 53:-0.086531 54:-0.101317 55:-0.120602 56:-0.026571 57:-0.109279 58:0.141491 59:0.265203 60:-0.133681 61:0.028672 62:0.002662 63:-0.078693 64:-0.097427 65:0.111792
1 1:0.105397 2:-0.006135 3:0.138173 4:0.185172 5:-0.081694 6:0.057785 7:-0.031721 8:0.209538 9:0.151013 10:0.197206 11:0.121732 12:0.055697 13:-0.022119 14:0.008197 15:-0.070392 16:-0.123671 17:0.123533 18:0.183725 19:0.082903 20:0.032055 21:0.009460 22:-0.272279 23:-0.023996 24:-0.037112 25:0.044375 26:0.232949 27:0.079288 28:-0.052616 29:-0.035537 30:-0.240012 31:-0.015493 32:0.028256 33:0.077967 34:0.149749 35:0.162524 36:0.003694 37:-0.058180 38:-0.117827 39:0.031371 40:0.034923 41:0.212510 42:0.148817 43:0.216688 44:-0.227322 45:-0.190744 46:0.105998 47:-0.109372 48:0.117042 49:0.095159 50:0.071970 51:0.039267 52:0.086015 53:-0.080195 54:-0.006696 55:-0.049564 56:-0.054628 57:0.010689 58:-0.121697 59:0.256567 60:-0.035052 61:-0.131182 62:-0.099231 63:-0.092638 64:0.180334 65:0.151611
1 1:0.058603 2:0.314328 3:0.050901 4:-0.054693 5:-0.009693 6:-0.115826 7:-0.130832 8:0.171765 9:0.141360 10:0.065784 11:0.081548 12:-0.163966 13:0.060895 14:-0.137061 15:-0.200933 16:0.036553 17:0.089838 18:0.170622 19:0.200604 20:0.139404 21:0.075211 22:-0.186838 23:-0.047032 24:-0.084293 25:0.019037 26:-0.040195 27:0.211055 28:-0.146805 29:0.008282 30:-0.147409 31:-0.020419 32:-0.126908 33:0.181822 34:0.344893 35:0.179004 36:0.012890 37:-0.177283 38:-0.144455 39:-0.051250 40:0.002461 41:0.002002 42:0.009803 43:0.107894 44:0.062312 45:-0.041081 46:-0.153284 47:0.030612 48:0.023462 49:-0.010291 50:0.053785 51:0.097551 52:-0.068097 53:-0.142666 54:-0.078464 55:-0.158587 56:0.040099 57:0.142608 58:0.110975 59:0.059398 60:0.044588 61:0.050181 62:-0.140969 63:-0.158820 64:0.067378 65:0.121166
1 1:0.281818 2:0.037351 3:0.170075 4:0.019764 5:-0.026857 6:-0.130578 7:-0.165129 8:-0.076893 9:0.144705 10:0.016751 11:0.151492 12:0.092551 13:-0.029234 14:-0.152633 15:-0.147551 16:0.127550 17:-0.095264 18:0.157170 19:0.102448 20:-0.182603 21:-0.071215 22:-0.146701 23:-0.009302 24:-0.036480 25:0.220500 26:0.053709 27:-0.008265 28:-0.041394 29:-0.018991 30:-0.199701 31:-0.037285 32:0.090537 33:0.029049 34:0.234314 35:0.201273 36:0.100399 37:-0.085921 38:0.058871 39:0.027174 40:-0.086384 41:0.282679 42:0.044829 43:0.231117 44:-0.061580 45:-0.054267 46:-0.042235 47:-0.014629 48:0.112580 49:-0.077774 50:0.061862 51:0.148268 52:0.030422 53:-0.188507 54:-0.106441 55:-0.267284 56:0.013633 57:0.050189 58:0.110239 59:-0.003359 60:0.121397 61:-0.085295 62:-0.186298 63:-0.067090 64:0.029826 65:0.071050
1 1:0.129159 2:0.023572 3:0.053246 4:-0.147118 5:-0.036177 6:-0.078531 7:-0.158985 8:-0.053896 9:0.126704 10:0.196185 11:0.089245 12:-0.257979 13:-0.320711 14:-0.064450 15:-0.123233 16:0.140847 17:-0.025486 18:0.033309 19:0.091739 20:0.182047 21:-0.061601 22:-0.210214 23:-0.105462 24:-0.037870 25:0.003292 26:0.088709 27:0.152096 28:0.045777 29:-0.044169 30:-0.217527 31:-0.020971 32:-0.067626 33:-0.099454 34:0.189994 35:0.129557 36:-0.200824 37:0.136215 38:-0.103158 39:0.121333 40:0.023261 41:0.088298 42:0.209232 43:0.054723 44:0.040551 45:-0.101552 46:-0.087949 47:-0.223378 48:0.024729 49:0.108233 50:0.059284 51:0.134989 52:0.020836 53:-0.070961 54:-0.170099 55:-0.132625 56:-0.008627 57:-0.011349 58:0.152675 59:0.156519 60:-0.066933 61:0.030794 62:-0.090401 63:-0.183251 64:-0.067385 65:0.052669
1 1:-0.022834 2:0.026180 3:-0.048962 4:-0.040383 5:0.012492 6:-0.057985 7:-0.190439 8:-0.114021 9:0.228356 10:0.079720 11:0.145822 12:-0.045184 13:0.170746 14:-0.202599 15:-0.082181 16:-0.086151 17:-0.062037 18:0.275437 19:0.105542 20:0.013183 21:-0.077623 22:-0.160560 23:-0.069273 24:-0.167744 25:0.047009 26:0.168328 27:0.305148 28:-0.126191 29:-0.079683 30:-0.233458 31:-0.122350 32:-0.024529 33:0.053013 34:0.095858 35:0.041879 36:0.061663 37:-0.106785 38:0.000507 39:-0.221817 40:0.187052 41:0.041748 42:0.198310 43:0.063969 44:0.094536 45:-0.002260 46:-0.195368 47:-0.128679 48:-0.100344 49:0.009665 50:0.021395 51:0.158408 52:0.076837 53:-0.288751 54:-0.088814 55:-0.040381 56:-0.037063 57:-0.124758 58:-0.034012 59:-0.054124 60:0.016813 61:-0.034908 62:-0.035531 63:-0.058143 64:-0.076270 65:-0.120584
1 1:0.160864 2:0.057869 3:0.087845 4:-0.011452 5:-0.208748 6:-0.222265 7:-0.036308 8:0.032545 9:0.008783 10:0.126391 11:0.253301 12:-0.058190 13:-0.061964 14:-0.000512 15:-0.037851 16:0.021764 17:0.051349 18:0.225790 19:-0.038891 20:-0.044864 21:-0.333080 22:-0.109152 23:-0.053150 24:-0.025585 25:-0.001919 26:0.121904 27:0.251735 28:0.057685 29:0.034313 30:-0.184653 31:-0.049774 32:0.062930 33:0.021123 34:0.191134 35:0.110533 36:0.023601 37:-0.213780 38:-0.109604 39:-0.016464 40:-0.130691 41:0.009480 42:0.203788 43:0.086825 44:0.181308 45:-0.016845 46:-0.165998 47:-0.106135 48:0.025198 49:0.163747 50:0.052234 51:-0.063611 52:-0.100096 53:-0.036679 54:-0.148836 55:0.067759 56:0.055892 57:0.042038 58:0.288016 59:0.095289 60:0.058328 61:-0.127739 62:-0.154565 63:-0.097569 64:-0.023579 65:0.050781
1 1:0.122294 2:0.248574 3:-0.002053 4:-0.182093 5:0.000327 6:0.007013 7:-0.017197 8:-0.003343 9:0.005595 10:0.224111 11:0.180986 12:-0.034641 13:-0.040892 14:-0.140445 15:-0.138080 16:-0.074864 17:0.176821 18:0.131375 19:-0.037937 20:0.031945 21:-0.032737 22:0.063477 23:-0.056810 24:-0.015016 25:0.113314 26:0.175583 27:0.173991 28:-0.081068 29:0.111303 30:-0.188368 31:-0.187732 32:-0.067190 33:0.183285 34:0.194291 35:0.107074 36:-0.060654 37:-0.042668 38:-0.161219 39:-0.122320 40:-0.026492 41:0.044773 42:0.035592 43:0.235839 44:0.004438 45:-0.066362 46:-0.177813 47:0.000902 48:-0.035929 49:0.035205 50:-0.031600 51:0.051172 52:0.117905 53:-0.226066 54:-0.281240 55:-0.286214 56:-0.154948 57:0.030951 58:0.003037 59:0.047254 60:-0.060023 61:-0.094409 62:-0.038389 63:-0.162730 64:0.047471 65:0.069117
1 1:0.160911 2:0.198482 3:0.274803 4:0.158169 5:-0.079595 6:-0.172620 7:-0.095708 8:0.008631 9:-0.041729 10:0.296273 11:0.134806 12:-0.033027 13:0.065042 14:-0.268911 15:-0.074579 16:-0.007774 17:0.084840 18:0.206895 19:-0.008650 20:-0.176409 21:-0.098391 22:-0.093197 23:-0.056853 24:-0.194836 25:-0.021164 26:0.064549 27:-0.117658 28:0.022908 29:-0.029992 30:-0.236800 31:-0.111480 32:-0.139791 33:0.071591 34:0.166976 35:-0.016701 36:-0.054838 37:-0.067265 38:-0.048678 39:-0.114916 40:0.132458 41:0.177348 42:0.044703 43:0.038344 44:0.007195 45:0.077593 46:-0.021678 47:-0.043895 48:-0.090871 49:-0.067968 50:0.159809 51:-0.147769 52:0.037046 53:0.027896 54:-0.181900 55:-0.149685 56:-0.204976 57:0.096327 58:0.153751 59:-0.087493 60:0.023750 61:-0.029882 62:-0.118379 63:-0.073205 64:-0.046440 65:0.091543
1 1:0.058445 2:0.082703 3:0.101255 4:0.083248 5:-0.026170 6:-0.034991 7:-0.052933 8:-0.153161 9:0.057909 10:0.048774 11:0.071616 12:-0.117962 13:-0.131007 14:-0.321059 15:-0.063894 16:-0.209105 17:0.025045 18:-0.008931 19:0.027973 20:0.001918 21:-0.021439 22:-0.203891 23:-0.203617 24:0.168253 25:0.047729 26:-0.165329 27:0.136648 28:-0.064130 29:-0.136669 30:-0.067756 31:-0.174508 32:-0.173827 33:0.120195 34:-0.033824 35:0.139547 36:-0.066657 37:-0.098869 38:0.133609 39:-0.083093 40:0.035587 41:0.169950 42:0.172664 43:0.146390 44:-0.123358 45:-0.138745 46:-0.141660 47:-0.251294 48:0.119675 49:0.054415 50:0.111109 51:-0.005225 52:0.111323 53:-0.129340 54:0.025067 55:-0.141356 56:-0.049025 57:0.099732 58:0.157730 59:0.066225 60:-0.053096 61:-0.197273 62:-0.045869 63:-0.189362 64:0.053441 65:0.158961
1 1:0.176777 2:0.110224 3:0.119828 4:0.115533 5:-0.099565 6:0.007511 7:-0.096932 8:0.016259 9:0.164405 10:0.092463 11:0.072439 12:-0.018946 13:-0.230160 14:-0.037367 15:-0.024284 16:0.054443 17:-0.041810 18:0.358585 19:-0.016033 20:-0.002287 21:-0.135894 22:-0.189126 23:-0.181218 24:-0.086232 25:-0.069181 26:0.101986 27:-0.080472 28:0.127301 29:0.006517 30:0.012885 31:-0.232930 32:0.018402 33:0.011662 34:0.071574 35:0.074726 36:-0.001959 37:-0.132537 38:-0.218031 39:-0.245454 40:0.058411 41:0.170780 42:-0.085686 43:-0.074328 44:-0.138360 45:-0.044594 46:-0.255641 47:-0.053857 48:0.089288 49:-0.027304 50:0.228825 51:0.122861 52:0.184680 53:-0.059378 54:-0.011878 55:-0.009159 56:0.050166 57:0.070305 58:0.180319 59:0.012119 60:-0.047750 61:-0.098990 62:-0.084784 63:-0.000122 64:-0.069499 65:0.207609
1 1:0.233486 2:0.234500 3:0.124970 4:0.047816 5:-0.023258 6:-0.061655 7:-0.080953 8:0.099471 9:0.045085 10:0.089685 11:0.039274 12:-0.003977 13:-0.054225 14:-0.079974 15:-0.299823 16:-0.050398 17:0.097979 18:0.170656 19:0.190798 20:-0.059468 21:-0.095138 22:0.111685 23:-0.030219 24:-0.116137 25:0.053221 26:0.059537 27:-0.026574 28:-0.015587 29:-0.201370 30:-0.078046 31:-0.065187 32:0.028602 33:0.173790 34:0.258248 35:0.289317 36:0.169261 37:-0.037655 38:0.000031 39:0.124479 40:-0.150298 41:0.145374 42:0.144225 43:0.046032 44:0.121953 45:-0.149955 46:-0.218693 47:-0.149164 48:0.049880 49:-0.139412 50:0.251212 51:-0.057407 52:-0.016481 53:-0.046395 54:0.014347 55:-0.077233 56:0.033384 57:0.066965 58:0.093237 59:0.008809 60:-0.107974 61:-0.023576 62:-0.183448 63:-0.076548 64:0.035486 65:0.015941
1 1:0.091559 2:0.079064 3:0.086711 4:-0.122682 5:-0.060469 6:0.040591 7:-0.155127 8:-0.116189 9:-0.136515 10:0.214424 11:0.233727 12:-0.173301 13:-0.123506 14:-0.121072 15:-0.060079 16:-0.042782 17:0.100981 18:0.368550 19:0.109405 20:-0.117058 21:0.076234 22:0.072624 23:0.055786 24:0.189729 25:0.082497 26:0.138849 27:0.315768 28:0.109249 29:0.026615 30:-0.023509 31:-0.090483 32:0.019219 33:0.039934 34:0.067943 35:-0.047069 36:0.063494 37:-0.087186 38:-0.038089 39:0.044996 40:-0.119635 41:0.121365 42:0.140820 43:0.183975 44:0.047982 45:-0.025515 46:-0.047488 47:-0.016185 48:0.052088 49:0.106678 50:0.156819 51:0.226318 52:-0.081431 53:-0.039823 54:-0.189622 55:-0.082640 56:0.021866 57:-0.064461 58:0.250373 59:-0.007768 60:-0.009648 61:-0.161330 62:-0.060816 63:-0.117044 64:-0.014157 65:0.046132
1 1:0.048265 2:0.060405 3:0.036910 4:0.073769 5:0.011144 6:-0.141069 7:-0.296835 8:0.008996 9:0.004055 10:-0.059321 11:-0.047575 12:0.062942 13:-0.256084 14:0.063030 15:-0.162431 16:-0.076851 17:0.121713 18:0.049172 19:0.119382 20:0.142983 21:-0.178786 22:-0.216913 23:-0.007049 24:0.022931 25:0.110176 26:0.162856 27:0.157121 28:0.008748 29:-0.177123 30:-0.055277 31:-0.004026 32:0.015644 33:0.049399 34:0.050487 35:0.058029 36:0.030755 37:-0.260544 38:-0.177250 39:0.062364 40:-0.002661 41:0.114146 42:0.139048 43:-0.146283 44:0.094586 45:-0.062045 46:-0.226025 47:-0.220625 48:-0.059119 49:0.097341 50:0.208664 51:-0.028491 52:-0.022742 53:-0.074984 54:0.023623 55:-0.078604 56:-0.122781 57:0.009503 58:0.269897 59:0.108772 60:-0.036485 61:-0.058366 62:-0.145394 63:-0.199846 64:0.046832 65:0.144555
1 1:0.093421 2:0.092172 3:0.205485 4:-0.046494 5:-0.137756 6:-0.204153 7:-0.034419 8:-0.039900 9:0.077948 10:0.097042 11:0.229273 12:0.027807 13:-0.121346 14:-0.202270 15:-0.101137 16:-0.026794 17:-0.127571 18:0.256354 19:0.196096 20:-0.005874 21:-0.061291 22:-0.184663 23:-0.075830 24:-0.044012 25:0.067280 26:-0.036202 27:-0.067347 28:0.155231 29:0.053789 30:-0.318614 31:-0.027724 32:-0.036670 33:0.091766 34:0.050317 35:0.224542 36:-0.040735 37:0.248339 38:-0.108568 39:-0.230362 40:-0.008465 41:0.174463 42:0.068150 43:-0.083412 44:0.000047 45:0.000505 46:-0.047345 47:0.119759 48:-0.003787 49:0.032032 50:-0.002956 51:0.055317 52:-0.024932 53:0.070058 54:-0.113940 55:-0.077909 56:0.024688 57:0.232433 58:0.120072 59:0.094944 60:0.041246 61:-0.095465 62:-0.211486 63:-0.132007 64:0.067432 65:0.001892
1 1:0.098577 2:0.195742 3:0.065267 4:-0.156257 5:-0.012278 6:-0.075415 7:-0.119736 8:0.020923 9:0.125507 10:0.032713 11:0.053264 12:0.069795 13:0.105741 14:-0.020198 15:-0.016327 16:-0.063099 17:-0.166404 18:0.196047 19:0.080390 20:-0.022497 21:-0.039064 22:-0.167611 23:-0.115238 24:-0.191953 25:0.194496 26:0.146529 27:-0.050465 28:-0.145210 29:-0.299548 30:-0.217917 31:-0.031163 32:-0.008996 33:0.132490 34:0.084104 35:0.280696 36:0.018836 37:-0.149495 38:-0.239955 39:-0.151247 40:0.052291 41:0.034464 42:0.146868 43:0.138306 44:-0.126592 45:0.095003 46:-0.110607 47:-0.086717 48:0.089280 49:0.054964 50:0.142412 51:-0.020740 52:0.085637 53:-0.033896 54:-0.077470 55:-0.087032 56:0.112145 57:0.073434 58:0.009613 59:-0.150655 60:-0.030388 61:-0.029268 62:-0.243696 63:-0.134985 64:0.108951 65:-0.080570
1 1:0.255850 2:0.391793 3:0.061745 4:0.007133 5:-0.074715 6:-0.091844 7:0.134659 8:0.179083 9:0.137987 10:0.036265 11:0.075784 12:-0.141694 13:-0.150418 14:-0.221479 15:-0.096112 16:-0.017127 17:0.207135 18:0.121300 19:0.081311 20:-0.151832 21:-0.006909 22:-0.229276 23:-0.123320 24:0.080875 25:0.104320 26:0.085893 27:0.064456 28:0.060426 29:-0.056955 30:-0.030074 31:-0.166509 32:-0.109937 33:-0.087559 34:-0.080904 35:0.053832 36:0.039540 37:0.007139 38:-0.052203 39:-0.000223 40:0.047928 41:0.104311 42:0.177575 43:0.018571 44:-0.188664 45:0.005869 46:-0.067774 47:-0.208404 48:0.048596 49:0.002750 50:-0.041671 51:0.147128 52:0.012117 53:-0.141101 54:-0.111786 55:-0.002813 56:0.125708 57:0.161217 58:-0.023354 59:0.106921 60:-0.021762 61:0.058565 62:-0.102719 63:-0.261147 64:-0.093377 65:-0.016807
