-1 1:-0.423132 2:-0.527398 3:-0.844052 4:-0.251752 5:0.099946 6:0.791534 7:-0.225886 8:-1.374084 9:0.048246 10:-0.039143 11:-2.104411 12:-0.720972 13:1.819940 14:-0.747677 15:-0.465862 16:0.845801 17:1.614770 18:0.944064 19:0.722971 20:0.031050 21:-0.040433 22:0.494041 23:-0.187919 24:-0.622699 25:0.507462
-1 1:-0.984925 2:-0.613446 3:-0.118198 4:-0.221005 5:0.136120 6:0.380743 7:0.129539 8:0.629225 9:-1.932852 10:0.200197 11:-2.223518 12:-0.356333 13:1.025272 14:-0.296491 15:0.159642 16:-1.123578 17:-0.221663 18:-1.896314 19:0.796795 20:-0.087568 21:0.643018 22:-1.953178 23:-0.094315 24:0.371430 25:-1.618260
-1 1:0.445038 2:-0.038946 3:-0.796926 4:0.546375 5:-0.563035 6:0.018749 7:0.037085 8:-1.410396 9:-0.864004 10:-1.371811 11:0.913610 12:-0.131822 13:-0.314501 14:-0.907602 15:2.243438 16:-0.043326 17:0.532583 18:-0.152378 19:-1.196853 20:0.642698 21:-0.054423 22:0.252253 23:-0.975678 24:-1.403193 25:1.108672
-1 1:0.405641 2:1.379053 3:-1.679919 4:0.654303 5:0.568247 6:-0.019245 7:-0.414727 8:0.198027 9:0.176655 10:-0.208193 11:-0.506271 12:0.894854 13:0.176142 14:-1.058828 15:-2.154167 16:0.442565 17:-0.828718 18:-0.828146 19:-0.881707 20:-0.031351 21:-0.722468 22:0.902592 23:0.300005 24:-0.562475 25:-0.009724
-1 1:1.291688 2:-0.656992 3:1.420564 4:-0.902538 5:-0.779972 6:0.194743 7:-0.166274 8:-0.043658 9:-0.129717 10:-0.876912 11:-1.198734 12:-1.181174 13:-0.001013 14:-0.193603 15:0.884284 16:0.243636 17:-0.218774 18:-0.599373 19:-1.340200 20:-0.815801 21:1.202250 22:-0.456333 23:-1.192299 24:-0.148093 25:0.216151
-1 1:0.529847 2:1.425434 3:0.200708 4:0.563876 5:0.607544 6:0.900184 7:0.055332 8:0.581188 9:0.634133 10:-0.937677 11:0.287565 12:-0.736161 13:-0.540113 14:0.191359 15:-0.269952 16:-0.461039 17:-0.015097 18:-0.052376 19:0.644372 20:1.672459 21:1.355715 22:-0.064604 23:1.090631 24:1.347341 25:-1.406099
-1 1:2.163577 2:0.619207 3:2.748385 4:0.350861 5:-0.833763 6:1.115928 7:0.083663 8:-0.852577 9:0.635869 10:0.481143 11:0.060509 12:-1.798689 13:0.883633 14:-0.731560 15:2.323390 16:-0.847799 17:1.094118 18:0.721134 19:0.057823 20:-0.911786 21:0.442157 22:0.865605 23:1.671631 24:-0.303580 25:-1.502555
-1 1:0.669467 2:0.905620 3:-0.007915 4:0.905438 5:-0.392989 6:-1.247086 7:-2.151258 8:0.252634 9:-0.903506 10:-1.235050 11:-0.703215 12:-0.791268 13:0.004971 14:0.919463 15:0.871802 16:2.236412 17:0.634319 18:0.813279 19:1.060232 20:0.043825 21:0.177981 22:-0.111438 23:-0.034491 24:-0.249716 25:-0.354931
-1 1:0.628181 2:-1.849594 3:-0.982924 4:1.977442 5:-0.183180 6:0.795587 7:0.246050 8:0.595078 9:1.593179 10:1.368522 11:-1.488454 12:0.139855 13:1.192095 14:0.799137 15:1.656335 16:1.125137 17:-1.024790 18:0.138621 19:-1.190678 20:-0.402483 21:0.353816 22:0.013830 23:0.837175 24:1.912804 25:-0.731508
-1 1:-0.157271 2:-0.761911 3:-0.287330 4:-1.024298 5:-0.140721 6:-1.044411 7:-0.851732 8:-0.041568 9:-0.647416 10:-0.717128 11:1.097131 12:-0.102994 13:1.187482 14:1.754975 15:0.488883 16:-0.841148 17:0.160560 18:-0.218395 19:-0.206241 20:-0.984113 21:0.722845 22:0.788365 23:1.490966 24:-0.500365 25:0.794803
-1 1:-0.514059 2:0.939576 3:-0.455191 4:-0.950828 5:0.856610 6:0.482556 7:0.903392 8:-0.533844 9:-0.527984 10:0.096431 11:-0.369745 12:-0.566901 13:-0.858605 14:0.156638 15:0.064158 16:1.840876 17:0.343184 18:1.817974 19:-1.898012 20:-0.073353 21:1.540833 22:0.302171 23:0.565600 24:-0.865422 25:0.243056
-1 1:-0.286740 2:0.520449 3:0.345985 4:-0.150514 5:-0.039029 6:0.677747 7:-0.595524 8:-0.260411 9:1.182065 10:-0.359985 11:-0.152711 12:0.755554 13:-0.125238 14:-0.352580 15:0.073121 16:0.399765 17:-0.086420 18:1.317344 19:-1.822048 20:-0.769214 21:1.526244 22:-0.874950 23:0.203606 24:0.950864 25:-1.518371
-1 1:0.020469 2:0.791784 3:-2.945430 4:-0.871653 5:-0.703874 6:1.039621 7:0.159810 8:1.046331 9:1.375299 10:-0.116878 11:-0.222642 12:0.229245 13:-1.739593 14:-0.530729 15:-0.485546 16:0.577858 17:-0.531998 18:0.132663 19:1.444378 20:-0.296969 21:-0.771467 22:-0.450023 23:0.327862 24:-0.903848 25:-0.482207
-1 1:0.762325 2:1.034812 3:-0.618098 4:-0.744208 5:-0.691088 6:-1.382869 7:0.233573 8:1.438106 9:-0.160391 10:1.621109 11:0.085548 12:-1.217179 13:-1.196487 14:0.708302 15:-1.300496 16:0.315257 17:-1.207125 18:-0.895143 19:-0.343715 20:0.921520 21:0.891356 22:-0.654946 23:0.155237 24:-0.894869 25:0.502061
-1 1:-0.612941 2:1.051784 3:-0.927219 4:1.559502 5:0.900973 6:-0.268878 7:2.064667 8:-1.042967 9:1.256673 10:0.009694 11:0.861623 12:0.541127 13:1.030594 14:-0.957499 15:0.140382 16:-1.000864 17:-1.544859 18:1.034500 19:-0.807288 20:0.158873 21:-0.792823 22:-1.818336 23:-1.483409 24:-0.455776 25:-1.468785
-1 1:0.057904 2:-0.298566 3:-0.298453 4:0.575928 5:-1.209720 6:-0.360856 7:0.366212 8:-1.269964 9:0.425862 10:-1.442059 11:-1.055915 12:0.544872 13:-1.302651 14:0.301753 15:1.645458 16:1.160805 17:-0.226131 18:0.387046 19:1.050444 20:-0.081043 21:0.421454 22:-1.395835 23:1.181621 24:0.561792 25:2.044802
-1 1:-1.977423 2:-0.928065 3:-0.847669 4:1.942428 5:0.499820 6:0.448454 7:0.468622 8:-0.931679 9:1.289482 10:0.480362 11:0.167419 12:-0.953525 13:-0.026367 14:-0.909962 15:-0.088971 16:1.693764 17:-1.066729 18:-1.157409 19:1.480596 20:-0.490602 21:0.281874 22:0.223776 23:0.040484 24:-0.631371 25:-0.090966
-1 1:-0.355722 2:0.289570 3:-0.313053 4:0.056166 5:0.453941 6:0.385102 7:-0.339094 8:0.783373 9:0.136905 10:1.044234 11:-0.736760 12:1.183601 13:-0.696098 14:1.175394 15:2.793963 16:0.478539 17:0.223914 18:0.109531 19:0.263173 20:-0.523433 21:1.524358 22:-0.447588 23:1.654173 24:1.232696 25:1.091199
-1 1:0.023076 2:0.621905 3:0.008299 4:0.175198 5:-0.424070 6:1.125273 7:-0.214570 8:-0.236082 9:0.409605 10:-0.491286 11:0.078409 12:-1.306686 13:-0.417111 14:-0.093909 15:-1.546974 16:-1.196774 17:-0.061230 18:-0.205089 19:-0.037436 20:1.555485 21:0.059263 22:-0.465687 23:0.066965 24:0.256949 25:0.381996
-1 1:-1.639666 2:-0.868931 3:0.530810 4:0.358816 5:0.261966 6:-0.483784 7:0.546621 8:0.854473 9:-0.463930 10:-1.376701 11:-1.471847 12:-0.408032 13:-0.633662 14:-0.076889 15:-1.026224 16:-2.002769 17:-0.465231 18:-0.151271 19:0.411814 20:0.749430 21:-1.073873 22:-0.612957 23:0.809075 24:-1.222660 25:-0.139587
-1 1:0.183749 2:0.642447 3:1.548072 4:-1.087751 5:-0.918391 6:1.609387 7:0.641885 8:-0.852840 9:-0.725972 10:1.451455 11:1.250010 12:-0.804314 13:-0.804096 14:-0.776734 15:3.209326 16:-1.386222 17:-1.771166 18:0.169314 19:-0.240205 20:-0.805034 21:-1.102380 22:0.469611 23:-0.087683 24:-0.255468 25:-0.086302
-1 1:0.833071 2:1.232274 3:-0.851600 4:-0.364673 5:0.768310 6:-0.562597 7:-0.941846 8:-1.215880 9:0.168582 10:1.824475 11:-0.945345 12:0.967449 13:0.213274 14:-0.931835 15:0.517962 16:0.850389 17:0.039715 18:0.988477 19:-0.433388 20:-2.393250 21:1.341552 22:-1.882564 23:-0.134233 24:0.388862 25:0.115785
-1 1:0.387674 2:1.379118 3:-1.968685 4:-2.165116 5:0.089266 6:-1.959692 7:0.180871 8:0.087814 9:-0.108991 10:-1.105738 11:0.155901 12:-2.396927 13:-0.338664 14:0.745856 15:0.094286 16:-0.570468 17:-0.520240 18:-0.597348 19:0.622328 20:0.719943 21:1.173403 22:0.550855 23:-0.922029 24:1.780209 25:1.896314
-1 1:-0.770908 2:-1.695530 3:-1.062785 4:0.335529 5:-1.301431 6:-2.500087 7:1.017768 8:-0.028505 9:0.221950 10:-0.212293 11:-0.033846 12:-1.175631 13:-1.927225 14:1.192202 15:-1.063117 16:-1.904242 17:0.214531 18:0.463729 19:0.567483 20:0.745202 21:0.989083 22:1.465695 23:-2.765166 24:-0.573864 25:0.127377
-1 1:0.676346 2:0.701462 3:-2.780300 4:-2.393526 5:-0.527358 6:-0.155288 7:0.136491 8:0.814048 9:1.362287 10:0.895647 11:0.522603 12:-0.122604 13:0.057444 14:0.444640 15:2.039786 16:0.187918 17:0.625156 18:-1.424051 19:-1.100085 20:-1.575924 21:-0.204609 22:-0.650244 23:0.670249 24:0.011863 25:-1.541082
-1 1:-0.894682 2:-1.309264 3:-0.733021 4:1.796196 5:0.162449 6:-0.616029 7:0.168312 8:0.270488 9:-0.153902 10:0.229964 11:-0.582239 12:-0.598704 13:-0.109856 14:-1.336414 15:-0.295476 16:-0.861864 17:1.275084 18:0.580771 19:-1.218780 20:-0.913251 21:0.977448 22:-0.704365 23:0.038188 24:-0.580581 25:-2.146808
-1 1:-1.811580 2:-1.400802 3:-0.538816 4:1.375583 5:0.053121 6:0.716513 7:1.244180 8:1.009958 9:-0.960900 10:-0.105611 11:-0.380788 12:0.325145 13:0.176184 14:-0.616453 15:2.195775 16:0.614371 17:0.098964 18:1.162895 19:1.332232 20:-0.325961 21:0.543911 22:-0.054862 23:-0.026766 24:-0.539851 25:0.778854
-1 1:0.640450 2:1.440258 3:-0.942176 4:-0.581325 5:0.922522 6:0.256692 7:0.277078 8:1.577804 9:1.600520 10:0.761658 11:-1.433564 12:-2.465045 13:-0.019764 14:-1.016913 15:0.343620 16:0.992091 17:-0.263432 18:-0.023704 19:-0.202093 20:0.265728 21:-1.148088 22:-1.372098 23:-0.046913 24:-0.414505 25:1.202731
-1 1:-1.126839 2:1.572959 3:0.092778 4:0.484276 5:-0.254381 6:1.115634 7:0.126909 8:-1.048389 9:-1.347763 10:-0.341613 11:-1.424847 12:-0.205816 13:-1.151972 14:-0.888787 15:-0.422252 16:0.229842 17:-0.449444 18:-0.663204 19:1.665861 20:0.342369 21:-0.674318 22:-0.074689 23:0.706737 24:0.054876 25:0.733970
-1 1:0.720403 2:1.145283 3:0.469333 4:-0.821872 5:-0.052315 6:0.839211 7:0.327590 8:-0.355356 9:0.539248 10:0.200070 11:-0.535014 12:0.101968 13:0.338518 14:0.173142 15:0.409337 16:0.893510 17:-0.025857 18:-0.304178 19:0.164469 20:-0.227317 21:-1.592063 22:-0.084481 23:-0.152079 24:1.441525 25:-0.445075
-1 1:-0.757334 2:-0.419395 3:-1.866885 4:-0.581774 5:-1.087085 6:1.426688 7:-0.009666 8:0.971859 9:-1.902910 10:-1.385623 11:-0.067249 12:-0.431727 13:1.128110 14:0.513005 15:1.375808 16:0.511684 17:-0.139061 18:0.598977 19:-1.212919 20:0.213252 21:0.586287 22:0.666662 23:0.077204 24:-0.695593 25:1.298253
-1 1:0.953259 2:-0.290631 3:-0.917318 4:0.725792 5:1.684998 6:0.043734 7:1.887159 8:0.859970 9:0.185794 10:-0.031786 11:-1.297904 12:-1.721385 13:0.337621 14:-1.524856 15:-0.466332 16:0.951983 17:0.635365 18:1.299493 19:1.355065 20:0.689870 21:-0.223775 22:-0.174270 23:-1.362402 24:1.789832 25:1.934072
-1 1:1.497727 2:-1.098818 3:0.668427 4:-1.540140 5:1.693198 6:-0.601745 7:-0.030545 8:-0.877472 9:0.703138 10:-1.876783 11:-1.078539 12:-0.986848 13:-0.274993 14:-0.881007 15:0.613101 16:-0.233825 17:-0.133514 18:0.575017 19:-0.252947 20:1.240574 21:0.070795 22:-0.585001 23:0.174198 24:-1.039987 25:0.411824
-1 1:-1.755618 2:0.997133 3:2.515784 4:-0.471315 5:-0.135433 6:0.947779 7:-0.071454 8:2.180917 9:0.037676 10:-0.844736 11:0.667516 12:-0.300346 13:0.346099 14:1.411667 15:1.814929 16:-1.943833 17:0.103165 18:0.118967 19:1.740250 20:-0.239860 21:-1.825017 22:1.211306 23:-0.072187 24:1.176764 25:-0.835234
-1 1:0.417460 2:0.675092 3:-0.132140 4:-0.582796 5:-1.386703 6:-0.180626 7:-0.032583 8:1.234594 9:1.675303 10:0.435498 11:0.933811 12:-1.623520 13:0.333156 14:1.279579 15:-0.622659 16:0.103786 17:0.377077 18:-1.499139 19:0.167545 20:-0.698532 21:0.056303 22:1.748407 23:-0.252569 24:-0.293531 25:1.738652
-1 1:0.169237 2:0.844919 3:-0.736287 4:1.380857 5:-1.161748 6:-0.049207 7:-0.267483 8:-1.714970 9:0.786400 10:2.287220 11:0.332116 12:0.025543 13:-1.212143 14:-0.487369 15:0.661362 16:-0.789084 17:1.648013 18:0.261286 19:-0.112045 20:0.352847 21:0.651555 22:0.003285 23:0.446792 24:1.302482 25:-2.372626
-1 1:0.997278 2:1.356904 3:0.089061 4:-0.400579 5:-0.665999 6:-0.134117 7:0.830249 8:0.401989 9:1.306782 10:-1.516281 11:0.237633 12:0.902080 13:-0.715302 14:-1.180624 15:0.943681 16:1.737979 17:-0.787390 18:-0.217704 19:-0.410867 20:-0.709388 21:1.615832 22:-1.254498 23:0.373807 24:-1.294062 25:0.685543
-1 1:-0.062950 2:0.257817 3:-0.898968 4:0.582233 5:-1.024705 6:-0.066548 7:0.457159 8:-0.551329 9:1.189947 10:-1.175277 11:-0.010610 12:-0.007374 13:-0.098808 14:0.071770 15:-0.067725 16:-0.676871 17:0.145433 18:0.692158 19:-0.405605 20:-0.545671 21:0.402967 22:0.871433 23:2.639976 24:0.439699 25:1.296726
-1 1:-0.154158 2:-2.916194 3:2.743066 4:0.527377 5:-0.218964 6:-1.999644 7:-0.346870 8:0.768996 9:0.433572 10:0.087308 11:-0.233057 12:1.015854 13:1.218894 14:0.125671 15:0.268437 16:0.482117 17:-1.757753 18:-1.781650 19:-0.179837 20:-0.884503 21:-0.216239 22:0.075619 23:-0.022203 24:-0.541676 25:-0.865482
-1 1:-1.635357 2:0.318063 3:-0.743668 4:-0.586131 5:-1.271671 6:-0.805886 7:0.048496 8:0.148680 9:-0.583984 10:1.517885 11:0.061561 12:0.446942 13:2.126250 14:0.977817 15:0.360073 16:-1.228636 17:-1.322487 18:1.428697 19:-0.896596 20:0.978662 21:-0.188365 22:-1.799590 23:1.362298 24:-0.411887 25:-0.005168
-1 1:1.065774 2:-0.009844 3:-0.293237 4:-0.333545 5:0.652546 6:0.839616 7:-1.088932 8:0.861910 9:0.008290 10:-1.386664 11:0.036719 12:-0.457345 13:-0.225074 14:-0.640160 15:-0.650136 16:0.545884 17:0.328171 18:-0.086791 19:-2.708089 20:-0.053356 21:-0.007295 22:-1.505711 23:1.604360 24:-0.163156 25:-0.294013
-1 1:0.044490 2:-0.206034 3:1.455361 4:-0.469656 5:0.394648 6:-0.434814 7:-0.460796 8:1.899981 9:-0.305884 10:0.023149 11:-0.227321 12:-0.842163 13:0.759586 14:-1.422788 15:0.229079 16:0.931350 17:-0.178967 18:-0.596212 19:-0.217984 20:0.965462 21:0.597182 22:-2.107952 23:-0.910600 24:-0.201217 25:-2.225197
-1 1:-1.174134 2:0.288737 3:1.614223 4:0.129485 5:0.578058 6:-1.739828 7:0.032876 8:-0.092352 9:-0.425381 10:0.787388 11:-1.599090 12:0.649292 13:-0.218758 14:-1.601027 15:-1.935524 16:-0.588982 17:2.596468 18:0.314389 19:-1.062375 20:1.718072 21:0.275283 22:0.223174 23:0.767102 24:-0.523617 25:0.191539
-1 1:0.092072 2:0.150316 3:-0.031897 4:-0.732341 5:0.297596 6:-1.312150 7:0.264449 8:1.069017 9:-0.279404 10:-0.185899 11:-0.080137 12:0.555506 13:-0.812082 14:-1.193146 15:-0.839596 16:-0.191797 17:2.170504 18:0.852040 19:-0.586205 20:0.141980 21:-1.147770 22:0.892897 23:-1.782664 24:1.471425 25:-0.145378
-1 1:-0.863827 2:1.106766 3:-0.360712 4:1.977747 5:0.577265 6:-1.419738 7:-1.402164 8:0.361985 9:1.384005 10:1.132917 11:0.145568 12:0.251840 13:0.296867 14:-0.274751 15:1.283090 16:0.088715 17:-0.721608 18:0.474205 19:1.075993 20:0.600420 21:0.982764 22:2.040581 23:-1.107840 24:-0.826428 25:-1.275192
-1 1:-0.887153 2:1.024800 3:0.099076 4:0.980730 5:1.055572 6:0.585528 7:1.950724 8:-1.204908 9:0.723475 10:-0.818051 11:0.063427 12:0.530451 13:0.342448 14:0.659276 15:-1.169611 16:1.145583 17:0.065499 18:0.377960 19:-2.656230 20:0.590293 21:-1.447171 22:0.812064 23:0.587855 24:0.238628 25:0.767842
-1 1:-0.279537 2:0.826027 3:0.351318 4:1.683271 5:1.115088 6:-0.874819 7:-0.636647 8:-0.169877 9:0.323691 10:0.672763 11:0.102035 12:0.079206 13:-0.871886 14:-0.480058 15:-2.027417 16:-0.135844 17:0.720851 18:2.081487 19:-0.962187 20:0.345522 21:0.339749 22:1.346864 23:-0.156525 24:-0.892642 25:0.908861
-1 1:2.743559 2:0.448302 3:1.684838 4:0.066774 5:0.877342 6:-0.193249 7:-1.056916 8:-0.366088 9:-0.517219 10:-1.491503 11:1.360703 12:-1.915891 13:-0.589084 14:0.051796 15:-0.353376 16:-0.247155 17:-0.292074 18:0.009337 19:0.299954 20:1.730718 21:1.501387 22:-0.970229 23:-1.187589 24:-0.616530 25:0.657882
-1 1:-0.750519 2:1.930840 3:-0.314948 4:-0.104006 5:1.122952 6:0.054221 7:-0.816883 8:0.642195 9:-0.797600 10:-0.816823 11:1.299771 12:-0.815629 13:1.034179 14:1.271616 15:-0.309484 16:-1.117831 17:0.653004 18:0.476483 19:1.538466 20:-0.575347 21:0.624900 22:-0.055536 23:-0.890548 24:-0.974981 25:-0.161215
-1 1:-0.247764 2:-1.211126 3:0.225386 4:-1.098861 5:0.443993 6:1.165687 7:-2.133313 8:0.038319 9:-1.267699 10:-1.148402 11:-0.196909 12:-0.676238 13:-2.105892 14:1.639495 15:0.207171 16:0.794489 17:-0.448264 18:0.682135 19:2.536809 20:-1.526353 21:0.092481 22:-1.033988 23:-0.216175 24:0.797093 25:0.384688
-1 1:-2.006256 2:1.608632 3:-0.716851 4:-1.051545 5:0.219033 6:2.965561 7:0.637678 8:1.558887 9:0.144334 10:1.035380 11:-0.791575 12:-1.816578 13:-0.164992 14:-0.831288 15:-0.547004 16:0.954831 17:-0.914443 18:-0.666740 19:-0.278618 20:-0.657446 21:-0.145993 22:-0.297554 23:-1.969744 24:0.327774 25:-0.412990
-1 1:-1.287640 2:2.247412 3:-2.082212 4:0.788184 5:-0.304697 6:1.783174 7:-0.182373 8:-1.095058 9:-0.070432 10:0.420073 11:1.055466 12:0.175826 13:0.481550 14:0.924556 15:-0.371858 16:0.728568 17:0.606596 18:-1.085901 19:-0.581288 20:-0.887815 21:0.574153 22:-1.072261 23:-0.545571 24:1.537230 25:-0.922613
-1 1:-0.353989 2:0.335378 3:-1.036870 4:1.713720 5:1.428027 6:0.061689 7:-1.266860 8:0.713048 9:-0.555041 10:-1.839727 11:0.390196 12:0.153097 13:-0.381341 14:-0.268871 15:-0.100066 16:-0.335422 17:-0.537149 18:-0.367550 19:1.396659 20:1.251969 21:0.190472 22:-1.807647 23:-0.197549 24:-1.273222 25:-0.941997
-1 1:-1.177312 2:1.231025 3:2.063011 4:-0.019428 5:-1.336702 6:0.914842 7:2.641776 8:1.018370 9:1.143311 10:-0.011262 11:-0.056442 12:-0.152254 13:0.673079 14:0.525182 15:0.592161 16:-2.149925 17:0.540132 18:1.146422 19:0.978409 20:0.145711 21:0.396193 22:1.792959 23:0.596692 24:1.199612 25:-0.941477
-1 1:-0.833654 2:-0.031442 3:-0.449237 4:-1.505951 5:0.439145 6:0.785088 7:-0.787681 8:1.825733 9:0.080115 10:-0.961474 11:1.998326 12:1.300047 13:0.121699 14:0.350100 15:0.206834 16:2.135271 17:0.571741 18:0.881514 19:0.126321 20:-0.184346 21:-0.303211 22:-0.756327 23:-0.420766 24:-0.665385 25:-1.002804
-1 1:-0.181448 2:-1.275780 3:2.062720 4:1.000594 5:-0.074292 6:-0.879562 7:-0.812315 8:-0.477885 9:0.120938 10:-0.565719 11:0.513223 12:0.239437 13:-0.850911 14:0.443822 15:1.591966 16:-0.275833 17:-2.074398 18:0.081483 19:-2.085946 20:1.383128 21:0.369053 22:0.364561 23:0.856254 24:-1.194518 25:-0.302859
-1 1:0.044991 2:-0.806427 3:0.709697 4:1.128812 5:-2.009276 6:-1.138665 7:0.173104 8:1.054880 9:1.469452 10:-0.127834 11:0.407886 12:1.097640 13:1.526026 14:1.287868 15:0.252166 16:-1.037252 17:1.504214 18:-1.114045 19:0.558707 20:-1.155772 21:0.152544 22:-0.524438 23:1.110026 24:-0.823803 25:-0.890229
-1 1:-0.564199 2:2.435037 3:0.854001 4:1.443674 5:2.111789 6:0.438303 7:-0.453972 8:-0.875279 9:-0.435213 10:0.579396 11:0.150936 12:0.682341 13:0.257252 14:-0.451357 15:1.063509 16:0.306245 17:-1.157261 18:-1.347996 19:-1.126891 20:-0.532414 21:1.380105 22:0.181377 23:-0.091622 24:2.041256 25:-1.134835
-1 1:-1.414789 2:-0.657107 3:-0.283077 4:-1.299749 5:-1.611411 6:0.934366 7:1.301105 8:-0.983007 9:-0.465632 10:-0.500918 11:1.457935 12:-1.356470 13:-0.154655 14:-1.552354 15:-0.176640 16:0.743850 17:0.245026 18:1.276482 19:0.607840 20:1.714832 21:-0.870820 22:0.217233 23:0.865071 24:-0.426291 25:0.041951
-1 1:0.119433 2:-1.628487 3:-0.026414 4:-0.815378 5:1.353984 6:1.343339 7:2.277253 8:-1.651728 9:-0.260588 10:0.263503 11:-0.610497 12:1.620715 13:0.411374 14:-0.241116 15:-1.828663 16:-0.649574 17:-0.164630 18:2.348462 19:-0.791731 20:-0.406514 21:1.100517 22:-1.024676 23:3.114232 24:0.981622 25:0.904134
-1 1:0.492185 2:-1.489703 3:0.076593 4:1.051089 5:1.687121 6:-0.396009 7:0.232205 8:-0.140920 9:2.603981 10:0.345407 11:1.637142 12:0.434186 13:2.770890 14:0.056309 15:-0.118740 16:0.770899 17:0.226260 18:-1.304615 19:0.777306 20:-0.917040 21:0.148385 22:-0.993641 23:0.025940 24:-0.079132 25:0.499585
-1 1:-1.147089 2:0.556013 3:0.214537 4:0.722607 5:-0.935617 6:-1.602647 7:-1.168043 8:0.960895 9:-1.321621 10:0.287648 11:-1.514001 12:0.399383 13:0.025851 14:-0.495551 15:-2.187707 16:-0.308611 17:1.227057 18:0.634524 19:-2.097530 20:-0.413839 21:0.420640 22:-1.106201 23:1.170600 24:-1.489481 25:2.055661
-1 1:0.533689 2:1.551881 3:-0.176210 4:0.292908 5:-0.226138 6:1.308516 7:-1.022801 8:-1.180758 9:1.168526 10:-0.458467 11:0.468006 12:1.185767 13:0.675305 14:-1.213198 15:-0.905622 16:-0.784952 17:-0.848441 18:-1.319840 19:-0.444401 20:0.511091 21:-1.128193 22:-1.171668 23:-1.602171 24:0.807302 25:-0.212596
-1 1:0.687468 2:1.216157 3:0.240787 4:0.596202 5:-1.756633 6:-1.606039 7:-0.501190 8:1.319739 9:-0.215610 10:0.364377 11:0.453055 12:-0.566986 13:-0.233666 14:-0.382275 15:0.158800 16:-1.422482 17:0.980701 18:0.534878 19:-0.841590 20:-1.394379 21:-0.021012 22:0.388763 23:2.052820 24:1.209942 25:0.537182
-1 1:2.156741 2:-1.245408 3:-0.670238 4:-0.216714 5:0.178166 6:0.886817 7:0.370051 8:-0.471120 9:1.387966 10:-0.073971 11:0.190819 12:-1.500579 13:1.627576 14:-0.669998 15:-0.059346 16:0.643853 17:1.240748 18:1.002788 19:0.874212 20:-0.552840 21:-0.439723 22:0.475784 23:-0.650387 24:-0.966654 25:-0.440267
-1 1:2.377617 2:0.819860 3:-0.318374 4:-0.357651 5:0.345179 6:-0.256023 7:-0.737883 8:1.460742 9:-1.037744 10:1.197502 11:-1.539213 12:0.457389 13:1.680348 14:-0.670604 15:-1.991299 16:0.020254 17:-1.407907 18:-0.245939 19:1.402465 20:-1.853640 21:-0.229962 22:0.045371 23:-0.431373 24:-2.334725 25:-0.775497
-1 1:-0.142361 2:0.618094 3:-0.191675 4:0.254093 5:-1.608084 6:0.613246 7:2.397457 8:-1.133405 9:3.011082 10:0.953513 11:0.162730 12:-0.106424 13:-0.376496 14:0.113236 15:0.367790 16:-1.384219 17:-2.151582 18:-0.506592 19:0.859335 20:0.041916 21:0.009725 22:1.515089 23:0.022718 24:-0.096874 25:0.598526
-1 1:0.340949 2:0.407192 3:-2.490646 4:-0.844301 5:-1.372634 6:0.360879 7:0.446439 8:-0.543100 9:-0.127493 10:0.342795 11:-1.087772 12:0.910766 13:0.707528 14:-0.868873 15:-2.183301 16:0.456265 17:-1.333180 18:-0.040529 19:-1.879547 20:-1.564763 21:2.550775 22:1.209506 23:0.340714 24:0.874162 25:0.871195
-1 1:0.361399 2:1.554885 3:-1.277813 4:1.145009 5:-0.390677 6:0.540397 7:-0.443917 8:0.396776 9:0.307572 10:-0.885784 11:1.476986 12:-0.874537 13:0.089488 14:-0.063719 15:-0.453748 16:0.644514 17:0.880240 18:-0.077116 19:-0.757487 20:0.096983 21:-0.453872 22:-0.337301 23:0.507048 24:-0.253630 25:-0.419326
-1 1:0.192916 2:1.258573 3:0.320186 4:-0.399327 5:0.621017 6:0.755523 7:0.943584 8:0.500233 9:1.039091 10:-0.472631 11:0.263070 12:1.998893 13:0.283369 14:-0.264105 15:0.068639 16:0.023097 17:0.416535 18:1.151865 19:-0.437954 20:-2.311562 21:2.183682 22:1.796918 23:-0.029288 24:-0.753236 25:0.729294
-1 1:0.382568 2:0.969295 3:0.382996 4:1.585879 5:0.635238 6:0.396202 7:-0.457646 8:-0.641589 9:-1.343500 10:0.310872 11:-1.978589 12:-0.536169 13:-0.269789 14:-1.128201 15:-0.333037 16:1.471657 17:-0.268666 18:0.300492 19:-1.209813 20:-0.703671 21:0.913757 22:-0.632310 23:0.804914 24:1.870566 25:-0.006583
-1 1:0.187677 2:-2.541053 3:0.483981 4:-0.360030 5:0.483647 6:-1.183633 7:0.531348 8:-1.369419 9:1.650151 10:0.604417 11:-1.683400 12:-0.634001 13:-1.326327 14:0.584488 15:-0.676939 16:-0.852113 17:-0.298066 18:-1.210200 19:-0.679586 20:-0.422581 21:-0.505928 22:-0.490914 23:0.690123 24:-0.150580 25:0.058809
-1 1:1.597470 2:-0.210687 3:0.263081 4:-0.722015 5:-0.171843 6:0.033809 7:0.001689 8:-2.375716 9:-0.158632 10:-0.198318 11:-1.443753 12:-1.640070 13:0.316749 14:-0.172837 15:0.006792 16:-1.766534 17:-0.941414 18:-1.156832 19:-2.772519 20:-0.713018 21:-0.950841 22:0.633022 23:0.158689 24:0.991188 25:-0.513736
-1 1:1.667877 2:-0.270439 3:-0.679599 4:-0.844989 5:-1.154616 6:-0.370979 7:1.845950 8:1.230708 9:-0.782578 10:-0.410078 11:0.160982 12:-3.073581 13:-0.067626 14:0.427572 15:0.886947 16:-0.332230 17:-0.030916 18:0.197711 19:-0.632854 20:0.343592 21:-1.844989 22:-1.338444 23:0.439867 24:0.478035 25:-0.752871
-1 1:0.129241 2:-1.148666 3:-0.492778 4:-0.824913 5:0.428023 6:1.582134 7:-0.084694 8:-0.051676 9:-0.409515 10:-0.554647 11:-0.374481 12:0.211955 13:1.489104 14:2.003153 15:0.175403 16:-0.365596 17:-0.030436 18:1.351997 19:0.918277 20:-1.692726 21:-1.104894 22:0.053098 23:0.292285 24:-1.900744 25:0.073173
-1 1:0.974868 2:-0.069098 3:-0.267268 4:-1.392919 5:0.790956 6:0.148749 7:-1.649636 8:1.396083 9:-0.607585 10:-1.326727 11:0.429433 12:0.353486 13:-0.282336 14:1.518309 15:-1.431234 16:0.043782 17:-0.163876 18:0.628031 19:-1.368773 20:0.440779 21:-0.311625 22:-0.464637 23:0.624198 24:-0.662505 25:-0.138600
-1 1:-1.027118 2:0.240411 3:0.926937 4:0.532535 5:-0.530948 6:-0.854263 7:0.126463 8:-0.290304 9:1.502963 10:0.225878 11:1.034597 12:-1.615230 13:-1.318214 14:0.820548 15:0.614643 16:0.645327 17:0.599302 18:-0.234710 19:-1.917021 20:0.411090 21:-0.262398 22:-0.038789 23:1.213644 24:-1.272808 25:0.576763
-1 1:1.955646 2:1.843962 3:1.550211 4:0.082648 5:-0.502403 6:-0.317161 7:1.042237 8:0.420072 9:-0.546868 10:-0.568715 11:0.233884 12:0.329873 13:-0.726223 14:-0.413386 15:1.180617 16:-0.990547 17:0.082733 18:-0.371429 19:0.162910 20:-1.415962 21:1.023386 22:-0.329193 23:2.805828 24:-2.050691 25:-0.712823
-1 1:0.061389 2:0.478885 3:-1.946741 4:-2.314873 5:0.570678 6:1.797593 7:-1.588954 8:0.092203 9:-1.135838 10:-0.952222 11:-1.891358 12:-0.226802 13:-0.691552 14:1.082858 15:-0.039207 16:1.147222 17:0.583489 18:-0.280541 19:0.856349 20:0.041521 21:-0.888099 22:0.236013 23:-2.301328 24:-1.582329 25:-0.288421
-1 1:-2.744928 2:-0.599087 3:-1.126459 4:-0.717043 5:-0.880810 6:0.559916 7:-0.520445 8:1.613371 9:-1.078891 10:0.663975 11:0.744688 12:0.224689 13:-0.664502 14:-1.322578 15:-3.081355 16:0.526660 17:1.113471 18:-0.056976 19:-1.501142 20:0.813119 21:-0.410295 22:0.489195 23:-0.160833 24:-2.187157 25:-1.071053
-1 1:2.370917 2:0.105778 3:-1.737017 4:0.108043 5:-0.435813 6:0.019427 7:-0.137200 8:-0.637043 9:1.065735 10:-0.696796 11:0.082515 12:0.564922 13:-0.419879 14:-0.565589 15:0.743726 16:0.007524 17:0.676347 18:0.738146 19:0.816441 20:-0.487133 21:-1.559116 22:0.354528 23:1.807139 24:-1.256156 25:0.193582
-1 1:1.110225 2:-1.550128 3:0.571112 4:-0.601909 5:-1.623196 6:-0.187386 7:-0.780482 8:-0.852663 9:-0.211794 10:1.959760 11:2.513332 12:0.075374 13:0.339039 14:-0.659768 15:-1.149639 16:-0.486708 17:0.868539 18:0.286995 19:-1.982613 20:-0.110915 21:-0.980694 22:-0.738282 23:0.960048 24:1.426257 25:-1.301576
-1 1:1.502478 2:1.039062 3:0.444814 4:0.144667 5:0.395728 6:-1.122685 7:-0.383569 8:-0.252198 9:-0.087876 10:1.558331 11:0.131416 12:0.130815 13:-0.404228 14:-0.682353 15:-2.170100 16:-0.529986 17:-0.142686 18:-1.892691 19:0.471775 20:1.043381 21:0.389247 22:-0.394253 23:-0.167128 24:0.566388 25:1.009455
-1 1:-0.073724 2:0.888357 3:0.503298 4:-0.574949 5:-1.065394 6:-0.284301 7:-0.167880 8:0.066457 9:-0.055235 10:-0.675120 11:0.200878 12:-0.048479 13:-0.675418 14:0.226885 15:0.929767 16:0.092780 17:1.116925 18:-0.994644 19:-1.079932 20:0.475633 21:-0.418066 22:-0.922244 23:0.473626 24:-1.477152 25:0.614424
-1 1:-0.610367 2:-0.155154 3:0.895540 4:0.789940 5:-0.595963 6:-1.097962 7:0.937084 8:-0.829056 9:-0.626956 10:3.559736 11:0.795663 12:-1.805100 13:-1.878382 14:0.289583 15:-0.075132 16:-0.229339 17:-0.386440 18:-0.237167 19:-1.068098 20:-0.596222 21:-1.380919 22:-0.412693 23:0.903671 24:2.559604 25:-0.132495
-1 1:-0.805883 2:-0.655091 3:0.659457 4:-1.026616 5:-1.006319 6:-0.617665 7:0.314870 8:0.108902 9:-0.226212 10:0.437192 11:-1.364313 12:0.350198 13:0.093890 14:-0.191043 15:1.332785 16:0.176288 17:-0.685596 18:1.873508 19:-1.577740 20:-0.306229 21:0.576788 22:0.272366 23:-1.934414 24:0.655729 25:0.776811
-1 1:1.014490 2:-0.331173 3:-2.099944 4:1.278311 5:0.593880 6:-0.012806 7:1.222048 8:-0.327819 9:-1.983005 10:0.145878 11:-1.354067 12:1.345867 13:-0.443032 14:-1.508282 15:-0.601492 16:-0.787536 17:1.579559 18:-0.210663 19:1.300559 20:-1.763532 21:0.478727 22:0.791444 23:0.963101 24:0.375005 25:0.138120
-1 1:0.541755 2:0.428852 3:-1.347893 4:0.339938 5:0.410988 6:-0.773061 7:1.224323 8:1.367914 9:0.921602 10:0.637349 11:1.723570 12:-0.997089 13:0.039766 14:-0.167907 15:0.116953 16:-1.664452 17:-0.300795 18:0.159201 19:-0.658954 20:-2.466729 21:-0.076653 22:-0.749579 23:0.624744 24:0.361851 25:1.119759
-1 1:-0.991234 2:-1.663984 3:-1.130832 4:-0.248032 5:0.608367 6:0.450300 7:1.799815 8:0.309137 9:-1.843352 10:-1.916043 11:0.930323 12:0.496436 13:-0.742926 14:0.328419 15:0.056833 16:0.886250 17:0.287186 18:0.259751 19:1.811059 20:-1.196229 21:1.742002 22:0.702887 23:0.325916 24:-0.206003 25:-0.367704
-1 1:1.523261 2:1.882126 3:1.020327 4:-0.883903 5:-1.086355 6:-0.369416 7:-1.175340 8:-0.408517 9:0.268150 10:-0.528114 11:-0.376810 12:-1.054090 13:-0.284387 14:0.216393 15:0.292803 16:-0.132351 17:-1.281227 18:-0.691597 19:-1.284519 20:0.981583 21:1.108408 22:1.225101 23:-1.850058 24:-0.627191 25:0.253726
-1 1:-0.353352 2:-0.154241 3:-0.766264 4:-0.114411 5:1.405145 6:-1.520970 7:-0.936842 8:-0.819464 9:1.076503 10:0.470639 11:2.291897 12:-0.151250 13:-1.378969 14:-0.090940 15:-1.037736 16:-0.644871 17:-0.144335 18:0.488804 19:-0.168485 20:0.041149 21:0.026403 22:0.390261 23:-1.676634 24:0.287725 25:-0.000404
-1 1:-1.382515 2:0.346085 3:-0.523862 4:-0.148797 5:-0.954636 6:0.577374 7:0.106822 8:-0.374541 9:-0.760554 10:1.275766 11:0.776291 12:0.411808 13:-0.601590 14:-0.424062 15:-0.627282 16:-0.943853 17:0.287920 18:-0.075321 19:-0.584115 20:-2.419002 21:0.459976 22:0.390715 23:0.054778 24:-1.083717 25:-0.261699
-1 1:0.149326 2:0.140575 3:-1.215514 4:-0.163119 5:0.789732 6:-2.482600 7:2.014639 8:0.774429 9:1.138539 10:-0.564330 11:0.436022 12:-0.232807 13:-0.228788 14:-0.194736 15:0.393940 16:-0.014000 17:0.297513 18:-0.056855 19:0.231298 20:-0.367140 21:0.100601 22:-0.466650 23:0.288082 24:-1.306891 25:0.977826
-1 1:-0.388833 2:0.216903 3:-0.305122 4:-1.082754 5:0.580398 6:-1.646464 7:-0.914666 8:1.100588 9:0.263509 10:1.433473 11:1.076201 12:0.109938 13:0.708768 14:-0.304014 15:0.921588 16:-1.481829 17:0.171061 18:0.061752 19:-1.005517 20:-1.496211 21:1.351639 22:0.233127 23:1.677175 24:-0.183422 25:0.962269
-1 1:0.428262 2:1.084600 3:-1.432545 4:1.518393 5:-0.346180 6:1.215875 7:0.011569 8:-0.523398 9:-1.280031 10:2.191939 11:0.120106 12:-1.548463 13:0.308181 14:3.069604 15:-1.516311 16:-0.489695 17:-0.132200 18:-2.829646 19:0.907295 20:0.604134 21:-0.303670 22:1.120017 23:-0.178121 24:-1.467167 25:-0.447351
-1 1:-0.305867 2:0.508355 3:-0.230918 4:1.100290 5:0.440407 6:-1.006147 7:0.099424 8:-0.288069 9:-1.460156 10:0.268613 11:0.719657 12:-0.271440 13:-0.702577 14:-0.907731 15:-0.463138 16:-0.310223 17:-1.018099 18:0.014144 19:0.615275 20:-0.058094 21:-0.618421 22:0.321748 23:-2.274973 24:2.057251 25:0.972284
-1 1:0.436146 2:-0.122854 3:-1.401784 4:1.245230 5:0.803710 6:-0.038475 7:-2.433364 8:1.518382 9:-0.185581 10:0.926315 11:-1.028895 12:0.996628 13:-0.314472 14:0.430364 15:-1.381990 16:0.384385 17:-0.864646 18:-1.846627 19:-1.021680 20:1.311986 21:-0.204634 22:-0.072074 23:0.660260 24:-0.814091 25:0.783792
-1 1:0.521100 2:0.513614 3:0.300871 4:1.720943 5:0.530493 6:-1.165317 7:1.120754 8:0.943880 9:0.752554 10:-0.953405 11:-0.429306 12:-0.994988 13:-0.626355 14:-1.568469 15:0.265434 16:-1.856722 17:-0.614820 18:-1.603054 19:2.168906 20:-0.100733 21:0.873057 22:-1.222256 23:1.218022 24:0.467573 25:-0.458951
-1 1:2.051575 2:-1.427786 3:0.503746 4:0.355587 5:1.214428 6:0.031611 7:-2.210011 8:-1.021586 9:-0.960433 10:2.911851 11:1.171310 12:2.791985 13:-0.376002 14:-0.998242 15:-0.245055 16:1.850902 17:0.142755 18:-0.257465 19:0.022719 20:-0.693799 21:-1.145599 22:2.247918 23:1.253039 24:-0.189356 25:0.020378
-1 1:0.241640 2:-0.526074 3:-1.280945 4:-0.515908 5:-2.404620 6:-0.415049 7:-0.994200 8:0.231357 9:1.814164 10:-0.268491 11:-1.699281 12:-0.472044 13:-2.853814 14:2.435470 15:-1.051467 16:1.134065 17:-1.536560 18:-2.369632 19:0.837084 20:1.256054 21:-0.463659 22:-1.220447 23:0.533797 24:0.562230 25:1.768959
-1 1:-0.209151 2:0.109971 3:-0.056116 4:0.194032 5:0.856865 6:-0.292943 7:0.907147 8:0.999858 9:-1.380244 10:-0.256925 11:-0.025594 12:-1.614112 13:1.398158 14:0.645030 15:-1.098827 16:-0.089389 17:0.256557 18:0.664129 19:0.775340 20:-0.698796 21:-0.183917 22:0.022998 23:-0.973671 24:-1.166393 25:0.237729
-1 1:-0.148936 2:-2.096287 3:-1.174818 4:0.633435 5:-0.730224 6:-1.423392 7:3.783936 8:0.943933 9:0.248174 10:0.998107 11:0.990352 12:1.444412 13:0.303108 14:1.228443 15:-0.425408 16:2.387094 17:0.980385 18:-0.202199 19:0.591479 20:-0.122187 21:1.071987 22:0.724540 23:3.038440 24:0.748536 25:0.452901
-1 1:-0.178661 2:1.094243 3:0.193109 4:-1.064348 5:-1.328725 6:0.635932 7:0.276002 8:2.001950 9:-0.448044 10:0.070966 11:1.802944 12:-1.685877 13:-0.260422 14:-1.195321 15:0.718739 16:1.413833 17:-0.712841 18:-0.088870 19:-0.323889 20:1.683614 21:0.466066 22:-1.567886 23:0.148129 24:-0.160510 25:-1.216778
-1 1:1.109200 2:1.107000 3:0.024823 4:2.336938 5:1.873827 6:-0.268608 7:0.212681 8:0.021251 9:-1.110132 10:1.011940 11:-0.499659 12:-2.329504 13:-0.287968 14:0.244912 15:-0.848406 16:-1.233500 17:0.289199 18:1.754227 19:0.017448 20:-2.730740 21:-0.155250 22:-2.138284 23:-0.555753 24:2.297996 25:-1.637087
-1 1:0.028527 2:0.158740 3:-0.412333 4:0.549346 5:0.631715 6:-0.434557 7:-1.637476 8:-0.179784 9:0.307279 10:-1.233056 11:0.443778 12:-0.099857 13:2.022691 14:0.995090 15:0.553731 16:0.823209 17:2.733222 18:0.628502 19:-0.461822 20:-0.134904 21:0.947757 22:0.176924 23:-0.731436 24:0.034641 25:0.069186
-1 1:0.941082 2:-0.768161 3:-0.011803 4:-0.597153 5:1.702401 6:-0.711567 7:0.234401 8:0.490898 9:0.023067 10:0.532642 11:-0.883922 12:-0.301456 13:-0.211558 14:0.096298 15:-0.164935 16:0.922689 17:-0.885510 18:1.492301 19:-0.261985 20:0.214592 21:0.336566 22:1.125089 23:-0.143579 24:1.854722 25:1.391427
-1 1:0.487837 2:-0.434196 3:0.478742 4:0.658011 5:0.629010 6:0.403724 7:-0.691831 8:-1.068273 9:-0.120224 10:-1.009326 11:-0.032053 12:0.197296 13:1.523938 14:0.442872 15:0.174451 16:0.055109 17:-1.057302 18:-1.853941 19:0.356028 20:-0.471202 21:-0.468831 22:0.133528 23:-2.672242 24:-0.809939 25:1.277020
-1 1:0.948812 2:0.409199 3:1.095507 4:0.771919 5:0.816422 6:-0.055900 7:0.038851 8:-0.985051 9:-0.176598 10:2.306572 11:-0.902478 12:-0.584189 13:0.792528 14:-1.333812 15:-1.467290 16:0.654027 17:-0.089403 18:-1.323003 19:-0.559927 20:0.805126 21:-0.268906 22:-1.082983 23:-0.459358 24:1.103759 25:0.978899
-1 1:-0.883660 2:1.322930 3:-2.042018 4:1.647381 5:1.851061 6:0.915574 7:0.139006 8:-1.859370 9:0.456314 10:1.120126 11:0.994089 12:-0.851450 13:-2.217656 14:-0.062129 15:-1.151693 16:-1.712713 17:-0.074880 18:1.419999 19:0.886883 20:0.427423 21:-2.685227 22:1.393784 23:2.087872 24:0.141409 25:0.159060
-1 1:0.382168 2:-0.456478 3:-0.514389 4:1.650999 5:-0.713074 6:0.634620 7:-1.032188 8:-0.590743 9:0.745460 10:0.770024 11:-0.471743 12:0.689465 13:-0.650593 14:-2.094026 15:0.286950 16:-0.598053 17:-0.347730 18:-0.488356 19:-0.691188 20:1.776283 21:1.769606 22:0.126424 23:-0.212558 24:-0.190676 25:-0.435219
-1 1:2.087375 2:-0.098988 3:-0.438299 4:-0.596008 5:0.562194 6:-0.499245 7:0.796492 8:0.029607 9:0.945873 10:-0.172868 11:-0.301890 12:-0.067035 13:-0.411106 14:0.908420 15:-1.351817 16:-1.771366 17:-0.361911 18:-1.033572 19:-0.024715 20:-1.685778 21:1.387101 22:-0.709260 23:-0.732690 24:-1.464906 25:-0.461214
-1 1:-0.326611 2:0.205341 3:-0.902722 4:-0.148151 5:-0.472820 6:-0.409506 7:0.628245 8:-0.079146 9:-0.510468 10:-1.496056 11:0.450855 12:0.853017 13:-2.040295 14:1.178286 15:0.114639 16:-1.877960 17:0.910533 18:0.542151 19:0.775718 20:1.443342 21:-1.207269 22:-0.296228 23:0.580668 24:0.400318 25:0.737983
-1 1:0.127026 2:-0.868925 3:1.039199 4:0.281850 5:-0.150168 6:-0.449775 7:-0.296271 8:0.631815 9:-1.513933 10:0.800668 11:-1.119550 12:-0.030746 13:-0.372818 14:-3.331328 15:-0.822252 16:1.055058 17:-0.637944 18:-0.265786 19:-0.349232 20:0.840319 21:0.940833 22:-0.257987 23:0.943976 24:1.184325 25:1.105260
-1 1:-1.094962 2:0.308228 3:0.827935 4:-1.150983 5:1.595864 6:-0.614280 7:-1.395693 8:-0.178315 9:-0.121251 10:-0.078711 11:0.718181 12:-2.234048 13:-1.444413 14:-1.633227 15:-0.788386 16:0.785269 17:1.846093 18:-0.201298 19:-0.103500 20:-0.064539 21:0.845803 22:0.527614 23:-1.625066 24:-1.073308 25:-0.303494
-1 1:0.489517 2:-0.255543 3:-1.491728 4:1.241062 5:-1.287357 6:-0.750758 7:0.526759 8:-0.140363 9:0.270783 10:0.049711 11:-1.357090 12:0.322279 13:0.871842 14:-2.630963 15:-0.198094 16:0.352836 17:0.190897 18:0.773113 19:0.343563 20:0.944028 21:-0.140038 22:-1.687836 23:-0.135846 24:-1.528882 25:0.173728
-1 1:0.047926 2:-0.955331 3:1.302643 4:0.959821 5:-1.418442 6:-0.576087 7:0.571161 8:-0.657202 9:0.200607 10:-1.069687 11:-0.807507 12:-0.373368 13:-0.275291 14:-0.657457 15:0.284504 16:-1.722184 17:-1.463528 18:1.306955 19:-1.839958 20:-1.527702 21:0.047893 22:0.306688 23:0.137543 24:-1.451716 25:1.277905
-1 1:-0.130884 2:-2.368232 3:-0.974751 4:-1.847296 5:0.783198 6:0.021694 7:-0.536841 8:-0.957156 9:0.036644 10:-1.250390 11:-1.166615 12:0.378456 13:1.319476 14:1.562722 15:-1.203791 16:-0.552075 17:-0.135132 18:-1.031433 19:-1.648854 20:-0.728931 21:-0.968685 22:-0.918821 23:0.604756 24:1.959346 25:-0.638784
-1 1:-0.850159 2:0.039419 3:1.066545 4:-0.137456 5:-0.210648 6:1.367330 7:-0.713195 8:0.693402 9:-1.173952 10:0.889093 11:0.575001 12:-2.218502 13:0.123302 14:1.220963 15:0.826022 16:0.074263 17:0.368629 18:-0.702075 19:0.146846 20:0.127385 21:-3.773364 22:-1.845833 23:0.078792 24:-1.269476 25:1.618164
-1 1:-0.462121 2:-1.343219 3:-0.757963 4:-0.986417 5:0.268402 6:1.698846 7:-0.151484 8:-0.467293 9:0.340721 10:-1.090651 11:-1.259018 12:-0.241608 13:0.118090 14:1.371520 15:-0.558423 16:-0.833037 17:-0.778162 18:1.102680 19:1.280305 20:0.270467 21:-0.276349 22:0.401144 23:-0.630259 24:-0.172904 25:0.037093
-1 1:1.318269 2:-1.317063 3:0.136584 4:0.112131 5:0.110748 6:0.151388 7:-0.098354 8:0.237430 9:-0.435102 10:-0.499456 11:1.508143 12:-0.157555 13:0.413189 14:0.015120 15:0.164896 16:-0.309351 17:0.994896 18:-1.302412 19:-0.726863 20:-1.302708 21:-0.898441 22:0.394206 23:-0.632508 24:0.509470 25:-0.799466
-1 1:2.030415 2:0.106585 3:0.546432 4:-2.042975 5:-0.763354 6:-1.005295 7:0.332077 8:-0.099654 9:-0.881590 10:-0.317002 11:0.234917 12:-2.456886 13:0.495582 14:-0.462266 15:0.483298 16:0.297171 17:-1.260216 18:0.682292 19:-0.011531 20:-0.054018 21:0.129824 22:1.079704 23:1.940358 24:1.180130 25:0.349086
-1 1:0.873696 2:0.563470 3:-1.231970 4:-1.521749 5:0.400475 6:0.439664 7:-0.554216 8:-0.026218 9:1.069262 10:0.709502 11:1.031710 12:0.735744 13:0.359367 14:0.019394 15:-0.728837 16:1.197787 17:-2.020296 18:-1.384482 19:-0.201914 20:0.064400 21:1.074092 22:-1.397154 23:-0.767658 24:-1.798230 25:-0.185474
-1 1:-0.160099 2:-0.900490 3:1.834790 4:0.423145 5:-1.435871 6:1.375521 7:-1.155212 8:1.728317 9:0.591321 10:-0.510526 11:1.456423 12:-0.513462 13:-1.504305 14:-0.156237 15:0.679598 16:0.441935 17:-0.752258 18:-0.630490 19:-1.094811 20:0.080300 21:-0.595487 22:-0.321252 23:0.841057 24:0.299183 25:-0.714861
-1 1:-0.350409 2:1.590905 3:-0.500195 4:0.871986 5:-1.038086 6:-2.206336 7:-0.799879 8:0.268943 9:-2.194232 10:0.629729 11:-1.554584 12:0.612323 13:-0.897609 14:-1.454807 15:0.774785 16:-1.294560 17:0.547637 18:1.238074 19:0.379070 20:-1.206492 21:0.023353 22:0.877363 23:0.235817 24:-0.029541 25:0.092165
-1 1:-0.039268 2:-1.631197 3:0.271942 4:-0.047219 5:1.947630 6:-1.636305 7:-0.081053 8:-1.546730 9:-0.307783 10:-1.173820 11:-0.475356 12:-0.159976 13:-1.093172 14:-0.662413 15:-1.397006 16:-0.075083 17:-0.490544 18:-0.068523 19:-0.266765 20:-1.113188 21:1.582054 22:0.455702 23:-0.494041 24:-2.156727 25:0.031945
-1 1:-1.255424 2:-0.151168 3:0.162844 4:0.812576 5:-1.349668 6:-0.973748 7:0.735001 8:-1.285097 9:-1.125202 10:-0.366563 11:-1.330650 12:-0.066460 13:0.281694 14:-2.120570 15:1.099891 16:0.851712 17:0.853903 18:-0.274461 19:0.036323 20:-0.011733 21:0.144478 22:0.253029 23:1.085717 24:0.271585 25:-1.096785
-1 1:-0.849891 2:0.097893 3:-2.314220 4:0.719383 5:-0.915728 6:-0.050166 7:0.970046 8:-0.550125 9:1.048556 10:-0.801585 11:0.234491 12:0.051912 13:1.162654 14:0.941766 15:-0.610987 16:0.147395 17:0.807199 18:1.285997 19:0.556205 20:0.469468 21:-1.372136 22:-2.208061 23:-1.030268 24:-1.279301 25:-1.053725
-1 1:-1.824868 2:0.530996 3:-1.073283 4:1.249118 5:1.618530 6:0.158274 7:-0.206859 8:0.341137 9:-0.686468 10:0.445421 11:-0.611759 12:0.140463 13:0.249953 14:-0.410888 15:0.833746 16:0.400416 17:-0.811316 18:-0.582254 19:-1.791633 20:1.690762 21:0.202121 22:-1.656124 23:1.403671 24:0.731204 25:0.250227
-1 1:-0.170286 2:-0.696341 3:-1.588673 4:-2.064353 5:-1.106771 6:-0.234504 7:-1.557808 8:0.042381 9:0.037737 10:-0.043030 11:-0.353804 12:-1.997533 13:-0.563156 14:-0.922421 15:-0.979424 16:0.379777 17:0.126713 18:2.930474 19:0.579681 20:-1.323335 21:1.985941 22:-0.175689 23:1.876312 24:0.268205 25:0.392832
-1 1:-0.596899 2:0.278647 3:1.405081 4:0.752713 5:0.647487 6:-0.303513 7:0.806700 8:-1.125147 9:1.359158 10:1.445896 11:-0.032668 12:-0.364336 13:0.392406 14:0.062000 15:0.359194 16:0.305890 17:-0.304564 18:-1.266709 19:-0.632670 20:1.160585 21:0.226079 22:1.299906 23:-2.081512 24:-0.245936 25:1.580426
-1 1:0.702713 2:0.985565 3:-0.433914 4:-0.074717 5:0.274808 6:-0.720711 7:1.420585 8:0.386254 9:0.635274 10:0.747695 11:-0.061462 12:-0.938608 13:0.029323 14:0.356307 15:-0.625346 16:1.092256 17:-0.442104 18:0.274043 19:-0.453338 20:-1.529277 21:-1.013379 22:-1.155555 23:0.686495 24:-0.679134 25:-1.532322
-1 1:-0.779624 2:0.077539 3:-1.168796 4:-0.524078 5:0.107997 6:-0.505786 7:-0.651656 8:-0.510898 9:-1.039002 10:-1.465376 11:0.848147 12:-1.236253 13:-0.318696 14:-0.536309 15:-1.313105 16:-0.037812 17:0.749934 18:-0.724273 19:0.444589 20:0.035742 21:0.961566 22:0.570909 23:0.343456 24:-0.648064 25:-0.556096
-1 1:-1.333726 2:-0.779558 3:-1.292598 4:-0.229559 5:-1.248554 6:-1.795963 7:0.196033 8:-1.022134 9:-1.594176 10:0.113377 11:1.807193 12:-0.601924 13:1.696767 14:0.739638 15:0.302929 16:-0.261826 17:1.104164 18:-1.301917 19:-1.428854 20:0.121346 21:-1.466644 22:0.562273 23:-0.833779 24:0.010007 25:0.385656
-1 1:-1.166520 2:-0.188414 3:0.142874 4:0.929762 5:0.714214 6:-0.550192 7:0.198006 8:1.572157 9:0.060759 10:0.815369 11:0.067630 12:0.616003 13:-1.400655 14:0.015681 15:-0.635584 16:0.976418 17:-0.691607 18:-0.379626 19:0.611547 20:-0.392974 21:0.260032 22:0.654544 23:0.259307 24:0.052288 25:-1.517906
-1 1:1.245329 2:-0.443232 3:2.358362 4:-0.383205 5:0.017811 6:0.506356 7:-1.075103 8:0.307938 9:1.372955 10:1.378190 11:0.459422 12:0.338574 13:-1.992002 14:0.252784 15:-0.072722 16:1.349518 17:1.100736 18:-0.894477 19:-0.146165 20:0.382425 21:1.741146 22:0.169632 23:-1.841756 24:-0.148425 25:-1.124753
-1 1:-0.147403 2:-0.016355 3:0.142671 4:1.203349 5:-1.386431 6:-0.792130 7:-0.021014 8:0.972206 9:-0.681808 10:-1.528876 11:0.073019 12:-0.850209 13:1.286961 14:0.503809 15:-0.350706 16:0.021699 17:-0.084558 18:-1.063393 19:-0.664456 20:0.513380 21:0.471475 22:-0.230417 23:-1.104923 24:0.065686 25:-0.105966
-1 1:-0.817627 2:-1.590665 3:1.557032 4:-1.275740 5:0.972770 6:0.259710 7:-0.288556 8:0.584324 9:-2.912429 10:1.691483 11:0.154513 12:0.882395 13:0.121139 14:-0.174662 15:0.438657 16:-1.522591 17:0.546598 18:0.692010 19:-0.079533 20:0.070614 21:-0.882135 22:-0.697240 23:-0.350561 24:0.088303 25:-0.238183
-1 1:-0.620320 2:-1.167922 3:0.652143 4:-3.227198 5:2.522808 6:0.963888 7:0.188229 8:-0.130993 9:-0.848807 10:0.497723 11:0.305775 12:-0.676524 13:1.069871 14:-1.700727 15:0.795617 16:-0.974877 17:-0.122967 18:-1.252050 19:1.007901 20:-1.558582 21:0.495641 22:0.180526 23:-0.759446 24:0.984727 25:-0.227491
-1 1:-0.527954 2:-0.928271 3:1.703177 4:0.428592 5:0.251199 6:-1.636434 7:0.856381 8:-0.075721 9:-0.531466 10:0.400700 11:-0.683185 12:-1.078542 13:-1.427404 14:0.921424 15:0.732629 16:0.663869 17:0.276735 18:-0.669955 19:0.405328 20:-0.226551 21:1.080567 22:0.928972 23:0.726311 24:-0.248766 25:-0.612247
-1 1:0.653418 2:1.801370 3:1.185352 4:-0.902124 5:-0.005468 6:-0.075565 7:-1.656954 8:2.103404 9:0.515662 10:-0.235933 11:-0.632288 12:0.469610 13:-0.097204 14:3.448159 15:-0.686243 16:0.175400 17:2.029802 18:-1.301020 19:-1.371607 20:-0.452299 21:0.161376 22:0.388529 23:-0.439959 24:1.119107 25:0.165448
-1 1:-0.587238 2:-1.407817 3:0.763636 4:0.112168 5:0.470859 6:0.172091 7:-0.710365 8:0.709492 9:0.931245 10:1.749298 11:0.696091 12:0.155873 13:0.230023 14:-0.050911 15:-1.296111 16:-1.663857 17:0.890846 18:0.008939 19:-1.673574 20:-0.145057 21:-0.641639 22:0.055989 23:1.048338 24:-0.819738 25:0.123356
-1 1:-2.363554 2:0.731103 3:0.439324 4:-1.072540 5:-0.371660 6:1.358456 7:-0.238027 8:0.130023 9:-0.189197 10:-1.703007 11:2.398958 12:0.541587 13:-1.048759 14:0.782418 15:-0.115126 16:-1.204477 17:-1.136957 18:-0.934411 19:-0.488251 20:-0.622409 21:-0.316345 22:0.154522 23:-0.612288 24:-2.239302 25:-0.176335
-1 1:0.319014 2:0.002521 3:0.550999 4:0.705780 5:-1.611235 6:-0.561542 7:-0.870707 8:-1.090354 9:0.304201 10:0.009663 11:1.312009 12:-1.484974 13:1.219682 14:-0.703608 15:-0.177718 16:0.543573 17:-0.675786 18:0.838014 19:0.101188 20:0.570025 21:0.584031 22:-0.802853 23:-0.410165 24:-0.312979 25:-1.682221
-1 1:-1.780125 2:-1.021182 3:0.405238 4:1.119296 5:-0.058684 6:1.155721 7:-0.742605 8:0.645379 9:-0.160585 10:0.590939 11:-1.164802 12:0.736702 13:0.194276 14:-1.380745 15:0.096810 16:-1.621911 17:-0.444122 18:-0.469074 19:0.527959 20:-0.830599 21:0.957730 22:-0.089582 23:-0.663748 24:-0.563451 25:-0.220384
-1 1:-0.866053 2:-0.170228 3:0.406509 4:1.110756 5:-0.611027 6:0.233354 7:0.512808 8:2.018346 9:0.289514 10:-0.429014 11:-0.343829 12:0.450179 13:1.007293 14:-2.507166 15:-1.788168 16:-0.975412 17:0.550162 18:0.452542 19:-0.783618 20:-1.352124 21:1.946174 22:0.404577 23:0.546185 24:-0.365829 25:0.523031
-1 1:-0.802663 2:0.325421 3:1.016098 4:1.113904 5:0.552134 6:-0.608524 7:1.593933 8:-0.047964 9:0.748306 10:0.929577 11:-0.341223 12:0.520533 13:-1.096341 14:-0.098605 15:0.178822 16:0.234184 17:-1.497597 18:0.152869 19:0.614199 20:0.618543 21:-0.367829 22:0.663179 23:0.046308 24:-0.602233 25:-0.779343
-1 1:-1.171773 2:-0.114439 3:0.470769 4:0.320079 5:1.505754 6:1.087880 7:-0.141163 8:0.771735 9:-0.659148 10:0.972880 11:-0.833362 12:-0.538605 13:0.946590 14:0.135109 15:0.433014 16:-0.654239 17:0.249120 18:1.452198 19:-1.620392 20:-0.106870 21:-0.176240 22:0.622759 23:0.071900 24:-0.005748 25:2.266593
-1 1:-0.306082 2:0.409016 3:-1.319934 4:0.950273 5:-0.684066 6:1.198914 7:1.474350 8:1.981767 9:1.405289 10:-1.588503 11:-1.172128 12:-0.051746 13:0.793372 14:0.585663 15:-0.112582 16:0.082358 17:0.393839 18:0.086651 19:-0.355977 20:0.535816 21:-1.550980 22:-0.019888 23:1.215382 24:-0.060817 25:0.419921
-1 1:1.275338 2:-0.581454 3:-1.501416 4:-0.351896 5:1.929922 6:-1.024456 7:-1.029411 8:-0.406480 9:-0.668815 10:1.109803 11:0.539080 12:-0.814479 13:-1.111239 14:-0.123496 15:-1.082268 16:0.374477 17:1.515360 18:-0.822764 19:0.764962 20:1.840685 21:0.742978 22:-1.128946 23:-1.095253 24:0.179095 25:-0.863626
-1 1:0.113715 2:1.231863 3:-0.748220 4:0.670874 5:-0.539180 6:0.480753 7:0.905019 8:2.498401 9:-0.475557 10:0.236378 11:0.534041 12:0.331948 13:-0.471145 14:1.215249 15:-0.113336 16:-0.660743 17:0.108650 18:-0.991905 19:-0.312100 20:-0.452309 21:1.354547 22:-0.021628 23:-0.082534 24:0.630772 25:-0.155082
-1 1:0.960006 2:0.174052 3:0.576931 4:-1.131951 5:2.117998 6:-0.866144 7:1.602189 8:1.105376 9:0.327722 10:0.391293 11:0.414172 12:0.445862 13:0.343144 14:-1.569372 15:-1.433584 16:2.062340 17:-0.276303 18:1.205240 19:-2.237469 20:-0.965550 21:-0.000344 22:-1.631707 23:-2.729209 24:2.376318 25:0.804580
-1 1:-1.145616 2:0.022013 3:-0.169358 4:0.619219 5:-0.903699 6:-1.480904 7:0.428719 8:0.476531 9:-0.917323 10:-0.970496 11:0.794464 12:0.269240 13:1.930832 14:-2.074206 15:0.624697 16:-0.932371 17:-0.542212 18:0.299392 19:-0.180856 20:-1.196056 21:0.613930 22:1.056199 23:0.069554 24:0.955814 25:-0.721316
-1 1:-1.408356 2:-0.744938 3:-1.729161 4:0.056037 5:-0.888645 6:0.175348 7:-2.573951 8:-0.496622 9:-0.089728 10:1.919210 11:1.907692 12:-0.085515 13:1.135107 14:-1.520473 15:0.242301 16:-0.597469 17:-0.000918 18:-1.333332 19:-0.357228 20:0.524097 21:-0.488483 22:-0.285124 23:-0.549169 24:0.741024 25:-2.127782
-1 1:1.040572 2:-0.044153 3:0.540004 4:0.316948 5:-1.101442 6:0.599667 7:-1.245956 8:-1.282791 9:-0.434549 10:-0.110750 11:0.436476 12:-1.106450 13:-0.797386 14:-1.077791 15:-0.331898 16:-1.159287 17:-0.077241 18:-1.095536 19:0.169410 20:-1.087540 21:-1.036111 22:0.369399 23:0.499641 24:-1.236513 25:0.097661
-1 1:-1.514233 2:-0.110227 3:1.120895 4:-1.199327 5:-0.668985 6:0.184166 7:1.248714 8:-1.210743 9:-0.964955 10:-0.893475 11:-0.783074 12:-0.130807 13:-0.301967 14:0.712875 15:-1.132208 16:-0.875241 17:0.368930 18:1.261963 19:-1.432673 20:-1.777927 21:0.549561 22:-0.243778 23:0.344704 24:0.908856 25:-0.613987
-1 1:-0.734852 2:0.987060 3:-1.366477 4:0.229883 5:-0.571933 6:0.877889 7:0.633581 8:-0.894761 9:-0.452810 10:-0.679975 11:-0.835961 12:0.514421 13:0.651808 14:-0.641872 15:-0.886369 16:2.160092 17:0.537884 18:-0.387308 19:0.124490 20:-0.047591 21:-0.247730 22:0.483193 23:1.758367 24:1.277388 25:0.496390
-1 1:-0.227841 2:0.782466 3:-0.413560 4:-0.742278 5:1.338547 6:0.734749 7:1.698149 8:1.033917 9:0.144480 10:0.304270 11:0.369944 12:0.987517 13:-0.884297 14:-1.180720 15:-0.760485 16:-2.741901 17:-0.338592 18:-2.202903 19:-0.038817 20:-1.093401 21:-1.091314 22:0.105919 23:0.297493 24:0.760107 25:0.959835
-1 1:-0.406689 2:-0.700549 3:0.518960 4:0.531225 5:-0.336554 6:1.657623 7:1.665522 8:-1.753524 9:0.123860 10:0.150469 11:-1.969711 12:0.962964 13:-0.398517 14:2.901120 15:-1.159958 16:0.731547 17:0.024370 18:2.020072 19:-0.455245 20:1.574646 21:-0.713799 22:-1.369771 23:-0.935911 24:0.919590 25:-0.349914
-1 1:1.455295 2:0.137308 3:0.016373 4:0.539905 5:-1.991222 6:1.534022 7:1.519373 8:0.980486 9:-0.212423 10:0.998610 11:-1.799302 12:1.673971 13:-0.051444 14:0.818039 15:0.526546 16:1.212737 17:0.403737 18:1.887192 19:0.373976 20:0.400573 21:0.870068 22:1.003698 23:-2.110932 24:0.132482 25:-0.829994
-1 1:-1.459681 2:-0.139665 3:-0.121125 4:1.966118 5:1.094607 6:0.896680 7:1.127625 8:0.609785 9:-0.591115 10:-1.221293 11:0.320110 12:-0.212769 13:1.043891 14:-0.235529 15:-1.075533 16:0.658886 17:0.976196 18:1.481571 19:-1.275560 20:0.479180 21:-1.788153 22:1.476191 23:-0.057024 24:0.303315 25:-0.346568
-1 1:-0.725138 2:0.299759 3:-0.359462 4:-0.182164 5:-0.971543 6:-0.023948 7:-0.394644 8:-1.256521 9:-1.784081 10:-0.606450 11:0.812157 12:-1.304450 13:-0.409684 14:-0.480614 15:1.271506 16:1.223631 17:1.476471 18:-0.373039 19:0.176611 20:0.015246 21:1.056173 22:0.296152 23:0.755526 24:-1.815507 25:-0.354445
-1 1:0.159305 2:0.221448 3:1.298412 4:-0.390163 5:1.179605 6:0.266967 7:0.188578 8:0.245842 9:-0.674471 10:-0.798224 11:-0.820134 12:-0.031468 13:-1.816837 14:0.142520 15:-1.027795 16:0.425849 17:-0.367606 18:-0.429535 19:0.728658 20:-0.105817 21:-0.912062 22:-0.104704 23:1.262267 24:0.400239 25:-0.768651
-1 1:-2.255369 2:0.624833 3:-0.051126 4:1.634766 5:-0.124388 6:-0.634037 7:1.693687 8:2.602492 9:-0.062835 10:1.572300 11:-1.199612 12:-1.733299 13:-1.867029 14:1.670639 15:-0.373949 16:-1.497637 17:-0.065477 18:1.116633 19:0.885443 20:0.583191 21:2.232567 22:1.037584 23:0.901400 24:0.030021 25:-0.094284
-1 1:1.203449 2:-0.328065 3:-1.297067 4:0.072385 5:1.473937 6:-0.766127 7:-0.773906 8:-0.224963 9:0.249936 10:1.211784 11:0.124105 12:0.696481 13:0.814686 14:-0.674887 15:-1.077927 16:-0.525360 17:0.042039 18:0.950183 19:1.300134 20:-0.636903 21:0.136861 22:0.347307 23:1.396161 24:-0.716853 25:0.251612
-1 1:1.946622 2:-0.696320 3:0.694633 4:-1.300041 5:0.394650 6:0.816743 7:-1.148831 8:0.237595 9:-0.138416 10:0.208208 11:-1.740036 12:1.364495 13:-1.077800 14:-0.635336 15:-0.458676 16:1.213043 17:0.306173 18:1.825451 19:0.661164 20:-0.611916 21:0.579682 22:0.041670 23:-0.646455 24:0.153218 25:-0.085312
-1 1:-0.846506 2:-0.354109 3:-0.314428 4:0.469638 5:-1.423729 6:1.868214 7:1.295977 8:0.159934 9:0.486461 10:0.643085 11:1.135011 12:-0.137813 13:0.185250 14:-0.046670 15:0.557867 16:-0.918860 17:-0.414395 18:-0.730772 19:-1.080898 20:-0.555995 21:-0.972962 22:0.105507 23:-0.414714 24:-0.334343 25:-2.735775
-1 1:0.780580 2:0.655080 3:-1.611961 4:-0.861043 5:1.125517 6:-0.273353 7:1.060750 8:0.300583 9:-1.278670 10:0.297826 11:-0.191928 12:0.507981 13:-1.829972 14:-0.433206 15:-1.020324 16:1.910612 17:0.775708 18:0.507485 19:-0.657915 20:0.570051 21:1.092052 22:1.075518 23:-0.909648 24:-1.596862 25:0.187318
-1 1:-1.460832 2:0.534291 3:0.395961 4:-1.658625 5:0.789968 6:1.327947 7:1.449006 8:0.305977 9:0.322592 10:0.733034 11:0.063577 12:0.323412 13:-1.681483 14:-0.125687 15:0.071885 16:0.202950 17:-0.172033 18:-0.436988 19:-1.609186 20:-0.145456 21:0.952671 22:-0.334558 23:0.255651 24:-0.133859 25:-2.182687
-1 1:0.587948 2:-1.532612 3:-1.194438 4:-1.606531 5:1.288942 6:-0.931710 7:-0.033757 8:-1.338170 9:0.192676 10:-1.406578 11:0.864037 12:-0.945933 13:0.143552 14:-1.511217 15:1.121193 16:0.003953 17:0.767494 18:0.998674 19:0.574368 20:-0.312967 21:-0.936553 22:-1.106908 23:0.576890 24:-0.953533 25:0.965213
-1 1:-0.131909 2:-0.679371 3:0.011407 4:-0.909151 5:0.503112 6:0.126729 7:-1.292832 8:0.063702 9:-1.102986 10:-0.377149 11:-1.677544 12:-0.723374 13:-0.859775 14:0.424651 15:-2.519646 16:1.248121 17:-0.086818 18:1.154005 19:-0.322539 20:0.516226 21:-0.588765 22:-0.195462 23:-1.145925 24:0.070486 25:0.361948
-1 1:0.820479 2:-0.155297 3:0.041059 4:-0.613301 5:1.430288 6:-1.109233 7:1.542357 8:-0.702663 9:0.953950 10:-0.371378 11:-1.836810 12:-1.533575 13:-1.511083 14:0.739008 15:-0.080534 16:-0.148379 17:-0.580741 18:-0.333606 19:2.422547 20:-0.333115 21:-0.469783 22:2.185759 23:-0.152670 24:-1.882613 25:-2.615087
-1 1:-0.924977 2:0.182332 3:-0.943724 4:-0.642977 5:1.486076 6:0.106138 7:0.419167 8:1.375706 9:-1.462859 10:-0.833645 11:1.258279 12:-0.072149 13:-1.003842 14:1.081295 15:1.352475 16:1.585088 17:1.722979 18:-0.148219 19:0.112612 20:0.415984 21:0.264696 22:-0.065901 23:-0.432415 24:1.033181 25:0.076126
-1 1:-1.707219 2:-1.047281 3:-0.839275 4:-0.153342 5:1.026229 6:0.182767 7:0.895483 8:1.033001 9:-0.099054 10:-1.364497 11:0.512960 12:-0.060597 13:-1.303057 14:1.106309 15:-0.426412 16:0.126646 17:-0.526430 18:0.044088 19:0.353503 20:1.862691 21:-1.267694 22:0.283659 23:0.162819 24:0.705561 25:0.440757
-1 1:0.123915 2:0.281051 3:-1.496692 4:1.397506 5:0.162862 6:0.055578 7:-1.008848 8:-0.897809 9:-0.127153 10:1.582696 11:1.860248 12:-0.063483 13:-2.906216 14:-0.080788 15:1.703657 16:0.758960 17:0.720454 18:-0.287397 19:0.712796 20:-0.558533 21:0.229056 22:0.768931 23:-0.411390 24:0.173475 25:-1.226469
-1 1:-0.730224 2:-0.817797 3:0.263229 4:-1.119117 5:0.162241 6:-1.590295 7:-0.493752 8:-0.524855 9:-1.170106 10:1.662485 11:-0.306320 12:0.732540 13:-0.076204 14:0.642963 15:-0.026287 16:0.122918 17:-0.734733 18:-0.885633 19:0.488641 20:0.902434 21:-0.965295 22:-0.407193 23:-0.487767 24:-0.484176 25:0.897063
-1 1:-0.334763 2:-1.425847 3:0.613168 4:0.807516 5:-0.893443 6:0.381965 7:-1.351949 8:0.779105 9:-1.237455 10:-0.236497 11:0.204535 12:1.102517 13:0.186850 14:-1.293053 15:0.628099 16:-0.377569 17:1.233995 18:-1.368424 19:0.951944 20:-1.807796 21:1.157317 22:0.334093 23:-1.273604 24:1.035322 25:-0.262311
-1 1:-0.685691 2:-0.601777 3:0.884562 4:-0.248229 5:1.241701 6:-1.640683 7:-0.518800 8:-2.717577 9:0.312051 10:-0.350891 11:0.452957 12:0.961855 13:0.506054 14:-1.320806 15:2.071525 16:0.533978 17:-0.683892 18:-0.997734 19:0.765950 20:-1.554668 21:-1.202404 22:-0.409451 23:0.935975 24:-0.132445 25:-1.078978
-1 1:0.678728 2:0.950821 3:0.285480 4:-0.923286 5:-1.077935 6:0.077423 7:-1.089624 8:-0.451744 9:0.694059 10:-1.959104 11:-0.127906 12:0.956200 13:1.930581 14:-0.590397 15:-0.074209 16:-1.972574 17:0.311116 18:-1.705090 19:1.417557 20:1.711116 21:-0.661740 22:-0.819327 23:-0.899593 24:-1.066052 25:1.002838
-1 1:-1.583795 2:-0.226404 3:0.274739 4:-2.167882 5:1.632263 6:0.296101 7:0.033965 8:-0.922405 9:-0.412969 10:0.422028 11:-0.797196 12:1.402460 13:-1.345827 14:0.442728 15:0.902840 16:-0.476213 17:0.602117 18:-0.351588 19:0.273021 20:0.179243 21:1.671856 22:-0.998169 23:0.756302 24:-0.894101 25:-0.294677
-1 1:2.378878 2:-0.567267 3:-0.604546 4:-0.241782 5:0.394608 6:-0.538018 7:-1.229844 8:-1.943379 9:-1.061860 10:0.455750 11:-0.883008 12:1.149514 13:1.358987 14:-0.898525 15:-0.851226 16:-0.368094 17:1.939094 18:0.817598 19:0.745596 20:-0.653142 21:0.105510 22:-0.239776 23:-0.698593 24:0.689339 25:-0.836007
-1 1:-0.310126 2:-0.195250 3:-0.039797 4:-1.315941 5:0.535857 6:-1.188925 7:0.546583 8:0.241502 9:-0.066868 10:0.164922 11:0.115313 12:2.076019 13:0.500515 14:1.160006 15:0.450082 16:-0.172349 17:-0.156817 18:-1.049890 19:-0.255834 20:-1.179364 21:-1.020671 22:-1.213338 23:1.856689 24:0.670046 25:-0.085850
-1 1:-0.876397 2:1.151041 3:1.980426 4:0.901126 5:-1.478685 6:0.481327 7:-1.487382 8:0.113582 9:-0.761539 10:-0.459845 11:-0.435470 12:0.838013 13:0.042873 14:0.746875 15:0.308875 16:-0.369041 17:0.806604 18:0.263083 19:1.253033 20:-1.234358 21:0.838992 22:2.255625 23:-1.591677 24:-0.184910 25:0.928467
-1 1:0.598435 2:0.463780 3:0.583624 4:0.979501 5:0.525484 6:-0.409336 7:1.959008 8:1.272706 9:0.286867 10:-0.459097 11:1.180815 12:1.721889 13:-0.035426 14:1.256208 15:0.376313 16:0.411331 17:-0.324182 18:0.310811 19:-0.726564 20:0.719972 21:-2.260890 22:1.670841 23:0.149905 24:-1.508787 25:1.426558
-1 1:-2.219051 2:-1.846745 3:-0.659560 4:1.814904 5:-0.241416 6:-0.088870 7:1.805757 8:-1.060794 9:1.479336 10:1.519826 11:-0.778784 12:-1.403699 13:-0.807666 14:-0.859540 15:-0.393082 16:-0.229249 17:0.187802 18:-1.234772 19:-1.460798 20:0.036747 21:0.512173 22:-0.085818 23:0.010168 24:1.296847 25:-1.101356
-1 1:-0.881154 2:-0.479545 3:0.615811 4:-0.255554 5:1.486833 6:-0.304147 7:-1.022555 8:-0.913826 9:-1.566033 10:0.800703 11:-1.968836 12:0.109413 13:-0.062266 14:1.086607 15:1.335567 16:-0.407497 17:0.714225 18:0.069739 19:0.098103 20:1.481249 21:0.346067 22:0.227415 23:0.386437 24:0.178018 25:-0.109037
-1 1:-0.421044 2:0.302435 3:-0.217717 4:1.596616 5:1.824828 6:0.104637 7:-0.472897 8:-1.940069 9:1.587981 10:0.499150 11:0.102067 12:0.134496 13:0.576244 14:0.865793 15:0.417067 16:-1.429508 17:-1.159539 18:-1.250091 19:0.903020 20:0.676341 21:-0.600580 22:0.581302 23:0.858507 24:-2.012510 25:-1.403209
-1 1:-0.336715 2:0.457868 3:0.525172 4:-0.313116 5:-1.707585 6:1.810807 7:-1.240261 8:0.949152 9:-0.336769 10:-1.368187 11:-0.415417 12:0.246134 13:0.444122 14:-1.120291 15:0.181227 16:-0.120127 17:1.629798 18:-0.158122 19:-0.036720 20:1.485340 21:-1.690568 22:-0.143586 23:-0.206084 24:1.099730 25:-0.160827
-1 1:0.395362 2:2.546743 3:-1.757647 4:0.385460 5:-1.910962 6:1.230220 7:1.145019 8:0.020066 9:0.071928 10:-1.258962 11:0.535014 12:1.137978 13:0.090364 14:-0.116634 15:1.564150 16:0.469798 17:1.107158 18:1.099604 19:-0.721240 20:-0.275442 21:0.444324 22:-0.474335 23:0.130597 24:0.791208 25:1.296385
-1 1:0.426677 2:-0.049922 3:-0.599629 4:1.496160 5:-0.796923 6:-1.467504 7:0.367515 8:-1.483007 9:-0.049659 10:1.022258 11:-0.671180 12:-1.094358 13:0.145927 14:0.954656 15:0.039146 16:-0.648581 17:-0.643981 18:-1.610286 19:0.455227 20:-0.766961 21:0.112374 22:-0.619216 23:1.338956 24:0.285371 25:-0.136813
-1 1:0.542103 2:-0.053929 3:-0.250460 4:-0.425656 5:-1.309102 6:-0.710928 7:1.285699 8:0.909472 9:-0.828311 10:-0.919460 11:0.560337 12:0.549898 13:-0.165131 14:0.891025 15:-0.183729 16:-0.042359 17:-1.688567 18:1.732406 19:-1.021175 20:-1.030402 21:0.358027 22:0.695421 23:-0.657186 24:1.179666 25:1.207653
-1 1:0.291515 2:-0.801490 3:0.262250 4:-1.811308 5:-0.068380 6:-0.077388 7:-1.158819 8:2.639162 9:-0.511313 10:0.090428 11:-1.827260 12:0.284790 13:-0.233029 14:-2.340718 15:-0.741429 16:0.848649 17:0.144056 18:0.470707 19:-1.088496 20:0.877760 21:1.174925 22:-1.556887 23:0.736212 24:0.480152 25:-0.152812
-1 1:0.880684 2:0.469511 3:0.511527 4:0.276373 5:0.284518 6:0.471609 7:-0.024585 8:1.056650 9:-1.096031 10:0.252017 11:-0.938009 12:-0.809428 13:-0.269007 14:1.485065 15:-1.946352 16:0.895972 17:0.183077 18:1.307770 19:1.190962 20:0.494492 21:0.296255 22:1.150762 23:-0.522817 24:0.532590 25:-0.716088
-1 1:0.642516 2:2.164169 3:-1.045350 4:0.590930 5:0.581297 6:0.136806 7:0.632806 8:1.653154 9:2.005539 10:-1.359309 11:0.547598 12:-1.247290 13:1.850947 14:-1.227840 15:-0.646045 16:-1.646129 17:-1.347169 18:2.364175 19:0.750465 20:-2.873252 21:0.186901 22:1.176095 23:-2.354322 24:1.249451 25:-0.756524
-1 1:0.537902 2:-1.154205 3:-0.431787 4:1.533144 5:0.264154 6:-0.282115 7:0.878147 8:-0.789548 9:-0.902823 10:0.260370 11:-0.647867 12:-1.565310 13:0.002305 14:-0.786506 15:0.930782 16:-0.715405 17:0.754921 18:-1.701929 19:0.474026 20:-1.023397 21:0.183355 22:0.704039 23:0.561326 24:-0.640732 25:-0.030890
-1 1:0.340647 2:1.694792 3:-0.078555 4:-1.368974 5:0.011165 6:0.548289 7:-1.002282 8:-0.278745 9:0.210545 10:-0.438429 11:0.687965 12:0.423493 13:0.027922 14:0.117774 15:-1.249518 16:-0.951580 17:-0.947048 18:0.253093 19:-1.343784 20:0.332707 21:-2.769183 22:0.584235 23:-0.920936 24:1.236861 25:1.799673
-1 1:-1.118731 2:1.175907 3:0.214581 4:0.264446 5:-0.515521 6:0.249460 7:-0.422084 8:0.379440 9:-0.459297 10:0.680636 11:-0.155451 12:-1.048408 13:0.287713 14:-1.442227 15:-1.167048 16:2.375464 17:0.062631 18:1.101619 19:0.167868 20:1.069524 21:-0.177467 22:-0.254516 23:1.085155 24:-1.013022 25:-0.632847
-1 1:0.370570 2:-1.733192 3:-1.053984 4:-1.660974 5:-0.509651 6:-1.934818 7:-1.870612 8:-0.924837 9:-2.348293 10:1.926664 11:0.678254 12:0.849093 13:0.321914 14:-0.003806 15:1.260573 16:-0.736636 17:-1.085695 18:0.103724 19:-0.011926 20:-0.448724 21:-0.479262 22:0.425923 23:0.473783 24:1.461940 25:-0.425858
-1 1:-0.869389 2:-0.528033 3:0.294272 4:0.338998 5:1.169830 6:-1.771076 7:-0.794874 8:-0.349896 9:-0.384685 10:0.733107 11:0.756069 12:0.308374 13:1.039289 14:-0.292451 15:-0.889765 16:0.171657 17:-0.376896 18:1.814214 19:-1.108526 20:-0.483786 21:1.484522 22:0.302971 23:-0.405577 24:1.989916 25:0.935918
-1 1:-0.276296 2:1.546036 3:1.095138 4:-0.415454 5:0.771280 6:1.857363 7:-0.352998 8:-1.169727 9:-0.591565 10:0.005967 11:0.137925 12:0.270767 13:-1.016808 14:1.610021 15:-0.651901 16:-0.063528 17:-0.889618 18:0.340623 19:-0.995385 20:-1.541984 21:-0.256948 22:-1.135115 23:-1.193379 24:-0.560150 25:0.560076
-1 1:-0.506820 2:0.836508 3:0.978492 4:0.802429 5:-1.250832 6:1.156328 7:0.285287 8:-1.622410 9:-0.568539 10:0.522753 11:-0.152756 12:-0.467147 13:-0.868552 14:1.297577 15:-1.337559 16:1.632727 17:-0.129556 18:0.225700 19:-0.029579 20:0.244076 21:1.430341 22:0.331654 23:0.638912 24:-0.323369 25:-1.333117
-1 1:0.695061 2:-1.721825 3:-0.725239 4:0.174102 5:-1.312116 6:1.496340 7:0.005486 8:-0.639636 9:-1.199979 10:-0.033706 11:-0.712714 12:-1.587406 13:0.374623 14:-0.462219 15:-0.035334 16:1.346484 17:-0.190232 18:0.929649 19:-0.186035 20:-1.952409 21:0.628938 22:-1.156060 23:-0.209562 24:-0.459191 25:-0.525844
-1 1:0.391731 2:-0.103954 3:-0.999477 4:-1.394159 5:0.247960 6:-0.666904 7:0.548873 8:-2.705880 9:-1.219884 10:1.654275 11:1.387176 12:-1.042831 13:-0.228385 14:0.282349 15:0.936286 16:-2.573066 17:-0.628012 18:-0.176055 19:0.028984 20:-0.167355 21:1.233814 22:-0.485075 23:-0.522600 24:-0.914635 25:-0.618875
-1 1:0.672699 2:-0.147528 3:-1.403866 4:-0.090492 5:0.510913 6:-0.785157 7:0.103389 8:-1.165219 9:-0.344403 10:1.494335 11:1.406120 12:0.157939 13:0.629902 14:0.298011 15:1.677324 16:-0.361210 17:-1.807086 18:1.087894 19:-0.136822 20:0.055273 21:-0.281451 22:-0.492556 23:-1.139841 24:0.307660 25:-0.090070
-1 1:-0.834591 2:1.111278 3:1.395980 4:-0.219899 5:-1.534286 6:0.573088 7:0.243756 8:0.373852 9:-0.730077 10:1.793781 11:-1.232068 12:2.094473 13:0.493817 14:0.760318 15:-0.928416 16:0.047510 17:-1.059598 18:-1.438173 19:0.806479 20:-1.387885 21:-1.133971 22:-1.017591 23:0.563680 24:0.051956 25:1.262660
-1 1:-0.105599 2:0.017478 3:-0.121283 4:0.868956 5:0.824784 6:0.167373 7:0.451782 8:-1.102051 9:-0.170020 10:-0.662749 11:1.287242 12:-1.387426 13:-0.238332 14:0.592359 15:-0.433209 16:0.191484 17:-0.866967 18:1.377391 19:-0.394655 20:0.922779 21:-1.523234 22:-0.431407 23:0.794687 24:-0.530302 25:1.415515
-1 1:1.132218 2:-0.696243 3:0.383505 4:0.254030 5:-0.091339 6:-1.034317 7:-0.773029 8:1.414211 9:-0.256362 10:-0.797646 11:-0.153333 12:1.300180 13:-0.168803 14:-0.152200 15:-1.123345 16:-0.524537 17:-1.544781 18:-0.803757 19:0.745288 20:0.099817 21:0.626595 22:0.879250 23:1.929843 24:-0.141136 25:1.373402
-1 1:0.791263 2:-0.353767 3:0.839430 4:0.145373 5:0.948682 6:-1.293916 7:0.471017 8:-1.398584 9:-0.825643 10:0.321824 11:0.972515 12:-0.188399 13:0.304466 14:1.238500 15:0.477960 16:0.015756 17:-0.336769 18:1.313371 19:-0.970908 20:0.513567 21:-1.520650 22:0.228813 23:-0.314935 24:0.193644 25:0.831148
-1 1:-0.890265 2:0.467139 3:-0.038191 4:-0.736911 5:-0.342599 6:0.132699 7:0.663144 8:0.880246 9:-2.324783 10:-1.495797 11:-0.744525 12:2.309409 13:-0.005641 14:-0.644614 15:1.470548 16:0.296323 17:-1.365792 18:-0.606445 19:-0.719093 20:-0.182007 21:-0.601255 22:0.596134 23:-1.847091 24:-1.062839 25:0.152318
-1 1:0.630222 2:0.997811 3:-0.028948 4:-1.915321 5:0.227124 6:0.124697 7:0.771512 8:-0.085563 9:-1.247307 10:1.789972 11:-1.108027 12:-0.825221 13:0.320016 14:-0.291414 15:-0.639185 16:-0.747821 17:-1.108046 18:-1.034972 19:-0.186433 20:-0.263062 21:-1.301872 22:-0.942783 23:-0.266015 24:0.354278 25:1.208678
-1 1:-0.564429 2:0.347946 3:-0.198120 4:-0.106600 5:0.280848 6:0.928162 7:-0.177986 8:0.854282 9:-1.412395 10:-1.127585 11:-0.884845 12:0.334710 13:0.188274 14:-1.058689 15:1.208668 16:0.303573 17:0.249439 18:0.814386 19:0.316583 20:1.499813 21:-0.199475 22:0.075919 23:-0.669097 24:-0.898066 25:-1.349870
-1 1:0.394566 2:-0.383420 3:0.198404 4:0.858856 5:1.196291 6:1.766971 7:-1.283346 8:-1.048492 9:-0.441629 10:0.174341 11:-0.710539 12:-0.864562 13:1.338342 14:0.475939 15:-0.305819 16:-0.508347 17:-0.346377 18:0.122903 19:1.200620 20:0.072517 21:-0.069806 22:-0.662171 23:1.100372 24:0.544401 25:-0.328305
-1 1:-0.825568 2:0.866613 3:-0.236159 4:1.241876 5:-0.527712 6:1.472298 7:-0.728298 8:-0.724653 9:1.730377 10:0.579155 11:0.463687 12:1.740757 13:1.237310 14:-0.997302 15:-1.489018 16:1.400035 17:-0.632136 18:-3.027319 19:-0.030765 20:0.661261 21:-0.937661 22:2.110578 23:-0.408338 24:0.273522 25:0.437750
-1 1:-0.071132 2:0.069014 3:0.257796 4:-0.282633 5:0.343187 6:1.755753 7:0.120011 8:-0.484763 9:-0.468967 10:0.820274 11:0.493140 12:-0.442183 13:-1.363187 14:0.023899 15:-0.097202 16:0.958432 17:0.304465 18:-1.512780 19:-0.644626 20:-0.741373 21:-0.372567 22:0.011618 23:-1.077750 24:-0.024296 25:-0.936972
-1 1:0.894033 2:-0.313628 3:-1.287714 4:0.932581 5:-0.521982 6:0.136459 7:-0.856841 8:0.369162 9:0.576916 10:1.637555 11:-0.380032 12:-0.593995 13:1.866099 14:-0.275387 15:-0.341653 16:-0.811274 17:-0.315632 18:-0.754192 19:-1.557709 20:-0.089272 21:-1.559677 22:-1.172846 23:2.042600 24:-2.129959 25:0.375898
-1 1:1.345958 2:-1.172012 3:0.299456 4:0.037564 5:-0.189975 6:0.079251 7:0.904689 8:-0.273389 9:2.265684 10:-0.840570 11:-0.065090 12:1.630050 13:-0.044202 14:0.248887 15:-2.300756 16:0.684235 17:0.532110 18:1.923062 19:-0.282928 20:-0.475958 21:0.377973 22:0.299026 23:-0.069836 24:0.208500 25:1.417844
-1 1:-0.564416 2:-1.203264 3:2.068331 4:-0.257854 5:1.014988 6:-1.068374 7:-0.788963 8:1.340613 9:-0.310006 10:0.481500 11:-1.028663 12:1.167370 13:0.501550 14:-0.405504 15:1.088628 16:-0.100636 17:0.584013 18:0.351667 19:1.136445 20:0.623006 21:-1.955005 22:0.089664 23:1.358983 24:-0.291619 25:-1.136690
-1 1:-0.012796 2:-0.162037 3:1.113998 4:1.399231 5:1.000509 6:0.028741 7:-0.284303 8:-1.539755 9:0.235553 10:-1.849003 11:0.589675 12:-0.355090 13:0.833674 14:-0.431613 15:-1.329608 16:-0.692118 17:0.142706 18:-0.862191 19:-2.016025 20:-0.731967 21:-0.492290 22:0.595620 23:0.489996 24:-0.470317 25:0.997788
-1 1:0.696608 2:-1.559919 3:0.948735 4:0.083679 5:0.174731 6:0.319088 7:-0.955457 8:0.200488 9:-0.480247 10:-1.445074 11:0.069713 12:0.409774 13:-1.574535 14:0.768149 15:-0.587218 16:0.421550 17:1.030130 18:0.660661 19:0.227047 20:0.067886 21:-1.335507 22:-0.267444 23:0.710543 24:-0.299798 25:-0.965238
-1 1:1.527587 2:1.826168 3:0.227431 4:-1.421598 5:1.995383 6:-0.124253 7:-0.594144 8:1.006337 9:-0.257393 10:1.574229 11:-0.641293 12:-0.822090 13:-0.837576 14:0.004751 15:0.663478 16:0.392062 17:-0.414865 18:0.970703 19:-0.286479 20:1.568048 21:-1.691594 22:-1.775533 23:-2.421659 24:0.362345 25:0.232916
-1 1:-0.756781 2:-0.783230 3:0.109108 4:1.506637 5:-2.688157 6:1.323406 7:-2.298287 8:0.447782 9:-0.339247 10:1.305697 11:0.557634 12:0.168826 13:2.322681 14:1.889473 15:0.166985 16:1.164819 17:0.362643 18:0.286673 19:-0.574630 20:0.517452 21:1.732377 22:-1.209805 23:-0.475626 24:-0.793769 25:2.464352
-1 1:-0.421244 2:0.079071 3:2.164330 4:0.708012 5:0.206760 6:1.138787 7:-0.160541 8:-0.151181 9:-0.563294 10:-0.281429 11:0.686846 12:0.439842 13:-1.444276 14:0.424127 15:0.214099 16:0.614585 17:-0.389874 18:0.612336 19:-2.333075 20:1.643585 21:0.756219 22:0.332496 23:0.208196 24:0.083682 25:0.136259
-1 1:-0.505568 2:-1.184685 3:0.779683 4:-0.869877 5:-0.451167 6:0.530436 7:-0.252002 8:-1.195930 9:-0.135319 10:-0.699740 11:1.278382 12:-1.568878 13:1.236691 14:2.766804 15:-0.751241 16:0.351097 17:1.528130 18:0.094954 19:1.188932 20:1.782753 21:1.343113 22:-0.564213 23:0.079356 24:0.851587 25:0.590024
-1 1:2.495300 2:0.054048 3:-0.610724 4:1.425867 5:1.438968 6:2.014536 7:2.744259 8:-2.201019 9:-0.425442 10:0.377799 11:0.921394 12:1.192428 13:-0.002506 14:-0.891362 15:0.040831 16:-0.004523 17:-1.134885 18:-0.079362 19:0.744110 20:0.290890 21:-0.612150 22:0.599563 23:0.949896 24:-0.539911 25:-0.960522
-1 1:-0.463831 2:0.960149 3:0.222925 4:1.021670 5:-0.914954 6:1.723104 7:-1.768088 8:-0.166659 9:1.635793 10:-0.682843 11:-0.656363 12:1.796317 13:1.360790 14:-0.044499 15:-0.230056 16:0.937914 17:0.393657 18:1.162888 19:0.742998 20:1.714379 21:0.183400 22:-1.527762 23:-0.882372 24:-2.200936 25:0.496448
-1 1:-0.060293 2:-0.692224 3:-1.032225 4:0.145643 5:0.348287 6:0.514381 7:2.139009 8:0.488257 9:0.168446 10:-0.481533 11:0.790741 12:-0.136723 13:1.440539 14:0.415303 15:0.238348 16:-0.043356 17:-0.214394 18:-0.762476 19:0.792064 20:-0.062738 21:-0.444990 22:0.650401 23:-0.007419 24:1.089905 25:-0.718589
-1 1:1.680190 2:-0.608471 3:-1.593046 4:-0.942763 5:0.199153 6:-1.130915 7:0.245795 8:0.336733 9:1.621272 10:0.215608 11:2.929736 12:0.561666 13:-0.827160 14:-0.003045 15:2.754693 16:0.626177 17:0.373972 18:1.095344 19:0.758081 20:0.068261 21:-0.241934 22:-0.459108 23:1.062875 24:-1.065687 25:0.798214
-1 1:-0.326555 2:-1.175488 3:-0.949205 4:0.183212 5:0.555092 6:0.243574 7:-0.034268 8:1.276754 9:0.646910 10:0.348539 11:-0.573993 12:-0.738136 13:-1.138500 14:0.586754 15:0.144676 16:-0.235364 17:-0.936774 18:0.498501 19:0.622272 20:-0.851628 21:1.378134 22:0.034382 23:-1.460323 24:0.315640 25:-0.187394
-1 1:1.323384 2:0.171287 3:-0.436378 4:0.473539 5:0.672366 6:1.784210 7:-0.070148 8:-0.350842 9:-0.532919 10:0.449889 11:-0.038784 12:-0.889787 13:0.751505 14:-0.006846 15:-1.648009 16:0.915276 17:-0.062005 18:-0.602675 19:-0.621379 20:0.193529 21:1.205667 22:0.227327 23:-0.248475 24:-0.025860 25:-1.020806
-1 1:0.320458 2:-0.483132 3:0.670582 4:-0.797293 5:0.047149 6:0.482073 7:-1.487300 8:-2.998967 9:-0.113980 10:-0.157001 11:-1.203785 12:0.078598 13:-0.312209 14:-0.013215 15:-1.085700 16:0.963617 17:0.506005 18:-0.472385 19:1.957469 20:-0.696755 21:-1.150754 22:-0.003992 23:-0.503391 24:1.001326 25:1.500175
-1 1:0.015294 2:-1.276345 3:-0.376289 4:0.210915 5:-0.779736 6:0.954285 7:1.252070 8:0.804681 9:0.209381 10:-0.071373 11:-0.703277 12:-0.290581 13:1.657937 14:-0.605527 15:1.272779 16:-0.187690 17:-1.304124 18:1.487707 19:-1.615881 20:-0.368151 21:1.347924 22:0.350417 23:-1.860264 24:0.625122 25:0.366224
-1 1:0.102459 2:-0.355907 3:-0.443128 4:-0.313396 5:-1.183607 6:0.679896 7:-0.134720 8:-1.756854 9:-1.097247 10:1.439128 11:0.959445 12:-1.301526 13:-0.480516 14:-0.096993 15:0.961854 16:-0.844445 17:-1.087483 18:0.296338 19:1.465703 20:-0.218886 21:-1.199098 22:1.383388 23:-0.158934 24:-0.157399 25:0.077013
-1 1:0.968728 2:-1.102316 3:-1.306863 4:0.011809 5:-1.206866 6:0.166700 7:0.381500 8:-1.197218 9:0.934216 10:0.258506 11:-0.771218 12:-1.313158 13:1.019421 14:-0.526511 15:-0.629726 16:1.497419 17:0.479749 18:0.384198 19:0.836507 20:1.117252 21:-0.320674 22:0.951682 23:2.686309 24:-1.897435 25:-0.612141
-1 1:0.636996 2:1.018469 3:0.383669 4:-0.590363 5:-0.302047 6:-0.404266 7:1.054287 8:1.664092 9:1.944167 10:-0.502283 11:-0.170986 12:-0.593603 13:1.010430 14:-0.568247 15:0.528967 16:-0.090011 17:0.434370 18:0.026420 19:0.520138 20:-0.302202 21:-0.141455 22:-1.159738 23:-0.379082 24:1.661119 25:-0.458653
-1 1:-1.222932 2:-0.580683 3:-0.593294 4:-1.248409 5:-1.318764 6:-0.381883 7:-0.460201 8:0.498404 9:-0.627884 10:0.132863 11:-0.983085 12:-1.543089 13:-0.625502 14:-0.742734 15:1.821995 16:1.363558 17:0.528367 18:1.047273 19:-0.737273 20:0.062423 21:0.790647 22:-0.380027 23:0.219402 24:0.818821 25:-2.286178
-1 1:-0.840901 2:-0.040858 3:-1.912087 4:-0.869940 5:0.780415 6:-0.291234 7:-0.514073 8:-0.129465 9:-1.041927 10:-0.706050 11:1.694313 12:-0.920508 13:0.087166 14:-0.312825 15:-0.432680 16:0.227173 17:0.401860 18:-0.886812 19:-0.457478 20:-1.222665 21:-0.685925 22:-0.565964 23:-0.802736 24:-1.518800 25:1.657053
-1 1:1.049363 2:0.393751 3:-1.146038 4:0.032604 5:-2.425771 6:0.855280 7:0.704408 8:0.854566 9:-0.135628 10:-0.581074 11:-0.599238 12:0.049334 13:0.029499 14:-0.587952 15:-0.105014 16:0.170603 17:0.765049 18:0.166720 19:-1.047127 20:0.241477 21:-0.693965 22:0.361491 23:1.304472 24:-1.517645 25:-2.088704
-1 1:-0.075066 2:-0.171692 3:0.462813 4:0.393902 5:0.322510 6:0.656380 7:-0.234414 8:0.370001 9:-0.369569 10:0.722506 11:-0.280779 12:-0.470556 13:-0.474510 14:1.836335 15:0.617355 16:-0.368171 17:2.067076 18:-0.850640 19:-0.993713 20:2.148039 21:-0.946828 22:0.888193 23:-0.932238 24:-1.494742 25:0.979706
-1 1:0.053079 2:-1.141404 3:-0.415629 4:-0.242011 5:0.222583 6:-0.000269 7:-0.803771 8:2.057611 9:0.439354 10:0.403173 11:0.570108 12:0.453155 13:0.556683 14:0.269982 15:0.917214 16:1.428625 17:-0.545107 18:-0.805251 19:0.373625 20:-2.097357 21:0.940078 22:0.547873 23:-0.008265 24:-0.893891 25:-1.664126
-1 1:0.132008 2:0.028523 3:-0.001168 4:0.738253 5:-1.542347 6:-0.932348 7:1.037110 8:0.772722 9:-1.203540 10:0.555350 11:1.061679 12:0.018261 13:0.501601 14:-0.096909 15:-1.685014 16:-0.081897 17:0.671883 18:-0.503989 19:-0.207636 20:1.384656 21:0.500769 22:0.239011 23:1.947135 24:0.880272 25:0.339224
-1 1:0.894745 2:0.434780 3:-0.281804 4:0.729597 5:-0.436978 6:-0.223206 7:0.871576 8:1.824955 9:0.807887 10:1.159704 11:-0.389354 12:-1.108134 13:-1.548420 14:2.718231 15:1.769015 16:0.083791 17:-0.540590 18:0.238569 19:-1.924449 20:-1.494391 21:0.134011 22:-0.100699 23:0.993252 24:-1.926766 25:0.899203
-1 1:-0.860104 2:-0.899572 3:-0.254673 4:-0.256242 5:0.190657 6:-0.160794 7:-0.282769 8:0.222012 9:-0.359304 10:0.005849 11:-2.468200 12:0.043759 13:-0.145542 14:0.890868 15:-0.053226 16:-1.123935 17:0.224667 18:-2.175362 19:0.746762 20:0.152141 21:-0.130359 22:1.199884 23:-1.033971 24:-1.476356 25:1.056679
-1 1:-0.128828 2:0.684242 3:0.603946 4:-0.570815 5:-1.028013 6:0.108919 7:-0.022201 8:0.603385 9:0.536229 10:0.309012 11:-0.573757 12:0.503879 13:-0.234924 14:2.108693 15:0.844763 16:-0.344463 17:0.680115 18:0.594090 19:-1.016603 20:0.089047 21:-0.457072 22:1.013584 23:0.347600 24:1.111306 25:0.069509
-1 1:-1.285360 2:0.143893 3:1.366294 4:1.269710 5:-0.823634 6:1.009221 7:1.866537 8:1.144451 9:1.901901 10:0.494087 11:-0.039920 12:-0.549836 13:-0.172918 14:-0.691768 15:0.179429 16:-1.039035 17:0.990534 18:0.167138 19:0.346093 20:-0.102681 21:0.241862 22:0.332095 23:-1.052069 24:0.334978 25:1.156180
-1 1:1.534036 2:-0.907374 3:-0.325499 4:1.158737 5:-0.116888 6:-0.009858 7:0.421545 8:1.087925 9:0.322215 10:-0.078164 11:1.366208 12:-0.644465 13:-0.627084 14:0.525454 15:0.378334 16:-1.123106 17:0.048677 18:-0.075977 19:1.354600 20:0.731916 21:-0.176462 22:0.089306 23:-0.839356 24:-0.705710 25:-0.190062
-1 1:-0.867222 2:-3.488534 3:-0.550746 4:0.676573 5:1.053847 6:-1.469465 7:-0.198956 8:-2.135944 9:0.321697 10:-0.476116 11:0.332713 12:-0.794646 13:-0.039282 14:0.245065 15:1.047025 16:0.328524 17:0.774069 18:0.316248 19:-0.718209 20:-0.401633 21:0.787652 22:-0.277560 23:0.752858 24:-0.555271 25:-0.059989
-1 1:0.802993 2:-1.750079 3:0.373131 4:-1.304597 5:-0.020242 6:-0.830199 7:0.153333 8:1.603458 9:0.762050 10:0.918540 11:2.980408 12:0.823960 13:-1.669497 14:-0.510289 15:-0.019472 16:1.777676 17:-0.418316 18:0.618605 19:1.451327 20:-0.422900 21:0.553109 22:1.469870 23:0.501663 24:0.017581 25:1.930884
-1 1:-1.065149 2:-0.746213 3:-2.430465 4:-2.742358 5:1.834658 6:-1.163006 7:1.937719 8:-0.138950 9:-0.170159 10:0.927148 11:0.219780 12:-0.326117 13:1.331384 14:-0.560026 15:-0.484386 16:-0.039448 17:0.661295 18:-1.405814 19:0.445275 20:0.813589 21:-2.360227 22:-1.094605 23:-0.175326 24:2.294203 25:3.021540
-1 1:-1.288510 2:-0.064766 3:-0.035329 4:-2.721570 5:0.227223 6:0.590985 7:-0.099931 8:-0.415876 9:-0.747774 10:0.007785 11:1.200878 12:1.066199 13:-0.004428 14:-1.522634 15:-1.464762 16:0.825473 17:-0.422659 18:1.012207 19:1.467775 20:-0.304376 21:0.417947 22:1.076229 23:0.476673 24:0.837952 25:-0.150609
-1 1:0.161808 2:-0.363707 3:0.065790 4:1.190138 5:-0.539508 6:0.323899 7:-0.873560 8:-1.099759 9:-0.039726 10:2.084391 11:-0.160931 12:-1.198615 13:0.891170 14:0.978156 15:-2.607720 16:-2.200906 17:0.594255 18:-1.222125 19:-1.990106 20:0.223153 21:1.351578 22:-0.173410 23:1.237665 24:-0.412435 25:0.645446
-1 1:1.791565 2:0.499379 3:1.381170 4:-0.986975 5:1.170082 6:-0.691973 7:-0.112293 8:-1.137464 9:-0.277729 10:-0.231408 11:-2.262185 12:-0.048242 13:-1.020129 14:-0.415212 15:-0.868196 16:-0.409410 17:-0.041129 18:-0.443634 19:-0.321414 20:-0.977746 21:-1.445767 22:1.579753 23:-1.792852 24:0.692723 25:-0.994388
-1 1:0.802446 2:0.430355 3:-0.255479 4:0.912624 5:0.751971 6:-0.519610 7:0.796198 8:0.140527 9:-1.766716 10:-0.677992 11:-0.735825 12:2.081100 13:-0.189926 14:0.250929 15:-2.489982 16:0.278913 17:0.198612 18:0.089785 19:-0.572916 20:2.060620 21:1.207819 22:1.412997 23:0.623663 24:1.020678 25:0.982619
-1 1:0.225678 2:0.379395 3:-0.283076 4:0.006308 5:0.987647 6:-0.530322 7:0.544434 8:0.790742 9:-0.468963 10:-0.345483 11:0.811770 12:-0.059248 13:-0.538509 14:-1.160004 15:-0.544147 16:-0.238788 17:0.659367 18:-1.961445 19:-2.101730 20:0.432837 21:0.221282 22:0.849905 23:0.951024 24:-0.504304 25:0.987378
-1 1:-0.798868 2:1.332141 3:-1.244354 4:0.363640 5:0.930620 6:-0.796605 7:0.124586 8:-0.992669 9:-0.496354 10:-0.601103 11:0.664869 12:-1.194953 13:-1.792927 14:-1.643341 15:0.596783 16:-0.658324 17:-0.628592 18:2.012674 19:-0.163830 20:0.387661 21:0.673981 22:0.928051 23:-0.983233 24:-0.590792 25:-1.093749
-1 1:1.341100 2:1.113115 3:0.399321 4:-0.733492 5:-0.387755 6:0.739611 7:-1.141232 8:-0.208350 9:0.411747 10:-1.101973 11:1.292168 12:-0.103916 13:0.839703 14:-1.630849 15:-0.495945 16:0.102143 17:-1.017358 18:-0.660835 19:0.864195 20:-1.413469 21:1.705866 22:-1.062335 23:-0.332220 24:1.825506 25:-0.418010
-1 1:0.686752 2:-0.411120 3:-0.736405 4:0.080329 5:0.294575 6:0.021174 7:2.558300 8:-1.124250 9:-0.308018 10:0.324358 11:-0.536633 12:0.889348 13:0.767601 14:0.364181 15:-3.178604 16:0.538664 17:-0.453140 18:0.839757 19:-0.429564 20:-0.320859 21:1.189410 22:1.081180 23:0.325174 24:0.280892 25:0.787544
-1 1:1.768537 2:1.095803 3:0.103465 4:1.389630 5:1.432619 6:0.267273 7:1.016887 8:1.235206 9:-1.187842 10:-0.564241 11:-0.641502 12:1.491072 13:0.164683 14:0.415457 15:0.924852 16:0.057764 17:2.204833 18:0.896424 19:0.594906 20:-2.197118 21:-0.060090 22:1.985706 23:0.494976 24:0.640943 25:0.194076
-1 1:0.886044 2:0.247707 3:-0.148184 4:0.093868 5:1.144718 6:0.190346 7:1.639953 8:-0.388653 9:0.235739 10:-1.720585 11:-0.142537 12:-0.518776 13:0.538888 14:0.912396 15:-0.073928 16:-0.828608 17:2.232591 18:0.020914 19:0.647800 20:-0.604378 21:-0.597466 22:0.263901 23:-0.354710 24:-0.504339 25:1.656984
-1 1:1.418441 2:0.114648 3:-0.677413 4:0.961897 5:1.051170 6:1.133043 7:-1.802562 8:0.404814 9:-0.954433 10:-2.029457 11:-0.491851 12:-0.616006 13:-0.599800 14:0.788197 15:-0.784855 16:-0.178800 17:-0.158907 18:0.259398 19:-0.126127 20:0.631944 21:1.031519 22:-1.184706 23:-0.117048 24:-0.704654 25:0.228080
-1 1:-1.025911 2:0.610142 3:1.091875 4:-1.619743 5:0.601995 6:1.094754 7:-0.493215 8:-0.017179 9:1.093077 10:-0.839069 11:1.592116 12:-0.514346 13:0.597434 14:-0.369622 15:-0.650917 16:-0.444702 17:0.107328 18:0.555571 19:-0.386412 20:1.637406 21:-1.007098 22:0.579735 23:0.659684 24:0.642818 25:0.102947
-1 1:-0.381242 2:0.951456 3:-0.321515 4:0.943837 5:1.120304 6:-1.278239 7:1.573921 8:1.455901 9:-1.699641 10:0.021383 11:-0.523970 12:-2.418995 13:-0.952471 14:0.788955 15:0.795906 16:-0.527421 17:-0.579033 18:0.268474 19:2.732010 20:-0.110854 21:1.150223 22:0.902511 23:-1.568253 24:-0.479057 25:-0.656953
-1 1:1.208602 2:1.068149 3:0.703097 4:-0.578676 5:-1.023929 6:1.536730 7:-0.649561 8:0.593536 9:-0.181709 10:0.780229 11:1.282216 12:-0.119594 13:-1.016511 14:0.321348 15:1.268760 16:-0.255367 17:2.339679 18:-0.554465 19:0.338237 20:-0.702980 21:-1.759899 22:0.984923 23:1.561372 24:-0.454737 25:-0.233712
-1 1:-0.499012 2:-0.794919 3:0.727302 4:0.175712 5:-1.108551 6:-0.054245 7:0.328825 8:-0.434962 9:-1.129529 10:0.362404 11:-0.296157 12:1.506836 13:-0.178684 14:-0.207527 15:0.739132 16:1.188199 17:1.269634 18:-1.881709 19:0.234678 20:3.035647 21:-0.759819 22:-0.275288 23:1.512052 24:2.774640 25:0.184472
-1 1:-0.670430 2:0.593798 3:-0.492927 4:0.955973 5:-0.389346 6:-1.262825 7:0.000298 8:0.360369 9:-1.403263 10:0.668716 11:2.326032 12:0.780973 13:0.526795 14:0.057422 15:0.644377 16:0.348701 17:0.245951 18:-0.909401 19:0.792823 20:0.268819 21:1.325323 22:0.092561 23:-0.360919 24:-0.859202 25:0.216213
-1 1:0.456968 2:-0.522710 3:0.557622 4:-2.165467 5:0.981681 6:0.003905 7:1.163042 8:-0.362179 9:1.189211 10:-0.595429 11:-0.512944 12:-1.126814 13:-1.667811 14:0.828329 15:0.471878 16:-1.537739 17:-1.417983 18:-0.787939 19:0.726311 20:-0.027840 21:0.065636 22:-0.896460 23:0.415255 24:0.257951 25:-0.303179
-1 1:-1.262311 2:-0.882962 3:-1.301972 4:-0.272871 5:0.641053 6:0.477196 7:0.663123 8:0.788154 9:-0.284867 10:-0.400309 11:-1.134426 12:-0.185460 13:-0.373706 14:0.266723 15:1.721997 16:-1.376565 17:0.101599 18:-0.152239 19:0.091419 20:-0.881323 21:0.353107 22:-1.548704 23:0.711734 24:-0.826613 25:-0.792744
-1 1:-0.753868 2:1.887602 3:0.094048 4:0.343102 5:0.139576 6:-0.119493 7:0.987887 8:0.215116 9:1.131650 10:-0.613917 11:0.155603 12:-0.424542 13:-0.486191 14:-0.105254 15:1.028109 16:0.667840 17:0.654817 18:-0.405172 19:-1.699951 20:0.683030 21:-0.640356 22:0.740670 23:-0.087233 24:-0.656419 25:-0.168466
-1 1:-1.312841 2:0.271638 3:-0.955885 4:1.687527 5:0.961532 6:0.522552 7:-1.067495 8:-0.785171 9:-1.222447 10:-1.084960 11:-0.360311 12:-0.608530 13:-1.464553 14:0.542300 15:-0.038048 16:-0.158253 17:0.717336 18:1.889885 19:0.615919 20:0.010037 21:-0.034438 22:-0.688133 23:0.694625 24:0.441138 25:0.934622
-1 1:-0.570920 2:-0.143226 3:-1.005275 4:-0.415038 5:-1.541923 6:0.636927 7:-0.377917 8:0.324350 9:-0.598213 10:-0.544756 11:-0.570451 12:0.701280 13:0.609702 14:-1.016125 15:0.183367 16:1.609439 17:0.603282 18:-1.149028 19:0.106158 20:-1.345739 21:-0.869593 22:-1.229981 23:0.076380 24:-1.378324 25:-2.627251
-1 1:1.022230 2:-0.551533 3:-0.976713 4:-0.418241 5:1.376345 6:1.150243 7:0.594975 8:-1.392665 9:0.927721 10:1.409471 11:-0.864034 12:0.693112 13:-0.919933 14:0.281881 15:-0.012943 16:-1.639347 17:-0.779831 18:-0.769476 19:0.189431 20:0.954391 21:0.239043 22:0.936116 23:-0.185863 24:0.041026 25:0.124645
-1 1:0.219725 2:-0.134158 3:-1.002718 4:-0.461495 5:1.454446 6:-1.070669 7:0.246928 8:-0.523455 9:0.444935 10:0.652064 11:0.513847 12:-0.174719 13:2.574047 14:1.747901 15:-1.903417 16:1.120291 17:0.992694 18:-0.447715 19:-0.139501 20:2.326685 21:0.191777 22:0.721967 23:0.125020 24:-0.063338 25:-1.283250
-1 1:0.006447 2:-2.159787 3:1.004683 4:2.057020 5:-1.502837 6:-0.859420 7:1.121883 8:0.439391 9:-1.405602 10:1.736278 11:-0.387775 12:-0.922005 13:0.486903 14:-0.131460 15:-0.335733 16:-1.679812 17:-2.497187 18:0.662563 19:-0.423779 20:0.071706 21:-0.209731 22:0.181686 23:0.794071 24:0.129557 25:0.998763
-1 1:-0.538706 2:-2.611337 3:1.979857 4:-0.075546 5:0.029987 6:0.177971 7:0.739182 8:0.326183 9:2.072170 10:0.170285 11:-1.350442 12:-0.549150 13:2.167493 14:0.018924 15:0.539550 16:-0.589281 17:-1.910334 18:0.816122 19:1.582268 20:-1.393582 21:-1.115762 22:0.767046 23:-0.164186 24:-0.157083 25:1.476107
-1 1:1.457740 2:-0.153861 3:-0.325353 4:1.427400 5:-0.049456 6:-0.094484 7:0.070594 8:-0.207564 9:-0.601947 10:1.408000 11:-0.808249 12:-0.298384 13:0.284727 14:0.673685 15:0.431965 16:-0.484283 17:-0.222559 18:0.937404 19:-0.869779 20:-0.096591 21:1.158755 22:1.336258 23:1.634420 24:0.653741 25:-0.555738
-1 1:1.328633 2:-2.276214 3:0.167596 4:-0.984539 5:1.160199 6:0.275149 7:-0.245927 8:0.503008 9:-0.000430 10:1.475759 11:1.609838 12:1.127159 13:0.722287 14:-0.300880 15:-0.620899 16:-1.041666 17:-0.286197 18:-1.006928 19:-0.085557 20:-0.635026 21:1.082757 22:-0.415308 23:-1.505624 24:-0.635236 25:0.030402
-1 1:0.190448 2:1.464668 3:-0.038577 4:-0.106707 5:0.890297 6:0.951570 7:-1.464137 8:0.171617 9:-1.261949 10:1.123749 11:1.402651 12:-0.930573 13:-0.590750 14:-2.070597 15:0.604155 16:-0.329290 17:-0.899632 18:-1.930837 19:-0.218310 20:0.531127 21:1.730657 22:-0.972946 23:0.359708 24:0.360317 25:-1.602638
-1 1:0.223942 2:0.992483 3:-0.489963 4:-0.057959 5:-1.325942 6:0.742231 7:0.845655 8:0.855297 9:0.484884 10:0.747866 11:1.474051 12:0.048536 13:-0.454023 14:0.396486 15:-0.747735 16:-0.126514 17:-0.040680 18:0.265353 19:0.035899 20:0.108449 21:1.120933 22:-0.767874 23:-1.486527 24:1.475544 25:0.926104
-1 1:0.015408 2:0.403056 3:0.628489 4:0.983211 5:-0.393781 6:2.473871 7:0.409414 8:-0.349254 9:-0.044602 10:-0.327508 11:-0.406069 12:1.387129 13:-0.586853 14:-0.843475 15:-0.260628 16:-1.238243 17:-0.513013 18:0.763384 19:0.862950 20:1.237042 21:0.307268 22:-1.525439 23:0.472567 24:0.787345 25:1.082793
-1 1:1.681183 2:-2.488565 3:-0.136357 4:-0.074493 5:-0.196285 6:0.309046 7:2.333540 8:-1.049238 9:-0.713198 10:-1.345785 11:0.039512 12:-0.603426 13:-0.184772 14:0.968207 15:-1.357309 16:-0.679951 17:-1.136956 18:-2.902311 19:0.606305 20:-0.131756 21:0.558144 22:1.928366 23:-0.536813 24:-0.093980 25:0.075939
-1 1:0.912925 2:1.130591 3:-0.135810 4:-0.966494 5:-0.872320 6:-2.241279 7:1.288640 8:-0.506005 9:-1.917280 10:1.453841 11:0.521221 12:0.007079 13:-0.385689 14:0.744522 15:-0.470204 16:2.312967 17:1.590526 18:1.602603 19:-0.466686 20:0.060756 21:1.281632 22:0.069492 23:-0.957577 24:0.655034 25:-0.996896
-1 1:-0.178572 2:0.705349 3:-0.151985 4:1.968620 5:-0.433223 6:1.565296 7:0.226128 8:-0.067130 9:-0.514122 10:-0.340290 11:2.024324 12:0.388425 13:2.330733 14:-0.612626 15:0.329176 16:0.144058 17:-0.641249 18:-0.592543 19:1.924249 20:-0.870856 21:-0.215186 22:-0.474757 23:0.798447 24:-2.670510 25:0.988176
-1 1:-0.023003 2:0.688556 3:-0.592800 4:0.657839 5:-1.069469 6:0.360483 7:0.219710 8:1.019831 9:0.190124 10:-0.472813 11:0.110450 12:0.175620 13:0.172364 14:-0.147475 15:0.734707 16:0.456728 17:-0.657506 18:0.358670 19:-1.114918 20:-0.068965 21:-1.166059 22:1.297545 23:1.551748 24:-0.066041 25:-0.121884
-1 1:0.239169 2:-0.342395 3:-0.356424 4:1.111990 5:1.016539 6:-0.913345 7:2.396655 8:-1.698368 9:0.194938 10:-0.790615 11:-0.494990 12:1.470463 13:0.605435 14:-0.441101 15:0.048261 16:0.491564 17:-0.047515 18:-0.291839 19:1.448698 20:0.600227 21:0.688190 22:1.339960 23:0.637294 24:-1.036294 25:0.761878
-1 1:-1.109429 2:0.225590 3:0.871318 4:1.222660 5:0.852446 6:-1.164556 7:-0.149834 8:0.620879 9:-0.638682 10:0.947285 11:-0.075770 12:-0.251184 13:0.839278 14:0.796060 15:1.289379 16:0.056661 17:1.522123 18:1.026051 19:1.146379 20:0.037840 21:-1.360779 22:1.681444 23:-0.444450 24:-1.993907 25:-1.342935
-1 1:-0.670314 2:-0.019643 3:-0.182246 4:1.042081 5:0.416610 6:-0.703540 7:-0.234173 8:0.500049 9:0.525706 10:0.002062 11:0.702926 12:0.075351 13:0.792741 14:1.014590 15:0.801934 16:-1.577859 17:0.502654 18:2.177310 19:-0.523241 20:-1.100666 21:0.778994 22:-0.334964 23:-0.463747 24:0.535622 25:-0.638900
-1 1:0.016858 2:0.363436 3:0.230906 4:0.873341 5:-0.185276 6:1.367295 7:1.695500 8:-0.577427 9:-1.502142 10:-1.124926 11:1.852566 12:-0.226195 13:-0.456461 14:-0.327204 15:0.949731 16:-1.465133 17:1.217803 18:0.211809 19:-1.513191 20:-0.247068 21:-0.499864 22:-1.450987 23:-0.162770 24:0.261477 25:1.900218
-1 1:0.525984 2:0.187536 3:1.072109 4:-0.947067 5:-1.811582 6:-1.465653 7:-1.426214 8:0.168759 9:1.331558 10:-1.316738 11:0.551766 12:0.825120 13:0.175486 14:-0.965178 15:-0.661056 16:1.475016 17:-0.478309 18:1.046849 19:-0.288196 20:-0.237528 21:1.703555 22:-2.861884 23:1.702530 24:1.353019 25:-0.497088
-1 1:0.624630 2:0.259288 3:1.030223 4:0.285650 5:0.130414 6:-0.485746 7:0.406577 8:-0.186782 9:-0.884082 10:-1.018785 11:0.111404 12:1.289449 13:-0.523145 14:0.799747 15:1.597680 16:-2.281346 17:-0.755499 18:0.413828 19:-0.210498 20:0.187725 21:0.440562 22:2.351825 23:-0.367516 24:-0.556974 25:-0.437779
-1 1:0.835590 2:-0.022468 3:0.054227 4:0.149559 5:0.961291 6:-2.551522 7:-0.187782 8:0.431064 9:-1.774819 10:-0.023661 11:0.841826 12:0.882947 13:0.280089 14:-1.279067 15:1.872105 16:0.179426 17:-0.998146 18:-0.086247 19:1.744408 20:0.424345 21:-0.893424 22:1.054866 23:0.785692 24:1.161463 25:1.290077
-1 1:-0.830722 2:2.026648 3:-0.768364 4:-0.912510 5:-0.837302 6:-0.473619 7:0.007695 8:1.657404 9:2.078478 10:-0.478375 11:0.264571 12:-0.047972 13:-0.467572 14:-1.035248 15:0.924236 16:-0.109938 17:-0.938141 18:-0.921614 19:0.489622 20:-0.305743 21:-0.737860 22:-0.448292 23:-0.750178 24:-0.631610 25:0.717476
-1 1:0.165422 2:-0.064584 3:-0.384722 4:0.350613 5:-0.497951 6:0.450811 7:-0.894157 8:-2.041472 9:-1.617414 10:1.043002 11:1.529874 12:-1.053654 13:-1.590588 14:-0.606181 15:-0.646459 16:0.380057 17:-0.613775 18:0.113521 19:0.173262 20:0.531684 21:0.891344 22:0.340495 23:1.239826 24:-0.296384 25:0.378309
-1 1:0.140150 2:1.082202 3:-0.064065 4:-0.222248 5:0.851310 6:1.747018 7:1.438573 8:-0.735357 9:-0.966396 10:-1.315053 11:-0.605240 12:0.805152 13:-0.494351 14:0.611778 15:-0.861225 16:-0.210855 17:-3.074309 18:0.666254 19:0.457596 20:2.156460 21:0.636067 22:1.164753 23:0.767002 24:1.000168 25:0.572863
-1 1:0.297645 2:-1.259264 3:-0.812350 4:-0.289153 5:0.681845 6:-0.474987 7:0.215205 8:-0.363402 9:0.246992 10:-0.470839 11:-0.552759 12:0.331687 13:0.016901 14:-1.306556 15:1.979451 16:0.359605 17:0.524340 18:-0.615703 19:0.594071 20:-1.235547 21:0.034824 22:-0.453379 23:-0.028687 24:-0.257258 25:1.099729
-1 1:-0.527245 2:0.631991 3:0.528149 4:1.106901 5:0.197901 6:-1.048811 7:0.389734 8:1.299244 9:1.083023 10:0.083266 11:0.761154 12:-0.133984 13:-1.795201 14:-1.848950 15:0.652664 16:-0.885721 17:0.753952 18:-1.293470 19:1.197683 20:0.564579 21:0.283521 22:-0.911395 23:-1.280070 24:0.121313 25:-0.769121
-1 1:-2.565333 2:-1.308746 3:-0.064715 4:0.367295 5:-1.398426 6:1.267105 7:-0.465060 8:0.302694 9:-0.507277 10:-2.106213 11:0.077716 12:-1.061176 13:1.088748 14:-0.572086 15:0.353801 16:0.067666 17:-1.583439 18:1.006430 19:0.822554 20:-1.570287 21:0.310831 22:0.772561 23:0.428578 24:0.927658 25:0.521612
-1 1:-0.472202 2:0.527890 3:0.324243 4:1.234297 5:1.405351 6:-1.378638 7:-1.762660 8:-2.004015 9:-0.311988 10:-0.829373 11:0.852734 12:-2.890548 13:1.739709 14:0.083657 15:-0.317273 16:0.685232 17:-1.393389 18:-0.648107 19:1.587142 20:-1.044417 21:-0.756512 22:-0.173507 23:1.302627 24:-0.312109 25:-1.044228
-1 1:2.414295 2:-0.480914 3:1.168446 4:-0.279406 5:-1.098732 6:-0.976925 7:0.864321 8:0.468107 9:-1.036582 10:-0.139469 11:-0.937361 12:-1.398543 13:-1.597602 14:0.347854 15:-2.280665 16:-2.159711 17:0.457095 18:0.286393 19:-0.630107 20:-1.381612 21:-1.443752 22:-0.086244 23:-1.404811 24:-1.458661 25:0.309114
-1 1:1.783774 2:0.745622 3:0.255502 4:-0.806965 5:0.385011 6:-0.019929 7:0.800658 8:1.930193 9:-1.499038 10:-0.271404 11:1.025017 12:0.881811 13:0.441076 14:-0.636077 15:-0.406120 16:0.620445 17:-0.967508 18:0.170330 19:-1.799136 20:-0.791014 21:1.684048 22:-0.325713 23:-1.284863 24:1.671670 25:0.006069
-1 1:-0.868149 2:-1.500084 3:-0.205945 4:2.553790 5:0.966473 6:-0.651069 7:0.053851 8:1.403796 9:-0.160675 10:1.070282 11:-0.026332 12:-0.543587 13:-1.442640 14:-0.884100 15:0.189313 16:0.300730 17:1.183942 18:0.094093 19:-0.917204 20:-0.566635 21:-1.092455 22:1.010408 23:-2.618773 24:-0.367224 25:0.232877
-1 1:1.673123 2:0.553472 3:-0.155032 4:-0.198471 5:-0.294794 6:-0.415712 7:1.336497 8:0.171001 9:0.440090 10:-1.289270 11:0.548637 12:-1.055620 13:1.449360 14:0.834875 15:-0.121438 16:-2.521635 17:0.095638 18:-1.138594 19:0.304054 20:-0.093106 21:0.641522 22:-2.326721 23:-0.462942 24:-0.457950 25:0.802857
-1 1:0.976676 2:-0.707789 3:-1.239090 4:0.655788 5:-0.947835 6:0.282709 7:-1.363069 8:-1.315060 9:0.006933 10:2.643831 11:-1.221793 12:0.221330 13:-0.735226 14:0.316430 15:-0.735721 16:0.295395 17:-0.395341 18:-0.311484 19:-0.919635 20:-1.551233 21:0.094175 22:-1.514418 23:0.311852 24:-0.667147 25:-0.504866
-1 1:-1.085225 2:-0.369289 3:-0.168756 4:-0.373938 5:-0.787245 6:0.279432 7:1.425835 8:1.254494 9:-0.083503 10:0.674758 11:-1.489161 12:-0.423733 13:-0.092745 14:0.521956 15:0.305851 16:-0.237878 17:-0.030004 18:1.485382 19:-0.909250 20:1.515010 21:1.312417 22:-1.623303 23:1.842292 24:0.201920 25:0.387217
-1 1:-0.889614 2:-0.945500 3:1.357948 4:0.577582 5:-1.230943 6:0.180065 7:0.701730 8:-0.035083 9:0.732983 10:0.931610 11:1.385383 12:0.659337 13:-0.405949 14:0.562694 15:1.067766 16:-0.659520 17:-1.008932 18:-1.091144 19:1.643419 20:-1.108328 21:0.832679 22:1.554899 23:0.719148 24:0.177350 25:2.005029
-1 1:1.836866 2:-0.819455 3:-2.226256 4:0.145067 5:0.428081 6:0.564207 7:1.424280 8:-0.135621 9:1.459544 10:0.361341 11:1.079971 12:-0.534309 13:-1.154573 14:-0.028290 15:0.679472 16:0.230151 17:-0.481690 18:-1.979588 19:-0.353336 20:1.516040 21:0.134297 22:0.681168 23:-1.090560 24:1.017477 25:-0.525493
-1 1:0.158513 2:0.490860 3:-1.594658 4:1.949707 5:-0.540410 6:1.696094 7:-1.494478 8:0.171591 9:1.033852 10:-0.142915 11:0.315240 12:2.219603 13:-0.985906 14:-0.991657 15:-2.006471 16:-0.196680 17:0.791358 18:-0.984900 19:-0.660090 20:0.542486 21:-0.088421 22:-0.315472 23:0.324280 24:0.685854 25:-1.595007
-1 1:-0.174623 2:-1.037966 3:0.112647 4:-0.595980 5:0.112971 6:0.718123 7:-0.564376 8:1.648164 9:0.899782 10:-1.023014 11:-0.153896 12:-1.116472 13:0.659630 14:-0.224978 15:0.685306 16:-0.319128 17:0.063220 18:-1.564637 19:-0.218714 20:1.211946 21:-1.220255 22:-0.602947 23:-0.186250 24:0.589753 25:0.038974
-1 1:0.304938 2:-1.140731 3:-0.845792 4:2.027790 5:-1.290384 6:0.510508 7:0.522898 8:1.039610 9:-1.360155 10:1.358730 11:0.564383 12:1.003040 13:1.201228 14:0.833790 15:0.631248 16:0.123700 17:0.326285 18:0.183193 19:-1.043108 20:-2.072716 21:-0.069367 22:-0.080514 23:-0.264082 24:-0.275566 25:0.449663
-1 1:-0.488383 2:0.386553 3:-0.053224 4:-0.725659 5:-0.184824 6:-0.564774 7:-0.065519 8:-0.053793 9:-2.192860 10:-0.766455 11:0.081849 12:1.274628 13:0.156642 14:0.227110 15:1.390029 16:0.230377 17:-1.157856 18:0.607599 19:-0.381013 20:-0.576336 21:-0.560688 22:1.582904 23:-0.173615 24:1.385023 25:-0.740942
-1 1:0.516170 2:-0.503172 3:0.760071 4:-0.186087 5:-0.848930 6:0.977364 7:-0.400754 8:-0.160409 9:-1.278751 10:-0.141320 11:-0.082272 12:-0.820352 13:1.035227 14:-0.840180 15:1.228426 16:-2.113426 17:1.291759 18:0.974490 19:-2.020114 20:-1.438908 21:-0.294997 22:-1.305359 23:-2.353095 24:0.408160 25:0.751686
-1 1:-0.755920 2:-0.944063 3:0.151661 4:0.886886 5:-1.150803 6:-0.471009 7:0.919925 8:-0.172990 9:0.780940 10:-0.198205 11:-1.004714 12:-0.837064 13:1.049578 14:-0.661640 15:0.039179 16:1.096038 17:0.917642 18:-0.155421 19:1.010525 20:-0.098031 21:0.270178 22:0.017213 23:0.883698 24:0.109545 25:0.766050
-1 1:1.354087 2:-0.690834 3:-0.200123 4:2.184644 5:-0.430404 6:-0.058400 7:0.789922 8:-0.881128 9:0.077573 10:-0.713337 11:0.000625 12:0.334343 13:0.087173 14:0.117999 15:0.019406 16:1.199767 17:1.977899 18:1.401132 19:-0.243968 20:-0.823272 21:-0.760768 22:0.377747 23:-0.013020 24:0.536405 25:0.731622
-1 1:-0.254388 2:-0.512080 3:-1.162769 4:0.990190 5:-0.947457 6:-1.159021 7:-1.828894 8:1.867470 9:-0.167540 10:0.690099 11:1.975372 12:-1.769999 13:1.056284 14:-0.513691 15:0.918118 16:0.221322 17:1.860777 18:0.507165 19:-1.445381 20:-0.117124 21:1.404726 22:1.031088 23:1.205951 24:-0.159841 25:0.461700
-1 1:-1.060556 2:0.720889 3:-0.918200 4:-0.467996 5:1.421611 6:0.294080 7:1.116242 8:1.123158 9:1.438278 10:-0.723615 11:-1.003760 12:0.842903 13:0.001043 14:-0.935320 15:0.619417 16:0.384427 17:1.780254 18:0.926162 19:-0.234267 20:0.209932 21:2.398371 22:0.186761 23:-0.546906 24:-0.977841 25:0.344567
-1 1:0.353181 2:-0.094450 3:-0.136384 4:-0.172425 5:-0.110975 6:-0.576570 7:0.278037 8:0.355560 9:-1.322496 10:-0.430685 11:-0.549567 12:1.673647 13:-0.223158 14:1.226384 15:-1.142599 16:0.610131 17:-0.984273 18:-0.380126 19:-0.976953 20:0.424220 21:-0.501049 22:1.018874 23:0.552013 24:-0.373706 25:0.143969
-1 1:-2.249905 2:-0.979574 3:-0.242487 4:-0.148966 5:0.098088 6:0.077845 7:-0.631185 8:0.335335 9:-0.088464 10:-0.989021 11:-1.068884 12:2.001296 13:-1.307979 14:-0.012888 15:0.387200 16:1.057265 17:-0.020965 18:1.531893 19:-1.611631 20:-0.907340 21:-2.171955 22:1.026077 23:0.945490 24:0.366352 25:0.613939
-1 1:-0.617734 2:-0.456820 3:-0.267722 4:0.333253 5:0.606220 6:-0.670589 7:-0.283138 8:0.130514 9:0.027951 10:-0.346202 11:1.255962 12:0.335354 13:-2.101496 14:-2.007073 15:-1.297166 16:-0.179931 17:-0.706795 18:1.287991 19:1.140600 20:-0.695345 21:0.202477 22:0.243057 23:-0.144911 24:0.995065 25:-0.911967
-1 1:0.638592 2:-1.932090 3:0.387382 4:-0.320029 5:-0.612078 6:-1.146665 7:-0.308547 8:-2.345968 9:-0.657763 10:-2.124929 11:-1.098909 12:-1.638654 13:0.374975 14:0.547064 15:-0.067171 16:-0.747727 17:-0.982561 18:-1.109911 19:-1.133153 20:0.666495 21:-0.252069 22:-1.675316 23:0.969244 24:0.052522 25:-0.065494
-1 1:-0.733444 2:1.115096 3:1.272912 4:0.323188 5:0.504416 6:0.158089 7:0.794168 8:-1.251704 9:-0.063206 10:1.373133 11:2.676331 12:0.051918 13:0.424120 14:-0.508470 15:0.616148 16:-0.735525 17:1.856799 18:0.095427 19:1.009523 20:-0.092883 21:0.504666 22:-0.546608 23:-0.064363 24:-0.885227 25:-0.018409
-1 1:-1.428745 2:1.336272 3:0.691593 4:1.336034 5:0.115985 6:-1.709385 7:0.715511 8:-0.340083 9:-0.238410 10:-2.527238 11:0.262719 12:-0.034326 13:-0.084712 14:1.030142 15:-0.521219 16:0.852602 17:-0.421406 18:1.025406 19:0.916139 20:0.198789 21:-0.305826 22:1.013619 23:0.601465 24:-1.940562 25:-0.706699
-1 1:-0.248928 2:0.212020 3:-0.995360 4:-0.141962 5:1.435788 6:-0.898031 7:2.544074 8:-2.221895 9:0.058170 10:-0.217760 11:0.711382 12:0.070524 13:1.179936 14:-0.637928 15:1.257021 16:-1.104598 17:-0.563085 18:0.169636 19:0.595880 20:-0.998907 21:-0.283475 22:0.102593 23:-1.133273 24:-0.935547 25:-0.223081
-1 1:-0.846267 2:0.447384 3:-0.233752 4:-0.183950 5:-0.339926 6:1.735079 7:-0.479328 8:-0.437402 9:-2.116099 10:-1.178813 11:-0.393334 12:0.832349 13:0.263971 14:0.725049 15:-0.689282 16:0.891463 17:-0.988610 18:0.552224 19:-0.135555 20:-2.000292 21:-0.870483 22:-0.292467 23:-0.982435 24:-1.196857 25:0.657580
-1 1:-0.367800 2:1.116788 3:0.684785 4:1.979917 5:1.446537 6:0.535945 7:3.527420 8:1.339240 9:-1.526355 10:-0.600007 11:-0.608126 12:-0.101687 13:-0.224649 14:-0.654833 15:1.872470 16:2.302970 17:-0.682103 18:0.535153 19:-0.925439 20:0.401107 21:2.044567 22:1.864839 23:-1.426786 24:-0.913208 25:0.808155
-1 1:0.489840 2:0.465295 3:-0.232971 4:-0.264064 5:0.819000 6:-0.129788 7:-0.578357 8:0.746192 9:-2.462670 10:-0.454593 11:-0.218069 12:-0.236573 13:-0.358803 14:-0.564662 15:-0.190545 16:0.091207 17:0.982876 18:0.004128 19:0.399578 20:0.057089 21:-0.281364 22:-0.622578 23:-0.290702 24:-0.699548 25:1.266480
-1 1:-0.633535 2:-0.940200 3:-0.519548 4:0.388279 5:0.799513 6:-0.516763 7:1.358999 8:0.751330 9:0.312865 10:-1.624794 11:-0.538683 12:0.775887 13:-1.404377 14:1.824287 15:-0.235196 16:0.089327 17:-2.164513 18:-0.473436 19:-0.889676 20:0.513612 21:-1.934238 22:1.140442 23:-0.920882 24:-0.246302 25:-0.192467
-1 1:0.099418 2:0.577247 3:0.691634 4:1.919877 5:-1.537681 6:0.871168 7:0.341994 8:-0.812669 9:0.734128 10:-0.530948 11:1.806693 12:0.562681 13:0.120118 14:0.220491 15:1.071354 16:-0.325930 17:0.806222 18:-0.549342 19:0.740697 20:-0.065976 21:-0.952099 22:-0.227324 23:0.779940 24:0.167107 25:2.024160
-1 1:-0.101068 2:-0.957804 3:-1.264848 4:-0.100834 5:1.545919 6:0.597332 7:0.848221 8:-1.442446 9:-0.487500 10:-0.495909 11:-0.298761 12:0.237641 13:1.322306 14:-1.042628 15:-0.001869 16:-1.233487 17:0.753287 18:-0.165737 19:0.595089 20:0.242577 21:-1.622631 22:0.818122 23:-0.651177 24:1.634896 25:0.821184
-1 1:-1.631058 2:0.899057 3:0.925664 4:0.611863 5:1.522514 6:0.337566 7:0.535398 8:0.374602 9:-0.766701 10:1.641729 11:0.040530 12:0.239121 13:2.345230 14:0.277096 15:-1.322692 16:-0.182661 17:-0.628261 18:0.215785 19:-0.725467 20:1.416144 21:2.320690 22:0.751947 23:-2.045421 24:0.393196 25:0.162389
-1 1:0.236809 2:-0.293999 3:-0.365215 4:-0.819446 5:-0.182250 6:-0.775184 7:-0.578089 8:0.521128 9:-0.619831 10:-0.599362 11:0.912808 12:0.943839 13:-1.596512 14:0.331464 15:-0.835823 16:0.380803 17:-0.095285 18:1.848464 19:0.967608 20:-1.172379 21:-1.218182 22:1.725395 23:0.730179 24:-0.500964 25:-1.542649
-1 1:1.391897 2:0.848839 3:-0.372493 4:-1.813138 5:0.589303 6:1.167217 7:-0.621296 8:0.288281 9:0.335098 10:-1.128669 11:-0.381085 12:-0.658846 13:-0.171061 14:-0.236100 15:1.428855 16:-0.212155 17:-0.962776 18:-1.065615 19:-0.217119 20:1.325450 21:0.479239 22:-0.388276 23:1.271832 24:1.881558 25:-1.005902
-1 1:0.091476 2:0.971507 3:1.244625 4:-1.619437 5:1.083136 6:-0.762629 7:-3.359672 8:-0.223414 9:-0.276774 10:2.201520 11:-1.006681 12:-0.855397 13:-0.865240 14:0.755212 15:-0.571877 16:0.294275 17:1.625803 18:0.309574 19:-0.188508 20:-0.193726 21:-0.398735 22:0.338880 23:0.145534 24:0.366180 25:-1.156327
-1 1:-0.884194 2:-1.085694 3:0.457309 4:-1.219492 5:-0.833050 6:-0.225986 7:0.026146 8:-1.561819 9:-0.600343 10:-1.076925 11:-0.229911 12:-0.155717 13:0.476538 14:0.805122 15:-0.687124 16:-1.063390 17:-0.172960 18:1.047422 19:-0.572310 20:-0.946755 21:-0.333184 22:0.374141 23:-0.605583 24:-0.020326 25:-0.439115
-1 1:-0.362517 2:-0.527843 3:0.252495 4:-1.074167 5:-0.109426 6:1.670209 7:-1.865457 8:1.381656 9:-0.817258 10:-0.364470 11:-2.007463 12:-1.467336 13:-0.039687 14:0.188676 15:-2.644223 16:-1.307032 17:-1.693332 18:0.461325 19:-0.614944 20:-0.220610 21:1.458073 22:-1.051128 23:-4.319853 24:0.926370 25:1.893958
-1 1:0.149749 2:-0.738539 3:-1.212232 4:0.244478 5:0.394531 6:0.164912 7:-0.654336 8:-0.738825 9:-0.377245 10:-0.826549 11:0.183930 12:2.736022 13:1.353301 14:-0.331462 15:-1.591896 16:1.283959 17:-1.139262 18:-0.172274 19:0.402650 20:-0.933377 21:-0.588185 22:0.053053 23:-0.864566 24:-0.210972 25:-0.312889
-1 1:-0.062309 2:-1.733834 3:1.040096 4:-1.239728 5:0.421240 6:1.367053 7:0.089349 8:-0.175921 9:-0.271892 10:0.564758 11:1.633716 12:-2.103774 13:0.171536 14:-0.677051 15:1.348299 16:0.285825 17:0.207806 18:-1.314900 19:-0.107460 20:0.932763 21:-1.938535 22:0.095534 23:1.222001 24:0.247312 25:-0.268096
-1 1:-0.256702 2:-0.291498 3:-0.556022 4:0.180529 5:0.141285 6:0.335189 7:0.103626 8:-0.178273 9:0.101588 10:-1.689060 11:1.851996 12:-0.117534 13:-0.276583 14:0.325968 15:-0.518018 16:-0.386229 17:0.153459 18:-1.115532 19:1.504515 20:-1.678563 21:-0.711211 22:0.177112 23:0.061035 24:0.803815 25:0.110443
-1 1:-0.305814 2:0.218454 3:0.174420 4:1.442251 5:0.872490 6:0.332699 7:1.885342 8:0.187597 9:-1.065763 10:1.734524 11:1.250368 12:0.392588 13:-1.201255 14:-0.624505 15:0.263920 16:-2.458168 17:-0.321325 18:-0.995584 19:1.102204 20:-1.258404 21:0.181661 22:-0.141410 23:0.153443 24:-1.822269 25:0.159603
-1 1:1.529382 2:-0.809104 3:-0.580540 4:0.703271 5:-2.236182 6:-0.699852 7:2.285837 8:-0.419303 9:1.007435 10:-0.323126 11:0.800401 12:-0.784565 13:0.796270 14:1.292386 15:0.559888 16:0.520164 17:0.353690 18:0.687033 19:-0.006941 20:-0.914197 21:2.245516 22:0.264508 23:-1.503991 24:-0.729010 25:-0.250046
-1 1:0.233791 2:0.075263 3:0.131552 4:-0.733460 5:-1.326261 6:-1.022236 7:0.073046 8:-1.081403 9:-0.852066 10:-1.247918 11:0.495684 12:0.480671 13:-0.001334 14:-0.881369 15:-0.244132 16:-0.536297 17:-0.278753 18:0.322328 19:1.875667 20:-0.054309 21:-1.136429 22:0.481963 23:1.156241 24:0.746965 25:-0.122344
-1 1:-0.728906 2:1.956296 3:-0.033274 4:1.074717 5:0.045966 6:-0.613056 7:-1.652649 8:-0.647107 9:0.473248 10:1.104863 11:2.033096 12:-1.415555 13:0.082104 14:0.863914 15:-0.596305 16:-0.154145 17:0.319500 18:0.391209 19:0.045242 20:0.800715 21:-0.209842 22:-1.513381 23:0.697697 24:-0.294328 25:-1.207171
-1 1:-1.612369 2:-0.857081 3:0.065997 4:-0.159242 5:-1.915254 6:-0.205526 7:-1.354996 8:0.968454 9:1.935836 10:-0.594611 11:-1.418762 12:-0.038303 13:0.051351 14:1.473959 15:-0.546957 16:0.822586 17:-1.017705 18:-1.499351 19:2.089244 20:1.165957 21:2.419448 22:-0.445999 23:-2.041778 24:-0.967679 25:0.118379
-1 1:0.569955 2:-1.836006 3:1.539840 4:0.931847 5:-0.160939 6:0.904845 7:1.471643 8:-0.196242 9:-0.975499 10:1.168978 11:-1.123119 12:0.042311 13:-0.744430 14:0.252681 15:-0.154397 16:0.878736 17:0.632965 18:-0.508390 19:-0.534575 20:-0.241799 21:-0.282682 22:-0.707218 23:2.633478 24:0.640505 25:1.302448
-1 1:0.552897 2:1.345051 3:-0.666989 4:0.275829 5:0.436259 6:-2.829767 7:-0.175872 8:-0.816631 9:-0.716800 10:0.198907 11:-1.156082 12:0.392159 13:1.215903 14:-1.139446 15:-0.637172 16:0.146603 17:0.335412 18:-0.390998 19:-0.517876 20:0.747287 21:0.105358 22:1.783138 23:-0.143475 24:-0.716327 25:-0.806143
-1 1:-0.326757 2:0.751215 3:-1.372411 4:-0.337797 5:-0.547585 6:-0.757849 7:1.110812 8:1.971280 9:2.438464 10:-1.032501 11:0.964894 12:1.173268 13:-1.468749 14:0.383365 15:0.755698 16:-1.234353 17:-2.050266 18:-1.555293 19:0.414955 20:-1.677414 21:0.918235 22:1.399130 23:0.586903 24:-0.342755 25:0.561913
-1 1:0.066117 2:-0.395827 3:0.229259 4:0.481869 5:2.010380 6:-0.731267 7:-0.123491 8:0.128050 9:0.210650 10:-0.358883 11:0.890423 12:-0.402166 13:-1.801745 14:0.185059 15:-1.062198 16:-1.039571 17:-0.629910 18:-1.413335 19:1.509354 20:-0.033470 21:-0.984089 22:-0.198280 23:-1.206589 24:0.155750 25:-0.273818
-1 1:0.696291 2:0.801142 3:-0.264301 4:1.375067 5:-0.601837 6:1.465693 7:0.941022 8:-0.782634 9:-0.221797 10:0.383469 11:-0.582820 12:2.059616 13:0.719181 14:-0.799358 15:-0.996307 16:-1.237637 17:1.473264 18:-0.788458 19:-0.315430 20:0.967576 21:1.770615 22:-0.088534 23:0.564393 24:-0.662685 25:-1.057478
-1 1:2.026476 2:-0.091198 3:1.742431 4:0.053761 5:1.618749 6:0.051810 7:-0.193153 8:-0.956029 9:-0.294755 10:-0.188838 11:0.857486 12:-0.131200 13:0.035569 14:-1.421056 15:-1.632598 16:-0.160523 17:-0.420365 18:1.043139 19:0.189835 20:0.503062 21:0.684783 22:-1.673116 23:-1.711296 24:-0.663808 25:0.930941
-1 1:1.146939 2:0.923894 3:-0.900763 4:0.810042 5:-0.116746 6:-2.627216 7:1.011702 8:-1.943372 9:-0.438136 10:-1.281017 11:2.647926 12:0.672475 13:-0.356090 14:-1.605472 15:1.398708 16:1.422457 17:-0.854172 18:0.322212 19:0.621385 20:0.463567 21:-0.473752 22:-0.978099 23:0.462298 24:-0.650884 25:0.310588
-1 1:-0.739922 2:-1.854847 3:0.403081 4:0.834797 5:0.590793 6:-0.520036 7:0.322393 8:2.102602 9:-1.108721 10:1.495979 11:-0.228077 12:1.876338 13:1.325021 14:2.778420 15:-0.870629 16:-0.504547 17:0.858522 18:-0.777246 19:0.658328 20:-0.497796 21:1.444989 22:-1.182556 23:-2.065105 24:1.446379 25:0.675122
-1 1:0.147338 2:0.048270 3:-0.626646 4:0.639054 5:-0.574905 6:0.293708 7:-0.184164 8:0.704877 9:-0.165873 10:0.181993 11:-0.385818 12:0.148873 13:0.717250 14:0.184844 15:0.141602 16:-0.605010 17:-0.546181 18:-1.961117 19:-0.321608 20:0.155348 21:-1.474014 22:0.748602 23:0.445781 24:-0.090240 25:1.375528
-1 1:0.510359 2:1.706136 3:2.210098 4:1.040015 5:0.507208 6:-0.755233 7:0.732585 8:1.722389 9:-0.411938 10:1.098018 11:-0.198025 12:1.060307 13:0.708480 14:-0.044696 15:-1.251923 16:0.710233 17:0.097600 18:-0.272104 19:-0.267975 20:0.901061 21:-0.861875 22:0.562598 23:-0.539026 24:1.534059 25:-0.142497
-1 1:-0.700427 2:0.716702 3:0.048711 4:-2.200402 5:1.036775 6:-1.033771 7:-1.758331 8:-1.481431 9:1.209595 10:-1.915387 11:-1.305344 12:1.162637 13:-0.443148 14:-0.593287 15:-0.208553 16:0.384549 17:-1.692156 18:-1.307403 19:0.107326 20:1.023502 21:-0.023753 22:1.002491 23:0.005109 24:1.845024 25:-0.407187
-1 1:-0.370394 2:1.219668 3:-1.230223 4:1.717663 5:0.205506 6:0.409697 7:-1.196463 8:0.517812 9:0.108007 10:-1.089815 11:0.666338 12:-0.130777 13:-0.083993 14:-0.362588 15:0.122966 16:-1.190170 17:-1.633621 18:0.938415 19:-0.273753 20:0.523413 21:1.013662 22:0.264881 23:-0.695631 24:-1.208944 25:0.893827
-1 1:-1.343152 2:1.143850 3:-1.323384 4:-1.058204 5:0.401602 6:1.535804 7:-1.165403 8:-1.314469 9:0.700060 10:1.720311 11:0.232980 12:-0.111765 13:1.420756 14:1.399015 15:-1.140621 16:-0.329643 17:-0.961592 18:0.307871 19:-0.613210 20:0.688037 21:-0.158729 22:1.642926 23:-0.279416 24:1.315140 25:0.275156
-1 1:0.597356 2:-1.213158 3:-1.007728 4:0.889242 5:0.473497 6:1.306422 7:0.642602 8:0.778226 9:0.676482 10:-0.325487 11:-1.239889 12:-0.397688 13:1.591735 14:-2.656568 15:0.046941 16:0.175517 17:2.040127 18:1.343199 19:0.820385 20:-0.204094 21:0.163691 22:-0.666070 23:-1.644218 24:-0.318807 25:-0.469746
-1 1:0.424045 2:-0.893799 3:-1.443955 4:-1.354107 5:-0.604659 6:-0.008383 7:0.455825 8:-0.100630 9:-0.948725 10:0.555275 11:-0.450890 12:1.081148 13:-0.604250 14:-0.040049 15:-3.088290 16:-0.404211 17:1.890713 18:-1.625077 19:0.222512 20:-1.649658 21:1.159319 22:0.660299 23:0.169895 24:0.179133 25:-0.303761
-1 1:0.283342 2:-1.468046 3:-0.495439 4:-1.902820 5:-1.787288 6:0.947558 7:0.403360 8:-1.026408 9:-1.324380 10:-1.180361 11:-0.123809 12:1.339346 13:1.340872 14:0.935901 15:-1.816218 16:-0.586673 17:-0.815732 18:-1.105078 19:-1.437865 20:0.900909 21:0.603471 22:-0.763397 23:0.178230 24:0.614545 25:-0.531280
-1 1:0.679637 2:-0.173375 3:1.710231 4:1.439473 5:0.597697 6:0.538369 7:-0.120634 8:-1.064006 9:0.072879 10:-0.644744 11:-0.080540 12:0.248473 13:0.040188 14:-1.447026 15:-1.010078 16:-0.572852 17:0.948246 18:0.885881 19:-1.523477 20:0.994062 21:1.520764 22:2.002681 23:-0.495178 24:0.021151 25:-0.020428
-1 1:0.996952 2:1.321702 3:-1.182703 4:-1.709082 5:0.208829 6:0.837077 7:0.836816 8:-0.909894 9:0.843692 10:0.364223 11:-0.139085 12:-0.185877 13:-0.547621 14:-0.149713 15:0.157868 16:-0.745267 17:1.788998 18:2.032799 19:1.188436 20:-0.259065 21:0.688520 22:0.714966 23:0.278808 24:-0.620621 25:-1.513853
-1 1:-0.229423 2:0.375386 3:-1.225020 4:0.171348 5:0.937495 6:1.097578 7:-0.860517 8:-0.879619 9:1.055563 10:-0.779290 11:1.114811 12:-0.534961 13:-0.558044 14:-0.323223 15:-0.381899 16:-0.138240 17:-1.175815 18:0.148286 19:-0.399812 20:0.976119 21:-1.080119 22:0.697782 23:-0.022184 24:-0.240118 25:-0.670801
-1 1:-0.271733 2:0.930976 3:1.068602 4:-1.672792 5:-0.807112 6:-1.852141 7:-1.886822 8:0.800416 9:0.770690 10:1.203121 11:-0.928749 12:-1.594615 13:0.073674 14:1.363713 15:-2.117033 16:-0.394933 17:1.490963 18:-0.678752 19:-1.165309 20:1.936466 21:-0.433764 22:1.381355 23:0.266480 24:0.714902 25:0.721946
-1 1:2.288497 2:-0.777696 3:-0.266533 4:0.003956 5:0.344255 6:-1.699486 7:1.313465 8:2.349439 9:-2.286060 10:-1.920028 11:0.255330 12:-0.104110 13:0.100597 14:0.487492 15:0.969039 16:-0.802771 17:-0.211769 18:-1.129955 19:0.319495 20:-1.667998 21:0.402308 22:-1.715687 23:0.376841 24:1.699071 25:-0.473968
-1 1:0.138144 2:0.801376 3:0.994147 4:0.605620 5:0.737398 6:0.424077 7:-0.278958 8:2.586292 9:-0.765487 10:-1.583930 11:0.319509 12:0.439588 13:-0.110385 14:1.868377 15:-0.157840 16:-0.609009 17:-0.685151 18:0.023952 19:-0.174508 20:-1.995704 21:0.338875 22:0.275772 23:-1.217530 24:1.896593 25:-0.460502
-1 1:0.793961 2:-2.656874 3:-0.213695 4:-0.760378 5:1.139885 6:0.734917 7:-0.086508 8:0.559696 9:-1.310049 10:-0.666617 11:0.445789 12:-1.066181 13:1.920614 14:-0.869180 15:0.130370 16:0.687487 17:-1.787731 18:1.266453 19:-0.156530 20:0.387640 21:-0.410074 22:0.283427 23:-0.488752 24:-0.319429 25:1.167185
-1 1:0.899666 2:-0.064921 3:0.701127 4:1.343803 5:1.741442 6:-1.987048 7:0.733222 8:-0.655760 9:-0.496501 10:-1.071637 11:0.663863 12:0.460226 13:0.484072 14:0.082382 15:-0.798150 16:-1.899714 17:0.112787 18:1.831689 19:0.418270 20:-1.040506 21:0.889774 22:-1.080654 23:0.863126 24:-1.140592 25:0.868814
-1 1:0.035621 2:-1.834608 3:-0.219102 4:-0.018309 5:0.368235 6:-0.127377 7:-0.025850 8:0.341940 9:-0.271943 10:0.426000 11:0.412876 12:-0.436534 13:-0.297680 14:0.071475 15:0.570828 16:0.473537 17:0.159026 18:0.729747 19:-1.235404 20:0.469121 21:-1.881982 22:0.895793 23:0.028583 24:-0.838464 25:-0.236772
-1 1:0.253498 2:2.006513 3:-0.784809 4:-0.456247 5:-0.077780 6:1.068912 7:0.946811 8:-0.805541 9:-0.110288 10:0.088273 11:-1.185157 12:-0.092260 13:-0.278500 14:-0.956853 15:-0.238508 16:-0.237438 17:-1.757130 18:-1.485146 19:-0.714412 20:0.747108 21:-0.046249 22:-1.419700 23:0.654645 24:-1.553551 25:0.196164
-1 1:0.534782 2:-0.223216 3:-0.267741 4:0.193367 5:0.819755 6:1.068616 7:-1.014328 8:-0.726363 9:0.271076 10:-1.840444 11:-0.651494 12:-0.266089 13:-0.165550 14:-0.618733 15:-0.622746 16:-0.051391 17:0.289435 18:1.211463 19:0.061169 20:-0.367753 21:-0.807774 22:-0.520601 23:-1.361356 24:-0.092683 25:-0.780090
-1 1:0.035478 2:1.912680 3:0.317090 4:-0.659277 5:0.912046 6:0.193998 7:1.048677 8:-0.237920 9:-0.103049 10:0.451810 11:1.672277 12:-0.640869 13:-0.709356 14:1.204100 15:1.937330 16:-0.618386 17:1.057702 18:-0.344053 19:1.248457 20:0.087370 21:0.042303 22:2.934218 23:0.770766 24:-1.364787 25:-0.179237
-1 1:0.287300 2:0.738177 3:0.180542 4:-0.408937 5:0.243483 6:-0.645616 7:-0.678825 8:-2.129255 9:-0.346373 10:0.578139 11:-0.099892 12:-0.099805 13:0.336523 14:-0.457515 15:0.478364 16:0.918659 17:0.995689 18:-0.355250 19:-0.527923 20:0.106519 21:-0.031938 22:0.758105 23:0.386319 24:-0.024306 25:0.952646
-1 1:-0.646757 2:0.250665 3:1.246451 4:-0.296019 5:0.032839 6:0.192816 7:-1.041986 8:-0.125291 9:0.194548 10:0.614154 11:1.370388 12:1.269447 13:0.370480 14:1.507817 15:-0.924606 16:-0.233551 17:-0.081929 18:-1.315962 19:0.262103 20:-2.014322 21:-0.181443 22:0.055457 23:1.039774 24:0.998666 25:1.140589
-1 1:-0.157750 2:-0.285004 3:1.315853 4:-1.341246 5:-0.091968 6:-0.085008 7:-1.048108 8:-0.546417 9:0.353960 10:0.500364 11:-0.523726 12:0.089606 13:2.245940 14:-0.556203 15:0.418592 16:-2.042106 17:-0.777853 18:0.941126 19:-0.982418 20:0.680120 21:0.107745 22:1.591394 23:-0.386468 24:2.319844 25:1.211658
-1 1:0.727708 2:-0.503524 3:0.601061 4:-0.466750 5:0.020749 6:0.680170 7:1.119856 8:0.170711 9:-0.370784 10:-0.650832 11:-1.135019 12:-1.027212 13:-0.004889 14:-1.127516 15:0.800734 16:1.191947 17:0.044544 18:-0.967179 19:-1.349718 20:0.606152 21:1.294250 22:-1.354099 23:-1.153607 24:-0.149818 25:1.898840
-1 1:-1.516377 2:0.491606 3:0.597050 4:-0.611298 5:1.946228 6:-0.105251 7:0.762612 8:0.840091 9:-0.729161 10:-0.712103 11:0.070316 12:1.179023 13:0.673503 14:-1.399846 15:-0.323728 16:-2.481555 17:0.503111 18:1.005472 19:0.381872 20:0.053174 21:0.503154 22:-0.666690 23:-1.591955 24:1.060560 25:0.440848
-1 1:0.581983 2:0.160798 3:2.029170 4:0.807246 5:-0.744270 6:2.109218 7:0.304791 8:-1.224382 9:-0.124842 10:1.150593 11:-1.512208 12:0.028400 13:0.499514 14:0.073495 15:0.862983 16:0.351229 17:-1.863094 18:-1.465408 19:1.283250 20:-0.628374 21:1.016535 22:0.755608 23:1.170554 24:-0.108054 25:-0.287822
-1 1:-0.325698 2:-0.333484 3:0.380326 4:0.435902 5:-1.046691 6:0.363592 7:0.035003 8:-0.310856 9:0.528023 10:1.669480 11:0.727707 12:1.164706 13:0.403077 14:-0.123174 15:1.196529 16:0.477208 17:-1.397438 18:-0.169785 19:0.923600 20:1.134155 21:-0.728879 22:-0.618835 23:1.476485 24:0.538005 25:0.942380
-1 1:-0.458233 2:-0.573018 3:0.888207 4:-1.814170 5:0.719603 6:-1.139347 7:0.966045 8:1.781905 9:-0.762625 10:0.430578 11:0.731391 12:-0.250287 13:0.333219 14:-0.230371 15:0.499466 16:1.503360 17:-0.745078 18:0.247211 19:0.888146 20:2.345596 21:-0.256223 22:1.049921 23:0.447162 24:0.191833 25:-0.021064
-1 1:-1.890048 2:-1.966964 3:1.294867 4:-0.951650 5:1.029808 6:-0.678248 7:-0.978696 8:0.431652 9:-0.926436 10:-0.495118 11:0.367231 12:0.451805 13:-0.050306 14:0.323632 15:1.041176 16:-0.863262 17:-0.176865 18:-1.560356 19:-0.099222 20:-1.259859 21:-0.922968 22:0.341481 23:-0.794231 24:-1.181563 25:0.555536
-1 1:0.978778 2:0.302627 3:-0.449811 4:-0.271986 5:0.265469 6:1.896860 7:-0.316535 8:0.323890 9:-0.082099 10:-0.285634 11:-1.247197 12:-1.147460 13:-0.651564 14:0.420229 15:-0.678147 16:1.624533 17:1.491712 18:0.195964 19:1.000089 20:-0.833585 21:-0.667007 22:1.727342 23:0.532276 24:-0.036254 25:2.266192
-1 1:-0.680832 2:-0.610963 3:-1.658635 4:0.611755 5:0.833582 6:0.235146 7:0.150296 8:0.759206 9:0.026889 10:0.209869 11:-0.403098 12:0.296185 13:0.319451 14:0.176472 15:1.248737 16:2.586431 17:-0.628870 18:-1.806117 19:-0.129569 20:0.261568 21:-0.069646 22:2.718364 23:1.255220 24:0.466009 25:-0.070874
-1 1:-1.113536 2:-1.544913 3:-0.697541 4:-0.444600 5:1.118156 6:-0.199104 7:-0.700356 8:0.288111 9:1.419709 10:-0.461493 11:1.118838 12:-0.675488 13:-0.244470 14:1.023183 15:0.690745 16:0.837597 17:0.535903 18:1.139149 19:-0.063643 20:0.658894 21:0.192123 22:0.551185 23:-0.353425 24:-0.992430 25:-1.588194
-1 1:-0.538412 2:0.057240 3:-0.833212 4:0.988477 5:-0.252903 6:-1.644124 7:-0.845431 8:-0.664246 9:2.236294 10:0.376091 11:1.318454 12:0.233634 13:-1.269631 14:0.536212 15:-0.881002 16:1.418083 17:-0.360078 18:2.011481 19:1.712361 20:0.232213 21:0.607172 22:-0.592246 23:0.613403 24:0.276270 25:1.975290
-1 1:-0.025528 2:1.891207 3:-1.040759 4:-0.330960 5:1.194855 6:-1.275308 7:-0.788885 8:-1.122465 9:-0.891719 10:0.983251 11:-0.487196 12:-0.028139 13:-2.466870 14:0.539275 15:-2.375254 16:-0.408218 17:-0.184679 18:-0.589940 19:-0.254856 20:-1.385240 21:0.112627 22:2.401753 23:0.177528 24:-1.121875 25:2.321515
-1 1:-1.169345 2:1.307771 3:-0.246637 4:1.503643 5:-0.067385 6:0.775823 7:1.740725 8:0.685575 9:0.453301 10:-1.129891 11:0.003226 12:0.568671 13:-0.987254 14:-1.118239 15:0.322439 16:1.187841 17:-1.149312 18:1.417674 19:1.494553 20:-0.132338 21:1.284810 22:0.270797 23:0.082823 24:-0.695437 25:-0.758259
-1 1:0.750918 2:0.942820 3:-0.210012 4:4.095243 5:-0.460036 6:0.093430 7:-0.584177 8:1.775581 9:-1.417005 10:0.078342 11:-1.290275 12:-0.841413 13:0.727251 14:0.876620 15:-1.180794 16:-0.222656 17:0.768363 18:0.324611 19:1.655964 20:-0.630322 21:0.716590 22:0.321700 23:1.297411 24:1.358346 25:1.229755
-1 1:0.510146 2:-0.229397 3:-1.159578 4:1.072710 5:-2.615263 6:-2.286655 7:-0.573057 8:0.293324 9:-0.713748 10:0.174686 11:-1.171394 12:-1.664863 13:0.219752 14:0.375059 15:-1.081268 16:-0.332930 17:-0.354314 18:1.184588 19:0.965647 20:-0.683840 21:0.566342 22:-0.044658 23:-1.307316 24:-1.333726 25:1.969792
-1 1:-0.839196 2:0.166386 3:0.837546 4:-0.737034 5:-1.379017 6:-0.250171 7:1.808744 8:0.596202 9:0.004519 10:-0.405947 11:-0.782997 12:0.089170 13:-1.526796 14:1.470958 15:-0.304828 16:-0.432447 17:0.092052 18:0.345970 19:0.023430 20:0.987638 21:1.507543 22:0.495060 23:-1.919467 24:0.560280 25:-1.715596
-1 1:-1.289191 2:1.371837 3:0.332163 4:0.050908 5:-1.952184 6:0.329828 7:-0.170386 8:0.492206 9:-0.079632 10:1.375116 11:-0.069895 12:-1.317350 13:-1.089556 14:0.064181 15:-0.406766 16:-0.205014 17:0.578956 18:0.275246 19:1.552345 20:-0.989624 21:0.574581 22:0.902542 23:-0.341661 24:-1.084866 25:-1.269950
-1 1:0.780092 2:-0.354488 3:-0.245953 4:0.048916 5:0.046697 6:-2.602337 7:0.403682 8:-0.208638 9:0.265411 10:1.157469 11:-0.249623 12:-1.114648 13:0.692740 14:-0.796982 15:1.240169 16:1.540819 17:1.230452 18:0.703696 19:1.098779 20:1.013606 21:-0.055714 22:0.327576 23:-0.489966 24:1.680292 25:-0.671711
-1 1:0.035048 2:-1.067236 3:0.409686 4:-1.418604 5:1.697768 6:1.663221 7:1.485589 8:0.239572 9:0.305365 10:-0.170188 11:0.634251 12:-1.703101 13:-0.239130 14:-0.143011 15:0.339608 16:1.748741 17:0.591461 18:-0.223723 19:0.670129 20:-0.145283 21:0.435255 22:1.935208 23:-0.507226 24:-1.446186 25:-0.402204
-1 1:-2.512182 2:-2.148557 3:0.906777 4:-0.808121 5:1.455024 6:1.762562 7:-0.252862 8:0.338311 9:-1.328665 10:1.378213 11:-1.607857 12:0.727335 13:0.046311 14:0.575494 15:-0.720439 16:-0.732117 17:0.751920 18:-1.280429 19:0.153514 20:2.540600 21:0.351244 22:0.427522 23:-0.286565 24:0.283227 25:-1.343298
-1 1:-2.447974 2:-0.489272 3:-1.061317 4:1.181627 5:-0.249798 6:-1.139802 7:1.338862 8:0.415342 9:-0.313253 10:1.359215 11:0.359185 12:-0.627876 13:-0.756323 14:-1.595080 15:0.147246 16:-1.135272 17:0.440870 18:-0.444817 19:1.735480 20:1.301840 21:-1.396217 22:0.304331 23:-0.915865 24:0.540666 25:-0.235584
-1 1:-0.236706 2:-1.065086 3:0.135702 4:2.216993 5:-1.138177 6:-0.176799 7:1.033298 8:-0.812501 9:1.713733 10:-0.296017 11:0.161730 12:0.504740 13:2.124600 14:-0.420787 15:-1.203564 16:-1.004654 17:-0.868575 18:0.180195 19:0.062085 20:-0.684374 21:1.647060 22:1.214384 23:0.702145 24:-2.568795 25:0.826154
-1 1:-1.289674 2:0.031072 3:1.189769 4:-1.122076 5:0.022671 6:0.786182 7:-0.459241 8:0.151904 9:0.156714 10:0.679385 11:-0.396664 12:0.581613 13:-0.420480 14:1.570338 15:0.814711 16:-1.801138 17:-0.786318 18:0.203942 19:-1.131745 20:-0.320244 21:1.501407 22:0.213900 23:-0.399909 24:0.375351 25:-0.311492
-1 1:-0.312767 2:0.394236 3:-0.698741 4:-0.504000 5:-0.541175 6:-0.812581 7:-0.112425 8:-1.091563 9:-0.744647 10:1.619278 11:-0.116400 12:1.001530 13:0.030904 14:0.195558 15:-1.201248 16:1.705298 17:0.226189 18:-1.704842 19:0.854228 20:0.630885 21:1.899093 22:0.418128 23:-0.196972 24:-0.964124 25:-1.598981
-1 1:-0.631211 2:0.151956 3:1.028567 4:-1.428324 5:-0.429130 6:-0.425516 7:-0.032971 8:-2.099969 9:1.059985 10:-0.067355 11:-0.673019 12:0.330745 13:-1.772203 14:-0.135932 15:0.497776 16:-0.210653 17:0.683194 18:0.163264 19:-0.482819 20:-0.013277 21:0.037400 22:0.236248 23:1.373380 24:1.125667 25:-0.564244
-1 1:-0.626842 2:0.378250 3:-0.182940 4:0.571683 5:-0.581845 6:0.393113 7:-0.571837 8:0.669822 9:-2.268462 10:-1.549905 11:1.374567 12:-1.543709 13:0.723040 14:-0.629358 15:0.939777 16:-0.179714 17:0.647632 18:-0.839262 19:0.499326 20:-0.609309 21:-1.794284 22:0.351363 23:0.850865 24:0.861713 25:0.601099
-1 1:1.492959 2:1.385513 3:0.688113 4:-0.238775 5:2.793863 6:0.765064 7:-0.245796 8:1.264682 9:0.567036 10:-1.187543 11:-0.068054 12:1.728748 13:-0.032304 14:-0.088488 15:-1.776432 16:-0.436378 17:0.810367 18:0.499394 19:-1.330768 20:1.323936 21:1.544950 22:1.668355 23:0.050874 24:-0.780897 25:-0.485330
-1 1:-0.289224 2:-0.795259 3:-0.805691 4:0.208981 5:1.230497 6:-0.760065 7:-0.935582 8:0.315615 9:-0.482271 10:0.567293 11:0.105706 12:0.283258 13:-1.952834 14:-0.163124 15:0.791951 16:1.337399 17:0.861057 18:1.318204 19:1.456268 20:-0.552159 21:1.033585 22:-0.356820 23:-0.248997 24:-0.025063 25:-0.065104
-1 1:0.001480 2:0.184663 3:0.289832 4:-0.857934 5:0.819313 6:0.858307 7:0.540892 8:-2.236897 9:0.099639 10:0.815127 11:-1.673237 12:-0.164703 13:0.328420 14:1.936596 15:-0.184323 16:0.152992 17:2.585565 18:1.868632 19:-0.223860 20:1.658647 21:-0.088865 22:-1.414251 23:1.292550 24:-0.855046 25:1.174110
-1 1:0.677407 2:0.616135 3:0.447168 4:0.407805 5:0.405008 6:0.746113 7:-1.426588 8:2.061558 9:0.628144 10:-1.440443 11:1.611244 12:-0.201813 13:0.709150 14:-0.901791 15:1.814720 16:0.275812 17:-0.628040 18:1.002032 19:0.790323 20:-0.354969 21:-0.957379 22:-1.216270 23:1.085289 24:-0.456348 25:-1.112669
-1 1:-0.911303 2:0.166959 3:-0.384204 4:-0.868008 5:0.023473 6:-0.140854 7:1.151662 8:1.374372 9:0.405157 10:-0.487295 11:1.793030 12:-1.715499 13:1.438273 14:-0.747730 15:-0.063311 16:-2.614664 17:1.515669 18:-0.211577 19:0.001618 20:0.897380 21:0.378528 22:0.704110 23:-0.607716 24:0.294761 25:-1.524180
-1 1:-1.143080 2:-0.062411 3:-2.442137 4:-0.291710 5:1.865375 6:-0.568597 7:1.279100 8:-0.089072 9:-0.361121 10:-0.953072 11:1.223956 12:-0.535650 13:2.107300 14:-0.060986 15:0.473894 16:0.905346 17:0.982291 18:0.361058 19:-0.860481 20:-1.164812 21:-0.268535 22:0.472695 23:1.504032 24:0.405080 25:0.144584
-1 1:-0.332145 2:-1.261635 3:-0.249847 4:0.948007 5:-0.175308 6:1.253702 7:0.778099 8:0.783777 9:0.832449 10:-1.487853 11:-1.153601 12:-1.776089 13:1.232675 14:0.151247 15:-0.794651 16:-0.503745 17:-0.129232 18:-0.761238 19:0.769722 20:-0.319889 21:0.061347 22:1.050186 23:-0.608042 24:-0.535593 25:1.121822
-1 1:-0.249954 2:-0.165084 3:0.706094 4:-0.536161 5:-2.288444 6:-0.130858 7:-0.465298 8:0.522808 9:1.581772 10:0.340165 11:0.877142 12:-0.410930 13:-0.000483 14:0.163825 15:0.971587 16:-0.926609 17:0.078698 18:1.650221 19:1.672538 20:-0.791387 21:-1.610940 22:0.333043 23:1.067233 24:0.586531 25:0.351804
-1 1:0.419566 2:-1.407010 3:-1.207688 4:-1.049458 5:1.682691 6:0.837337 7:0.062282 8:0.671403 9:-1.363722 10:0.588593 11:0.000132 12:0.923453 13:0.956785 14:0.851034 15:-0.050209 16:-0.962408 17:0.731964 18:-0.245404 19:-0.603012 20:-0.780365 21:0.964225 22:-0.286901 23:0.306687 24:-0.267432 25:0.007538
-1 1:0.710747 2:1.290039 3:-0.482537 4:0.630955 5:1.466883 6:-0.192645 7:1.319183 8:-0.351153 9:-0.414963 10:0.092999 11:1.765805 12:0.746648 13:0.863830 14:2.101577 15:-0.494084 16:-1.026869 17:0.089728 18:-0.824584 19:-1.677251 20:0.984892 21:0.023100 22:0.813532 23:0.213104 24:-1.623820 25:-0.116998
-1 1:0.337376 2:0.342601 3:-0.328474 4:-1.156030 5:0.753241 6:-0.163435 7:0.823215 8:-1.179741 9:0.424038 10:2.414050 11:-0.359894 12:0.473159 13:-0.907708 14:-1.187229 15:-0.244850 16:-0.184662 17:0.944496 18:-0.306973 19:0.148465 20:-1.570947 21:-0.198104 22:1.868863 23:-2.125536 24:0.638962 25:-0.468879
-1 1:0.665428 2:-0.439360 3:-0.017594 4:-1.536822 5:-0.987702 6:-0.537032 7:0.545847 8:0.203193 9:0.508601 10:-1.409093 11:0.588598 12:0.451987 13:-0.528820 14:-0.986264 15:-0.560955 16:-0.071175 17:0.040738 18:-1.708139 19:-0.057203 20:1.172177 21:-0.777557 22:-0.041056 23:0.191663 24:0.216264 25:1.471636
-1 1:1.187079 2:-0.145923 3:1.350164 4:-0.304101 5:-0.960385 6:0.244472 7:-0.119275 8:-0.385772 9:-0.702038 10:-0.772383 11:1.602927 12:1.041004 13:1.880431 14:-0.618632 15:0.088057 16:0.540404 17:1.237109 18:1.515088 19:0.691466 20:0.325060 21:-0.257974 22:0.739116 23:1.918196 24:-2.482597 25:1.239128
-1 1:1.273992 2:0.725482 3:0.530598 4:1.086216 5:1.613101 6:0.835605 7:0.228191 8:0.790365 9:0.091104 10:0.104826 11:0.602118 12:2.608354 13:1.157948 14:-0.021525 15:-0.123703 16:-0.385775 17:-0.559334 18:0.721360 19:-0.107316 20:1.368218 21:-1.186234 22:-0.582038 23:-0.206909 24:0.402019 25:-0.616572
-1 1:0.331428 2:-1.106495 3:-0.736032 4:1.277792 5:0.747498 6:-0.458593 7:0.302010 8:-1.213810 9:0.983724 10:-0.447258 11:0.357166 12:0.089964 13:-1.530121 14:0.416319 15:1.174704 16:-0.977326 17:-0.211807 18:0.621852 19:0.434071 20:-1.467251 21:1.099893 22:0.151078 23:-1.117879 24:0.106002 25:0.946394
-1 1:1.199823 2:0.517130 3:-0.809305 4:-0.262630 5:0.264646 6:1.038373 7:-0.346645 8:0.576321 9:-0.823004 10:-0.503281 11:0.258065 12:2.007093 13:-0.637887 14:0.452535 15:0.822979 16:0.837425 17:-0.725992 18:1.431760 19:-0.042140 20:-0.186629 21:0.014405 22:-0.932520 23:-1.058716 24:-1.290928 25:1.089046
-1 1:-0.141174 2:-0.701181 3:0.357571 4:-1.055486 5:1.423218 6:-0.989382 7:-0.323839 8:0.111391 9:-0.252015 10:-0.067521 11:1.340163 12:-1.871472 13:0.065124 14:0.669254 15:-0.692012 16:-1.723452 17:-1.020763 18:0.260527 19:-0.263502 20:0.265471 21:0.755989 22:1.021952 23:0.277003 24:1.860505 25:0.488157
-1 1:-0.491948 2:-1.475747 3:-0.123272 4:-2.372171 5:-0.272875 6:0.564083 7:-0.707074 8:-0.532835 9:-0.066906 10:-1.003013 11:0.822800 12:-1.479567 13:-0.431582 14:0.227285 15:1.328215 16:0.358237 17:0.256698 18:-0.023615 19:-0.232949 20:0.383190 21:0.840068 22:0.316543 23:-0.034228 24:-0.072549 25:-1.359704
-1 1:-0.911946 2:-0.411607 3:0.387460 4:-0.808654 5:1.126271 6:-0.451265 7:0.235588 8:1.541364 9:-1.486423 10:-0.521313 11:0.231204 12:-0.873000 13:-0.017789 14:1.582008 15:0.300075 16:-1.578376 17:-1.827055 18:0.891428 19:-1.369782 20:-1.146476 21:-2.386268 22:0.687163 23:-1.343182 24:1.969106 25:-0.295560
-1 1:-1.198384 2:0.249421 3:0.724360 4:0.454562 5:-0.877214 6:-0.527639 7:-1.431361 8:-0.456727 9:0.816669 10:-0.108314 11:-0.022749 12:0.449643 13:0.168531 14:-0.885838 15:-0.850542 16:-0.605421 17:-0.971173 18:0.643352 19:0.638687 20:2.118260 21:-0.290670 22:-0.904450 23:-0.457983 24:-0.453826 25:0.481576
-1 1:-0.941372 2:-0.812093 3:-0.189596 4:0.716723 5:1.736791 6:2.175827 7:0.170481 8:-0.741039 9:0.230168 10:-0.230723 11:-1.317927 12:0.851877 13:-0.765447 14:0.208872 15:-0.332672 16:0.262581 17:0.182548 18:-0.484219 19:-1.418717 20:-0.125443 21:0.882936 22:1.400456 23:-0.430918 24:-0.297893 25:0.376572
-1 1:-0.787723 2:-1.046777 3:-1.191594 4:1.783711 5:-0.705748 6:-0.234888 7:-0.279126 8:1.322798 9:1.181463 10:-1.692181 11:-1.505505 12:-0.013670 13:2.020538 14:0.634064 15:1.740076 16:-1.328144 17:1.458241 18:2.077210 19:0.284431 20:0.379543 21:-0.351106 22:0.816681 23:-3.165675 24:-1.134350 25:-1.233023
-1 1:0.601212 2:-0.373986 3:-0.048106 4:0.729742 5:-1.042652 6:-0.514851 7:1.065457 8:-0.991153 9:-0.184681 10:-0.038705 11:0.163214 12:-0.006235 13:-0.702820 14:0.371078 15:2.105229 16:-0.154862 17:0.160722 18:0.380938 19:-0.134734 20:-0.985418 21:2.808664 22:-0.875145 23:-0.708782 24:-0.100039 25:0.018481
-1 1:-0.250425 2:0.667252 3:-0.534744 4:-1.511042 5:-0.131526 6:-0.094096 7:0.770345 8:1.812854 9:0.085743 10:-1.891219 11:-0.601252 12:0.921333 13:-0.193455 14:1.040228 15:0.476603 16:1.629936 17:0.296685 18:-0.059103 19:0.293536 20:0.440773 21:2.056095 22:-1.352857 23:0.285186 24:0.855513 25:-1.906347
-1 1:0.075761 2:0.445246 3:0.212697 4:0.935510 5:-1.648773 6:-0.183051 7:0.902502 8:0.768579 9:-0.396289 10:-1.727742 11:0.150461 12:0.570818 13:1.265247 14:-0.106923 15:0.899222 16:1.788974 17:1.173558 18:-0.620013 19:1.371325 20:0.835059 21:-1.744806 22:-2.667128 23:0.302069 24:-0.253661 25:0.134574
-1 1:-1.088916 2:0.382629 3:0.157867 4:-0.172863 5:-0.714308 6:-2.073114 7:0.019405 8:-0.214705 9:1.138096 10:0.340009 11:1.219762 12:-0.055083 13:0.559485 14:1.066274 15:0.774165 16:-0.678417 17:-1.425920 18:0.056173 19:0.550727 20:-0.365348 21:2.269784 22:-1.743559 23:1.112712 24:0.050543 25:-0.780975
-1 1:0.500859 2:0.473890 3:0.926238 4:-0.494705 5:1.236483 6:-1.948229 7:-1.290802 8:0.796367 9:0.306957 10:0.971315 11:0.995507 12:-0.010679 13:-0.728759 14:-2.251429 15:0.051739 16:-0.744689 17:0.531813 18:-0.673892 19:1.173927 20:-1.601971 21:0.716761 22:0.048316 23:0.086125 24:-1.815645 25:2.460466
-1 1:-1.590334 2:0.778765 3:0.493173 4:-1.148568 5:1.680992 6:-0.926657 7:-2.133729 8:0.601229 9:-0.393489 10:-0.771414 11:1.108606 12:-0.457517 13:1.196222 14:-0.046843 15:1.545400 16:0.901593 17:-0.301097 18:0.273867 19:-0.016670 20:-0.644877 21:0.891427 22:0.548240 23:0.390300 24:1.331620 25:-1.195639
-1 1:-0.590927 2:0.413789 3:-0.314108 4:-1.007886 5:0.055770 6:-0.356513 7:-0.569178 8:-0.501202 9:0.855114 10:0.104648 11:0.668498 12:1.270408 13:0.095130 14:0.579346 15:-0.211281 16:-0.444311 17:1.053795 18:-0.912533 19:-1.270784 20:0.120917 21:1.432154 22:-0.056615 23:-0.663425 24:-0.940932 25:-0.070274
-1 1:0.332376 2:-1.765015 3:0.519901 4:-1.393868 5:0.871810 6:0.032326 7:-2.007738 8:-0.072678 9:1.681206 10:-0.312330 11:1.041490 12:-1.573220 13:-0.272385 14:-0.821903 15:-0.934033 16:0.961173 17:-0.075741 18:-2.353303 19:0.157052 20:-0.398711 21:0.001789 22:-0.628135 23:1.941053 24:-1.789472 25:0.962662
-1 1:1.197127 2:0.087693 3:0.622766 4:-0.801073 5:-1.313576 6:-1.427396 7:0.537619 8:-0.828649 9:-0.884506 10:0.499004 11:0.668538 12:-0.025986 13:-0.941745 14:-1.896669 15:-2.479143 16:-2.519903 17:-1.193383 18:-0.338152 19:-0.534853 20:-0.807374 21:-1.604998 22:0.232518 23:-3.091942 24:0.151425 25:-0.058362
-1 1:-0.585469 2:-0.546173 3:1.207754 4:-0.345248 5:0.957080 6:-0.095144 7:-1.914073 8:0.191135 9:0.541618 10:2.435117 11:-0.133909 12:0.116341 13:-1.805161 14:-0.846725 15:0.183868 16:2.460454 17:0.498981 18:-0.827738 19:-0.239776 20:0.226570 21:-0.276616 22:1.465707 23:0.380842 24:1.023448 25:1.479668
-1 1:1.353912 2:-1.437330 3:1.754005 4:0.186073 5:0.254508 6:-1.091348 7:2.594935 8:0.355786 9:0.966149 10:1.213372 11:-0.706334 12:-0.073810 13:0.467534 14:0.193132 15:0.872633 16:0.593981 17:0.220004 18:-0.684355 19:1.230430 20:1.240874 21:-1.410577 22:-1.419842 23:-1.020529 24:0.238078 25:0.743579
-1 1:-0.227202 2:-0.648123 3:-0.344844 4:-0.178663 5:-0.287893 6:-1.364248 7:-1.107099 8:0.411420 9:1.153429 10:-0.344860 11:0.806627 12:1.508316 13:-1.711274 14:-0.545212 15:-0.731068 16:0.583055 17:-1.360397 18:-0.103425 19:-1.794726 20:1.278268 21:0.784359 22:-0.504087 23:2.074496 24:-0.344674 25:1.263735
-1 1:-0.244516 2:-0.484385 3:-1.751498 4:1.947051 5:-0.082079 6:-1.298981 7:0.490169 8:0.158985 9:0.657579 10:1.720936 11:-1.238856 12:-1.005056 13:0.520916 14:-0.036477 15:0.668056 16:0.553404 17:0.502316 18:-0.261777 19:2.333960 20:1.111481 21:0.895909 22:0.855072 23:-1.049278 24:2.029916 25:-0.488649
-1 1:1.700938 2:-0.598994 3:0.243305 4:0.042378 5:0.696419 6:1.544027 7:0.033538 8:-0.256636 9:-0.867263 10:0.602743 11:1.273997 12:0.188270 13:0.158480 14:1.257933 15:-0.635097 16:0.805557 17:-0.354642 18:1.484726 19:1.321829 20:1.616353 21:-0.281005 22:0.941410 23:-0.420458 24:-1.368009 25:1.323407
-1 1:0.949795 2:0.692882 3:0.521631 4:0.316446 5:-0.728711 6:-1.421588 7:-0.598929 8:-1.045287 9:3.740050 10:2.146079 11:-0.914522 12:-0.976423 13:0.248633 14:-0.169780 15:-0.531635 16:0.041864 17:-0.775733 18:-0.916567 19:0.093889 20:-0.452246 21:-0.375781 22:-0.523632 23:-1.409648 24:2.073682 25:-0.407398
-1 1:0.209808 2:-0.279172 3:1.206484 4:-0.392273 5:0.355787 6:-0.494976 7:0.428572 8:0.571592 9:-0.634207 10:0.091498 11:0.053688 12:-2.198596 13:0.232692 14:0.829172 15:0.742098 16:0.056082 17:-0.944707 18:-0.913472 19:2.001765 20:-0.207572 21:-0.175949 22:-0.950249 23:-0.866305 24:-0.842926 25:0.147177
-1 1:1.781805 2:-0.682709 3:0.351117 4:-0.051179 5:0.347153 6:0.927935 7:-0.187385 8:-0.048041 9:0.001604 10:-2.013740 11:1.016120 12:0.291496 13:1.035925 14:1.463753 15:-0.734615 16:0.852471 17:-0.671075 18:-0.797266 19:-1.357018 20:-0.936542 21:0.313526 22:0.364913 23:0.372690 24:0.747346 25:0.484151
-1 1:0.289213 2:0.731851 3:0.624942 4:0.114030 5:-0.141456 6:-1.233339 7:0.807347 8:0.227048 9:0.471274 10:0.497693 11:-0.322407 12:-1.021949 13:1.199421 14:-0.212172 15:-1.130052 16:1.587217 17:-0.325193 18:-0.895812 19:1.250696 20:1.318205 21:-1.255031 22:-1.179514 23:-0.850784 24:-0.257320 25:-1.318941
-1 1:-1.242611 2:-0.920073 3:0.457390 4:1.825895 5:0.278202 6:-1.333811 7:1.006890 8:-2.293598 9:0.588094 10:-1.237839 11:0.391163 12:-0.585651 13:0.256716 14:-0.071244 15:0.540030 16:-0.559243 17:-0.465770 18:0.385013 19:0.047674 20:-1.440161 21:0.093648 22:0.040526 23:0.628087 24:-1.622339 25:0.561668
-1 1:-1.697990 2:-0.537840 3:-0.423422 4:0.183993 5:-0.863048 6:-2.646370 7:0.457734 8:-0.202755 9:1.573503 10:-0.386046 11:0.874567 12:1.095217 13:0.463026 14:-0.942025 15:-1.641522 16:-2.090621 17:-0.993581 18:0.334553 19:-0.226429 20:0.377440 21:0.420466 22:0.726394 23:0.181638 24:0.970741 25:0.000265
-1 1:-0.439563 2:0.508375 3:2.297170 4:1.276062 5:1.566531 6:0.020138 7:-0.334684 8:2.501158 9:0.861216 10:-0.663857 11:1.100943 12:0.788734 13:0.702223 14:0.110606 15:1.526343 16:0.482299 17:1.434997 18:-0.126882 19:1.287634 20:-0.436183 21:-1.126367 22:-0.206158 23:-0.885621 24:1.867687 25:0.838833
-1 1:1.797487 2:0.631158 3:1.602927 4:-0.522878 5:0.093788 6:-0.664918 7:0.363425 8:-0.947515 9:-1.219961 10:0.080131 11:-1.205525 12:-1.202516 13:-0.064461 14:0.244092 15:2.003759 16:0.949810 17:-1.916369 18:0.658675 19:0.672473 20:0.594694 21:-0.193923 22:-1.822641 23:1.417154 24:-0.387835 25:-1.403467
-1 1:1.528220 2:1.640931 3:-1.363261 4:0.271813 5:-0.081807 6:-0.359082 7:0.059553 8:1.330622 9:1.623761 10:1.431953 11:0.051163 12:0.266542 13:1.084236 14:-0.471528 15:-1.215270 16:-0.642539 17:0.062214 18:-0.294087 19:0.835179 20:-1.159051 21:1.107527 22:-0.529142 23:-0.236292 24:0.964787 25:-0.863165
-1 1:0.577975 2:0.155112 3:-1.137784 4:-1.458910 5:0.510042 6:0.246135 7:1.103112 8:0.692331 9:2.048470 10:0.760733 11:0.332259 12:-0.084736 13:0.053217 14:0.523226 15:-1.255672 16:-1.020316 17:-0.398551 18:0.156557 19:1.636288 20:1.190770 21:0.273986 22:0.842922 23:2.316132 24:1.314191 25:0.312354
-1 1:0.273112 2:0.174965 3:-0.397518 4:1.270336 5:-1.607971 6:0.462314 7:1.964314 8:-2.008673 9:-0.482668 10:0.885474 11:0.827064 12:-2.166898 13:1.323058 14:-1.092427 15:-0.223777 16:0.887814 17:0.423218 18:-0.939581 19:0.394116 20:-1.034587 21:-1.620741 22:2.118921 23:0.200273 24:-1.138886 25:-0.724412
-1 1:0.410519 2:-0.569251 3:-0.678750 4:1.045148 5:0.849959 6:0.989998 7:-0.378073 8:0.149561 9:-0.456555 10:-1.601818 11:-0.220665 12:-1.700096 13:1.663719 14:0.374751 15:1.707690 16:1.395532 17:1.474047 18:-1.397119 19:1.171719 20:0.688085 21:-0.579787 22:0.263621 23:-1.595580 24:0.284676 25:0.427714
-1 1:0.757564 2:1.631810 3:-0.925406 4:-0.867924 5:0.153945 6:2.113594 7:-0.367987 8:0.404309 9:-0.268081 10:2.880242 11:-0.586587 12:-1.085664 13:-0.753992 14:-1.693372 15:-0.993906 16:0.412375 17:0.724689 18:0.611093 19:-2.816329 20:0.409421 21:0.795285 22:-1.459196 23:0.019282 24:-1.099769 25:1.458940
-1 1:0.755929 2:0.922997 3:-1.448023 4:0.096771 5:-1.312240 6:0.210063 7:0.992088 8:2.030606 9:0.958197 10:0.556674 11:-0.766310 12:-0.045997 13:-1.642892 14:-0.318691 15:-1.748350 16:-0.179374 17:1.650465 18:-0.322493 19:0.634881 20:-0.824831 21:-0.620298 22:0.901084 23:-0.621738 24:1.197714 25:0.617707
-1 1:1.044498 2:0.470767 3:0.764889 4:-0.871856 5:-0.010188 6:1.191170 7:0.165649 8:-0.756482 9:2.567832 10:-0.178176 11:-0.326703 12:0.148209 13:0.305053 14:-1.527068 15:-1.061167 16:1.922587 17:1.557910 18:0.865918 19:0.373445 20:0.902345 21:0.041437 22:0.851661 23:0.162122 24:-0.197734 25:0.049241
-1 1:-0.574388 2:-1.241064 3:1.376328 4:-0.089206 5:0.323716 6:-2.404403 7:-1.027105 8:-0.462179 9:-0.744386 10:0.316605 11:-1.770429 12:0.367744 13:0.733865 14:0.049183 15:-0.609974 16:0.825858 17:-0.036842 18:-0.615596 19:-1.823016 20:0.844299 21:1.529486 22:0.239853 23:-0.138667 24:-0.211086 25:0.378159
-1 1:-3.142334 2:0.134568 3:0.512173 4:0.587525 5:-0.020603 6:0.378162 7:-0.762437 8:0.833708 9:1.412288 10:-0.973540 11:0.582090 12:-0.748886 13:-1.292638 14:-1.140401 15:-0.999284 16:-0.298868 17:0.721441 18:-1.163434 19:-1.038415 20:1.387076 21:1.521301 22:-0.255817 23:-0.252693 24:0.698329 25:2.225790
-1 1:1.465889 2:-0.189410 3:-0.090557 4:0.364888 5:0.416072 6:0.062237 7:-1.477318 8:-1.076018 9:-0.092518 10:1.254232 11:0.154736 12:1.033903 13:-1.377737 14:0.246999 15:1.039287 16:-0.734648 17:-1.378878 18:1.092166 19:-0.453472 20:0.384780 21:0.535926 22:1.304302 23:0.538797 24:-1.204823 25:-0.568331
-1 1:0.286849 2:1.146874 3:-1.238711 4:0.728503 5:-0.155543 6:-1.067924 7:0.970842 8:0.331570 9:1.390663 10:1.043482 11:-0.851040 12:2.199425 13:0.720637 14:0.848612 15:0.075302 16:1.622831 17:-0.445506 18:-0.520359 19:-0.635352 20:0.171782 21:-1.620353 22:-0.498769 23:0.557013 24:0.142338 25:-0.006081
-1 1:-1.329862 2:0.661034 3:-1.043807 4:0.083266 5:-1.066705 6:1.237874 7:-1.298082 8:-1.192348 9:0.344714 10:0.661764 11:-0.225484 12:1.094886 13:1.332549 14:-1.497215 15:-0.503750 16:0.674437 17:0.747116 18:0.189257 19:-1.202482 20:-1.384428 21:-1.040228 22:-1.438358 23:-0.767622 24:-1.254183 25:1.730371
-1 1:-0.532108 2:-1.098766 3:0.738182 4:-0.039670 5:0.365896 6:-1.853414 7:-0.987752 8:0.158064 9:1.499961 10:1.171063 11:-0.446425 12:-0.044275 13:-1.225890 14:-1.302483 15:1.046694 16:-0.493838 17:0.866704 18:-0.476504 19:-0.121015 20:0.789296 21:-0.163397 22:1.706078 23:-1.494218 24:0.296698 25:1.601954
-1 1:-0.836448 2:-1.407914 3:2.281541 4:0.227597 5:0.972713 6:0.520271 7:-0.265237 8:1.087513 9:-0.427717 10:1.009076 11:1.482857 12:-1.429064 13:1.352636 14:0.723259 15:0.715531 16:-1.520574 17:-0.840263 18:2.092893 19:-0.418118 20:0.052087 21:1.132269 22:0.300988 23:-0.019696 24:-0.498045 25:0.800611
-1 1:-0.318776 2:2.564028 3:0.712421 4:0.074267 5:0.395770 6:-0.556043 7:1.777642 8:-0.863703 9:1.209024 10:-2.197708 11:0.466161 12:-0.471921 13:1.813138 14:-0.330393 15:-0.854968 16:-2.222097 17:-0.228373 18:0.176968 19:1.051690 20:-1.729275 21:0.313423 22:1.110655 23:-1.684686 24:0.781596 25:0.088015
-1 1:0.935338 2:-0.169328 3:0.062784 4:-0.190444 5:1.331660 6:0.672580 7:0.242199 8:-0.021870 9:0.636382 10:-1.555561 11:-1.049466 12:-1.219404 13:-1.713021 14:-0.307172 15:0.550779 16:-0.474747 17:1.490698 18:0.140379 19:0.170524 20:0.021637 21:0.160476 22:-0.199868 23:-1.789896 24:0.028566 25:1.002139
-1 1:-0.047459 2:2.196071 3:0.655292 4:0.669454 5:0.894063 6:-1.118491 7:0.315127 8:-0.713111 9:0.715921 10:-0.907185 11:-0.050417 12:0.256208 13:-1.518414 14:0.706489 15:-2.240916 16:-0.120419 17:-1.730916 18:-0.976615 19:0.014251 20:-0.961388 21:0.695698 22:0.845991 23:1.063902 24:0.548565 25:-1.551351
-1 1:0.196415 2:0.251895 3:0.757991 4:-0.477350 5:0.381544 6:0.958883 7:-2.583865 8:0.303009 9:1.973477 10:0.549247 11:-1.281642 12:0.629009 13:-0.443017 14:1.353288 15:1.040799 16:-0.177137 17:0.306873 18:1.230324 19:-0.222671 20:2.021614 21:-0.565409 22:-0.625278 23:1.209060 24:0.100915 25:2.785726
-1 1:-0.203083 2:0.058639 3:-0.056196 4:-1.029660 5:-0.831806 6:2.112839 7:1.030236 8:0.176143 9:-0.414473 10:-0.891099 11:0.610267 12:-0.671322 13:0.948671 14:1.659806 15:1.297896 16:1.270749 17:2.856662 18:0.373909 19:0.732697 20:-0.382246 21:0.922677 22:1.343586 23:-1.531198 24:-0.380192 25:1.467269
-1 1:1.494474 2:1.537565 3:-0.883233 4:0.611881 5:-0.486143 6:0.652978 7:-2.443083 8:-1.214588 9:-2.046169 10:-0.113338 11:-0.674815 12:-0.417913 13:-0.116583 14:-1.593675 15:-1.359258 16:-1.551378 17:-0.202781 18:1.527059 19:0.861535 20:0.951113 21:0.536404 22:1.185157 23:1.589061 24:-1.080611 25:0.661224
-1 1:-0.679764 2:1.664327 3:-1.707113 4:-1.613465 5:1.701818 6:1.075063 7:0.734094 8:-0.440785 9:-0.886923 10:-0.286781 11:1.145906 12:-0.024573 13:1.220427 14:1.347277 15:0.781944 16:0.738099 17:-1.071386 18:0.545431 19:1.585385 20:0.012252 21:0.179722 22:0.339470 23:-0.274633 24:-0.136525 25:-1.997206
-1 1:1.693362 2:0.196266 3:0.126655 4:1.343829 5:-1.539483 6:1.050956 7:-1.686108 8:-0.325182 9:-0.798232 10:0.266303 11:0.156139 12:-0.071087 13:-0.469939 14:2.419340 15:-1.303004 16:-0.735791 17:-1.686565 18:-0.130795 19:1.501625 20:1.306577 21:0.474973 22:-0.211117 23:0.284384 24:-0.184085 25:2.274071
-1 1:-1.106404 2:-0.043956 3:0.738783 4:0.726884 5:0.156743 6:-2.152317 7:-0.224783 8:-0.884706 9:-0.995368 10:-0.260346 11:0.783705 12:-1.526727 13:-0.499174 14:-0.141801 15:-0.925683 16:-0.840930 17:0.583915 18:1.303532 19:-0.088357 20:0.172345 21:1.442373 22:-3.231091 23:-0.744806 24:1.341942 25:-0.737918
-1 1:1.660734 2:-1.233891 3:-1.180233 4:0.291870 5:0.474677 6:-1.230696 7:-1.007954 8:0.510552 9:0.585635 10:-1.773965 11:-0.103433 12:0.263955 13:-0.234527 14:-1.455538 15:-0.840689 16:0.675886 17:-1.746031 18:-0.768912 19:1.088535 20:0.626350 21:-0.625131 22:-0.181125 23:1.217312 24:-0.157238 25:0.830241
-1 1:-1.069108 2:-0.432203 3:0.562823 4:-0.255721 5:-0.492249 6:0.716593 7:1.726018 8:2.313993 9:-0.593635 10:-0.360529 11:-0.924781 12:0.610729 13:-0.160550 14:-1.816831 15:1.160608 16:0.251304 17:0.335168 18:-0.004110 19:-0.201651 20:0.325204 21:1.509475 22:1.686451 23:-0.418595 24:-2.122434 25:0.044342
-1 1:-1.707462 2:-1.010849 3:0.199610 4:-0.576304 5:0.612029 6:0.276509 7:-0.572976 8:1.033160 9:-0.085238 10:-1.147038 11:0.315281 12:2.132699 13:0.579002 14:0.579372 15:-1.166139 16:-0.097550 17:1.531466 18:1.155818 19:2.215327 20:0.226906 21:0.244213 22:0.282648 23:1.558416 24:0.326709 25:1.613085
-1 1:0.585134 2:-0.293747 3:-1.648277 4:0.296323 5:-1.317667 6:1.193923 7:0.681807 8:-1.320967 9:-0.392583 10:1.089353 11:-0.301315 12:0.544807 13:0.395286 14:0.202745 15:-0.282203 16:-0.081164 17:1.279351 18:1.526704 19:-0.089212 20:0.911294 21:-0.216384 22:0.919998 23:-0.788098 24:0.847055 25:-2.348841
-1 1:2.106856 2:-0.663700 3:-0.059780 4:-1.215880 5:0.798726 6:-0.583908 7:0.538045 8:1.220029 9:-0.754390 10:0.106286 11:0.115765 12:1.243421 13:-0.030855 14:0.667893 15:-0.862047 16:0.003191 17:0.045822 18:-0.211239 19:0.152725 20:-0.757154 21:1.354755 22:-0.542457 23:-0.844203 24:-1.368352 25:2.093552
-1 1:0.215581 2:-0.591543 3:-0.000001 4:0.264854 5:0.359164 6:0.348858 7:0.282689 8:-1.668180 9:-1.367506 10:-1.625205 11:1.583998 12:-0.700298 13:0.568849 14:-0.024697 15:-1.868705 16:-0.147625 17:1.158271 18:-0.148730 19:-0.426565 20:-0.672907 21:-0.193319 22:-0.047723 23:-0.178044 24:-0.390985 25:-1.749482
-1 1:1.422627 2:2.122121 3:-0.507473 4:-0.130011 5:1.562103 6:0.417455 7:-0.750135 8:-0.440931 9:-0.942283 10:1.190128 11:-0.570633 12:-1.509336 13:0.269405 14:0.527050 15:1.929050 16:-0.789321 17:-1.044591 18:-0.725141 19:-1.060287 20:0.319329 21:-0.641287 22:-1.266191 23:-1.604421 24:-0.722308 25:1.034152
-1 1:0.386291 2:0.703914 3:0.401534 4:-1.444256 5:0.078645 6:-0.658882 7:0.147249 8:-0.380584 9:1.488662 10:-0.202574 11:1.415199 12:0.003555 13:-1.647983 14:-1.970067 15:-1.705988 16:0.202704 17:-1.973930 18:0.670778 19:0.758835 20:-0.668040 21:-0.217325 22:-0.753294 23:-1.327931 24:2.138441 25:-1.806111
-1 1:-0.459698 2:0.970591 3:0.102770 4:-0.883328 5:0.999100 6:1.045638 7:-1.328939 8:0.302474 9:0.772121 10:0.752435 11:1.579113 12:-0.478604 13:0.781776 14:0.148315 15:-0.173299 16:-0.186633 17:0.742684 18:-0.289196 19:-0.719211 20:0.071006 21:-0.969586 22:1.154738 23:-0.089830 24:-0.438476 25:0.761691
-1 1:0.481521 2:0.535993 3:-0.489082 4:1.093457 5:-0.430769 6:-0.045602 7:-0.852770 8:1.003790 9:-2.056249 10:1.194004 11:-1.054039 12:0.330842 13:-1.012022 14:0.195125 15:-0.026321 16:-0.522442 17:-1.864910 18:-0.442048 19:-0.632738 20:0.376378 21:-0.641445 22:0.467869 23:-0.080864 24:-0.754540 25:-0.367872
-1 1:-0.096172 2:-0.910924 3:0.247167 4:0.116292 5:-1.396951 6:-0.102046 7:-1.142859 8:0.641268 9:0.949232 10:-0.383127 11:1.152318 12:-1.301389 13:0.884630 14:-0.332339 15:-0.230061 16:1.334304 17:-1.977226 18:0.008070 19:0.081570 20:-1.038632 21:0.634967 22:1.517147 23:0.312248 24:0.905191 25:0.080567
-1 1:-1.408434 2:0.569115 3:0.499787 4:0.288888 5:-2.501308 6:-0.807684 7:-0.926391 8:0.593662 9:0.228072 10:0.356406 11:-0.218720 12:-0.597981 13:1.312599 14:1.307765 15:-0.622177 16:0.931441 17:1.132815 18:0.216288 19:1.276275 20:-0.796869 21:1.374594 22:-0.584335 23:-1.819360 24:0.673644 25:0.145311
-1 1:-0.231718 2:0.163909 3:0.606622 4:-1.317228 5:-1.517555 6:0.180636 7:-0.465553 8:-1.328329 9:-0.685995 10:1.302374 11:-0.457441 12:0.192632 13:-0.253339 14:0.569367 15:-1.494120 16:0.378928 17:-0.104622 18:-0.659116 19:-0.434421 20:0.439122 21:2.421683 22:0.382218 23:-0.662467 24:-0.543897 25:0.791518
-1 1:0.502421 2:2.069371 3:-0.280716 4:1.131797 5:0.917883 6:0.181027 7:-1.194670 8:0.301330 9:-0.746977 10:-1.247014 11:-2.632133 12:0.761182 13:0.401854 14:-0.199320 15:-0.122602 16:-0.223643 17:-0.967863 18:-0.936543 19:-0.601378 20:0.343575 21:1.806993 22:-1.621045 23:0.547582 24:0.168346 25:0.373061
-1 1:0.049373 2:-0.526167 3:-0.060741 4:-1.701968 5:0.116938 6:-1.085909 7:-1.081733 8:0.673381 9:-1.411798 10:0.150265 11:-1.116608 12:1.493985 13:-0.248383 14:-0.323246 15:-0.776427 16:-0.341633 17:0.108605 18:-1.151763 19:-1.305866 20:0.802816 21:0.936201 22:-1.686728 23:0.788296 24:1.123634 25:-0.184679
-1 1:0.618162 2:0.492392 3:0.750597 4:-1.486214 5:-0.250308 6:0.173481 7:-0.021104 8:-1.289247 9:0.539357 10:0.945791 11:-1.866316 12:0.900420 13:-0.123013 14:0.470399 15:0.547624 16:0.434484 17:1.357412 18:-1.583525 19:-1.962445 20:0.952736 21:-0.848062 22:-2.282315 23:1.380157 24:1.204734 25:-0.455184
-1 1:-2.034126 2:0.604512 3:0.675670 4:-0.832184 5:-1.620362 6:-0.217654 7:0.323673 8:-1.474618 9:0.304894 10:-1.035740 11:-0.213377 12:0.516007 13:-1.337816 14:0.551641 15:0.517248 16:-1.141628 17:-0.449104 18:-0.602303 19:2.469765 20:-0.627543 21:-1.684999 22:-2.245766 23:0.670889 24:-1.002823 25:-1.019997
-1 1:-0.274554 2:-1.115030 3:-0.329067 4:0.066860 5:-1.142958 6:-0.729365 7:0.130764 8:-1.571542 9:-1.365430 10:0.950727 11:0.522207 12:0.657706 13:0.022882 14:-0.163589 15:0.108334 16:1.476414 17:-1.343695 18:-0.851229 19:1.320641 20:0.558234 21:0.222764 22:-0.284992 23:-0.798735 24:-1.072035 25:1.410978
-1 1:-0.751436 2:0.777603 3:1.818161 4:0.384109 5:1.807411 6:-0.692222 7:0.092375 8:0.643254 9:0.951266 10:1.035181 11:-0.087890 12:1.806224 13:-0.400282 14:-0.256093 15:0.634500 16:-1.389609 17:1.586870 18:-0.759242 19:0.024830 20:0.236555 21:1.123274 22:-0.626484 23:-1.079086 24:0.436417 25:0.514306
-1 1:0.821348 2:0.375223 3:-0.502894 4:1.038236 5:-0.898025 6:0.972774 7:-0.289801 8:0.984643 9:-0.407674 10:1.552027 11:-1.811763 12:0.954518 13:0.261072 14:-0.019786 15:1.301309 16:-0.405353 17:0.665441 18:-0.251829 19:0.270346 20:-1.600933 21:-1.226824 22:-0.957905 23:0.342683 24:0.409234 25:-0.338538
-1 1:1.018542 2:-0.240864 3:-0.666814 4:0.254970 5:0.167145 6:-0.065299 7:-0.919985 8:-1.412956 9:2.154045 10:0.359933 11:-0.630551 12:0.354456 13:0.616411 14:-0.203367 15:-0.814884 16:-0.112332 17:0.344302 18:-0.131836 19:-0.718686 20:-0.512852 21:-1.059770 22:0.632937 23:-0.266202 24:-1.069441 25:1.752596
-1 1:-0.465294 2:0.959318 3:-1.170127 4:1.263012 5:-0.129415 6:2.622125 7:0.642932 8:0.718615 9:2.093174 10:-1.231649 11:-0.125471 12:0.200090 13:-0.313428 14:0.002151 15:-0.771576 16:0.373242 17:0.562378 18:0.294061 19:1.352836 20:1.211975 21:-0.324949 22:0.180683 23:-0.120798 24:0.597696 25:-1.750332
-1 1:0.395469 2:1.217109 3:-0.026468 4:-1.111310 5:1.026999 6:-1.132595 7:-2.030463 8:-1.189353 9:0.598636 10:-0.901236 11:1.189366 12:1.005948 13:0.193937 14:0.872578 15:-0.717175 16:-0.707300 17:-2.204679 18:-0.436078 19:-0.769303 20:-0.952946 21:0.324369 22:-0.925334 23:0.316301 24:0.265713 25:0.630679
-1 1:-0.488465 2:-0.287754 3:0.109048 4:1.205695 5:-0.673993 6:-0.320318 7:0.453309 8:0.915814 9:0.083649 10:0.047862 11:1.587123 12:-0.304721 13:-1.351591 14:0.017565 15:-0.418538 16:1.015324 17:-0.074189 18:0.696774 19:-0.834208 20:0.885152 21:0.867628 22:2.565779 23:1.404334 24:0.442431 25:-0.717273
-1 1:0.658580 2:1.594187 3:0.035574 4:0.647591 5:-0.353473 6:-0.481280 7:0.293207 8:0.243216 9:0.554330 10:0.284823 11:-0.188425 12:-0.042784 13:-0.323592 14:0.868359 15:-0.276830 16:-0.724343 17:1.030232 18:-0.142582 19:0.702113 20:0.160218 21:-0.796661 22:0.887268 23:-1.205019 24:-0.571407 25:0.904058
-1 1:0.029134 2:-0.308638 3:1.379958 4:-0.851812 5:-1.298424 6:0.432308 7:0.342738 8:-0.876595 9:0.207585 10:-0.214304 11:2.393851 12:-0.844564 13:-0.175648 14:0.966578 15:-0.250202 16:-0.252159 17:0.104578 18:0.254660 19:-1.407179 20:0.571920 21:0.569303 22:-0.866416 23:-0.368595 24:-0.408246 25:-1.485503
-1 1:-0.505749 2:0.773526 3:1.847299 4:0.054549 5:0.516625 6:0.881981 7:0.210171 8:-0.593763 9:-0.135304 10:-0.155485 11:0.352965 12:2.029473 13:-0.343509 14:-1.812366 15:-0.222120 16:-0.632700 17:1.060995 18:-0.902741 19:1.827287 20:0.089243 21:0.203766 22:0.007445 23:-0.403387 24:-0.540070 25:-0.901562
-1 1:-0.289794 2:-0.913446 3:0.993452 4:-1.988906 5:1.089499 6:-0.046116 7:1.265771 8:-2.076078 9:0.033779 10:0.330350 11:-0.464345 12:-0.836259 13:-0.432156 14:-0.846941 15:0.685810 16:0.851575 17:-1.129216 18:-0.598344 19:1.763054 20:-0.986064 21:-2.033902 22:1.130521 23:-1.179048 24:-1.247736 25:-0.620020
-1 1:-1.120047 2:0.386563 3:-0.475287 4:0.042581 5:-0.468786 6:-0.849329 7:-1.022176 8:-1.089532 9:1.009535 10:-0.005208 11:2.260685 12:-1.473154 13:-0.044092 14:1.529916 15:0.468473 16:0.720287 17:1.838488 18:0.323100 19:0.382733 20:0.104448 21:0.824110 22:1.584659 23:-0.169559 24:0.019445 25:0.816045
-1 1:0.507788 2:-0.621861 3:1.463540 4:-1.586391 5:-0.783422 6:-0.330505 7:0.100555 8:1.279593 9:0.597192 10:-0.596524 11:-1.852957 12:0.264398 13:-0.301884 14:-1.509140 15:0.353450 16:-0.225029 17:-0.829309 18:-0.581436 19:0.502380 20:-0.523532 21:0.511031 22:0.634110 23:-0.831119 24:-0.763582 25:-0.651380
-1 1:-1.017590 2:-0.838612 3:0.193817 4:-0.690983 5:-1.353553 6:-0.978838 7:0.425261 8:0.142695 9:-0.192474 10:-0.079414 11:-0.925790 12:-0.533178 13:0.070370 14:1.728406 15:1.059165 16:0.080192 17:0.321061 18:0.801542 19:0.640552 20:0.225172 21:-0.474959 22:-0.698421 23:-1.865720 24:-0.045347 25:0.620435
-1 1:-0.573854 2:0.207213 3:2.160378 4:0.835752 5:0.293385 6:0.696198 7:-2.244447 8:-1.387200 9:1.008169 10:-0.543877 11:-0.465658 12:1.311525 13:-0.125666 14:-0.195235 15:-0.066308 16:0.267321 17:0.561356 18:1.248267 19:-0.454373 20:0.948245 21:-0.272959 22:1.091043 23:-1.001090 24:-1.327714 25:-0.471648
-1 1:0.629293 2:-0.267795 3:-0.043632 4:-0.496420 5:0.915444 6:1.461107 7:-0.756510 8:0.973046 9:0.083523 10:0.076432 11:-0.731598 12:-2.382469 13:-0.160593 14:0.244187 15:0.416606 16:0.708518 17:0.531225 18:0.486446 19:-1.722097 20:-0.091604 21:-1.416658 22:0.478100 23:1.392456 24:0.095056 25:0.242072
-1 1:-0.248373 2:-0.439586 3:0.102247 4:-1.126665 5:-0.426561 6:-0.513858 7:0.050233 8:-1.279265 9:-0.337729 10:-0.152167 11:0.293872 12:0.388661 13:2.007330 14:0.418358 15:1.891090 16:0.269078 17:0.795113 18:1.014315 19:2.009777 20:-0.743674 21:-0.447108 22:-1.081024 23:-1.193348 24:0.901775 25:0.391398
-1 1:0.940909 2:-0.333476 3:-0.257459 4:0.712429 5:1.110539 6:1.419150 7:-0.725996 8:0.776414 9:-0.079147 10:0.320302 11:-0.112449 12:0.068100 13:0.969156 14:-2.148457 15:-0.929456 16:-1.967322 17:0.761847 18:1.392376 19:-0.506163 20:0.596328 21:1.345478 22:0.158564 23:-1.469420 24:-1.547143 25:0.591874
-1 1:-0.165978 2:-1.184956 3:0.897943 4:1.710776 5:-0.974155 6:0.889135 7:-0.108392 8:-0.532587 9:0.112642 10:-1.225138 11:-0.703683 12:-1.713473 13:0.534880 14:-1.871535 15:0.141870 16:0.572741 17:-0.912713 18:-0.402283 19:-1.476383 20:0.106537 21:2.239028 22:1.255217 23:-0.711200 24:0.010493 25:-0.322343
-1 1:-1.391016 2:0.580536 3:-1.409361 4:0.386414 5:-0.337658 6:-0.326144 7:-0.269540 8:-0.257291 9:-0.074683 10:0.151178 11:1.218498 12:-1.336686 13:0.184119 14:1.084771 15:-0.047606 16:1.147631 17:1.195885 18:-0.372804 19:-0.570113 20:0.555141 21:-1.307663 22:0.531543 23:0.717134 24:-0.736458 25:0.681301
-1 1:0.355375 2:1.183254 3:0.035542 4:0.357367 5:0.881773 6:-0.737608 7:1.217044 8:-0.799535 9:-0.326873 10:-1.216730 11:0.508328 12:0.477898 13:0.734255 14:1.002665 15:1.133940 16:1.094024 17:-0.666527 18:-1.171313 19:0.624727 20:-1.496621 21:0.114350 22:1.246757 23:0.910308 24:0.357609 25:-0.458119
-1 1:0.416083 2:0.924106 3:0.910889 4:0.980316 5:-1.405514 6:-2.141179 7:-0.414649 8:0.696951 9:0.987559 10:1.967679 11:-0.802116 12:0.839125 13:-1.320543 14:0.642384 15:-0.921128 16:0.320631 17:2.321805 18:-1.274415 19:-0.065168 20:0.809552 21:-0.576227 22:-0.693476 23:0.811157 24:-0.555653 25:1.633118
-1 1:0.305663 2:-0.808628 3:1.913998 4:0.573848 5:-2.519193 6:-0.082086 7:2.227355 8:0.785611 9:0.607266 10:-2.115137 11:1.638299 12:-0.980780 13:-1.249125 14:1.451589 15:0.674076 16:0.551315 17:-0.122202 18:-1.341853 19:-0.018579 20:0.129427 21:-0.415595 22:0.792795 23:2.432509 24:-0.717797 25:0.095959
-1 1:0.505185 2:0.569727 3:1.969802 4:1.885736 5:-0.724130 6:-0.469969 7:-0.020380 8:-0.159653 9:0.545596 10:-0.410954 11:-1.454470 12:0.737617 13:-1.173403 14:0.094901 15:1.410051 16:-0.035547 17:-0.690582 18:1.566233 19:-0.582509 20:1.027701 21:-0.567355 22:0.992839 23:-1.025670 24:0.850737 25:1.875047
-1 1:-0.909590 2:0.161769 3:0.163233 4:0.369120 5:1.971054 6:-0.849979 7:-0.009751 8:-0.688941 9:0.311045 10:0.380218 11:-0.352683 12:0.039760 13:0.108650 14:-0.213498 15:-1.503521 16:1.379362 17:0.470138 18:-3.103746 19:1.500603 20:0.284717 21:-1.939009 22:-0.957997 23:-0.587570 24:-0.789247 25:1.217261
-1 1:0.709293 2:0.527864 3:-0.413905 4:0.760847 5:-0.741476 6:0.026537 7:0.527059 8:1.046088 9:0.672506 10:-0.795246 11:-0.861915 12:-0.637287 13:0.293250 14:-0.419894 15:-0.050833 16:-1.607708 17:0.182601 18:0.204233 19:-1.084884 20:-0.172347 21:0.697556 22:0.176097 23:0.925799 24:0.560892 25:0.335153
-1 1:1.020607 2:1.041073 3:0.994879 4:0.297304 5:-0.234164 6:1.166960 7:-1.812346 8:-0.259424 9:0.238977 10:0.398924 11:1.917894 12:-1.896545 13:-1.341986 14:0.973140 15:0.843879 16:-0.668224 17:-0.334963 18:-0.418561 19:-0.108021 20:-1.446608 21:-1.038040 22:0.974633 23:0.802449 24:-0.351268 25:1.789137
-1 1:-1.569975 2:0.059042 3:0.776781 4:0.157875 5:0.184228 6:-1.072998 7:-1.013109 8:0.988688 9:1.114948 10:0.012541 11:-1.284842 12:-0.036973 13:-0.680674 14:-2.271496 15:-1.159017 16:-0.296333 17:-0.296138 18:-0.299663 19:-0.609178 20:0.965325 21:-0.783895 22:0.421289 23:0.320541 24:0.804117 25:1.274771
-1 1:0.911008 2:1.569178 3:1.268176 4:2.411935 5:-0.481090 6:-1.240739 7:-2.684748 8:0.791172 9:0.859682 10:-0.304028 11:1.128741 12:-0.285145 13:-1.426729 14:-0.933237 15:0.115241 16:0.971452 17:0.212564 18:0.894900 19:-0.772220 20:1.215312 21:0.102266 22:0.048356 23:0.768136 24:-0.505084 25:0.646261
-1 1:0.498352 2:1.322857 3:1.061253 4:1.838766 5:0.913028 6:0.209661 7:-0.094030 8:1.254249 9:0.288299 10:-0.717011 11:-2.052506 12:-0.213741 13:-0.673881 14:-0.081398 15:1.611759 16:1.333217 17:-0.545906 18:0.386533 19:1.833857 20:0.743727 21:1.501905 22:-2.051380 23:0.335129 24:0.251131 25:-1.022012
-1 1:0.935367 2:-0.648235 3:-0.547480 4:0.007714 5:-2.042945 6:-0.673154 7:-1.337121 8:-0.681605 9:1.283432 10:-0.399706 11:1.524779 12:-1.327469 13:-0.630500 14:0.709804 15:-0.613348 16:-1.174668 17:-1.517180 18:-0.280608 19:-1.233350 20:0.698497 21:0.185077 22:-0.265290 23:0.229957 24:0.467700 25:-0.129103
-1 1:-1.233410 2:-0.149811 3:-0.244769 4:1.299126 5:-1.404614 6:-0.537747 7:1.344715 8:0.270168 9:0.145466 10:-0.969163 11:0.041343 12:0.129034 13:-0.456817 14:0.949181 15:-0.794274 16:0.817774 17:-0.076793 18:2.249457 19:0.850594 20:-1.287657 21:-1.400261 22:0.092131 23:-0.106256 24:1.613506 25:0.351235
-1 1:0.117802 2:-0.545150 3:1.189593 4:-2.310071 5:0.410042 6:2.173383 7:-0.112426 8:-0.860671 9:-0.647176 10:-0.370009 11:0.674104 12:0.538064 13:0.858448 14:-0.372279 15:0.101843 16:-1.152775 17:-0.429360 18:-0.635243 19:0.768386 20:0.198223 21:-0.619010 22:-1.812672 23:-1.950620 24:-1.399970 25:-0.632851
-1 1:0.854072 2:0.677579 3:0.929709 4:0.773806 5:0.980110 6:-0.339534 7:-0.382358 8:0.248565 9:0.562765 10:1.777630 11:-1.511417 12:0.125118 13:-0.102304 14:-1.611562 15:1.089069 16:-1.141315 17:0.042691 18:-1.561490 19:-0.210777 20:-0.618121 21:0.326898 22:2.323867 23:0.181928 24:-0.819263 25:-0.154875
-1 1:0.563701 2:-0.501973 3:1.393958 4:-0.130533 5:0.847819 6:-0.432830 7:1.113774 8:-1.535490 9:0.029321 10:-1.216401 11:0.644246 12:1.763521 13:0.091488 14:0.410166 15:-0.070022 16:0.276980 17:0.797142 18:-2.806787 19:-0.631015 20:3.204567 21:0.203999 22:1.563636 23:-0.239780 24:0.222729 25:1.578617
-1 1:-0.533802 2:-0.684875 3:-0.708920 4:0.507938 5:-0.146301 6:1.007884 7:0.280921 8:-0.383127 9:-1.718929 10:-1.520505 11:0.153035 12:-0.315227 13:-0.842705 14:-1.141273 15:0.201459 16:-2.043212 17:-0.967958 18:-0.169004 19:-1.114865 20:1.519502 21:0.878762 22:-0.027503 23:-0.105804 24:-0.303295 25:1.065980
-1 1:1.647150 2:-0.213499 3:-0.934789 4:-0.992704 5:-0.297104 6:-1.005755 7:1.235604 8:-0.808174 9:-0.657411 10:-0.344770 11:-1.634318 12:0.881680 13:0.231644 14:0.825483 15:-0.804102 16:-2.053199 17:-0.155038 18:0.205649 19:-0.266056 20:1.547812 21:-0.266935 22:-2.854743 23:-0.326862 24:1.165777 25:-0.513733
-1 1:0.949107 2:2.192238 3:1.859337 4:-0.640513 5:-1.973550 6:0.570096 7:0.669685 8:1.279216 9:0.241427 10:-0.266645 11:1.269599 12:0.687750 13:1.690614 14:-1.424496 15:0.703761 16:1.511538 17:0.382509 18:1.171761 19:0.215987 20:1.279155 21:-0.295103 22:-1.027201 23:0.706344 24:-1.034124 25:0.935003
-1 1:-0.870524 2:-0.136097 3:0.470084 4:1.685041 5:-1.197727 6:-0.590970 7:-2.247119 8:-0.913632 9:-0.102530 10:-1.153658 11:0.333029 12:-0.446884 13:-0.087303 14:0.874555 15:1.965130 16:0.161320 17:-0.766609 18:-1.632331 19:-1.861706 20:2.730503 21:-0.162806 22:2.077086 23:1.657679 24:0.535848 25:0.686039
-1 1:1.206033 2:0.459925 3:-1.892004 4:1.216036 5:-0.068272 6:0.642106 7:-0.035228 8:-0.495704 9:-1.127881 10:-0.146839 11:-0.180257 12:-1.232746 13:2.124812 14:1.536608 15:-0.381987 16:-1.401136 17:1.172326 18:-1.506184 19:0.252391 20:0.771066 21:0.726855 22:-0.088736 23:0.774715 24:-0.951625 25:2.896235
-1 1:2.007890 2:1.437441 3:-0.681974 4:-1.424706 5:0.808041 6:-0.874959 7:-0.686044 8:-1.187311 9:-0.278419 10:-0.456035 11:0.806146 12:-0.015794 13:1.278572 14:0.294084 15:-0.506993 16:0.247650 17:0.381518 18:-1.839288 19:-0.406833 20:1.479060 21:1.147220 22:0.177644 23:2.259849 24:-1.157243 25:0.016166
-1 1:0.179365 2:-0.327065 3:0.229408 4:0.828743 5:0.165625 6:-1.046335 7:0.509007 8:1.764570 9:2.010050 10:0.372000 11:-0.263966 12:1.155452 13:0.819590 14:-0.358054 15:0.011339 16:-1.258555 17:0.915594 18:0.871271 19:-0.413788 20:-0.920935 21:-1.388137 22:-1.226883 23:1.123739 24:-0.600338 25:0.255086
-1 1:-0.689046 2:0.361718 3:1.444251 4:2.722615 5:-0.760954 6:-0.830873 7:-0.324435 8:-1.258292 9:-1.416710 10:0.328883 11:-0.222352 12:-0.149075 13:1.897002 14:-0.150605 15:-0.230914 16:-0.349757 17:1.493977 18:-0.216839 19:2.337136 20:-0.271018 21:-0.799868 22:-1.642447 23:0.816978 24:-0.242121 25:-0.141996
-1 1:-0.428837 2:-2.080481 3:-1.108821 4:-0.686202 5:-1.805483 6:0.048269 7:0.970751 8:1.646593 9:-0.684715 10:1.222645 11:-1.690555 12:-0.341097 13:0.545332 14:-2.731771 15:1.947094 16:0.216249 17:0.152779 18:-0.175839 19:1.216069 20:-0.404545 21:-2.041655 22:-0.625595 23:-0.841484 24:0.190889 25:0.369945
-1 1:-0.110348 2:0.338266 3:-0.074018 4:-0.441941 5:-2.305136 6:-0.042512 7:-0.583196 8:-0.390217 9:0.343849 10:1.234143 11:-1.184257 12:-0.717374 13:1.658954 14:-0.163509 15:-1.048226 16:-0.411799 17:-0.737325 18:-0.156585 19:-0.759929 20:0.806877 21:-1.362713 22:2.077951 23:-0.440319 24:-0.433117 25:1.650023
-1 1:-0.166257 2:0.373228 3:0.057364 4:-0.319259 5:-1.059637 6:-0.283352 7:0.328286 8:-0.231896 9:-0.673887 10:-0.324890 11:1.342857 12:0.681583 13:1.321726 14:0.152847 15:0.984686 16:2.316811 17:-1.289286 18:-0.854727 19:-0.319060 20:1.273638 21:-2.173590 22:0.304866 23:0.224692 24:-0.885447 25:0.228586
-1 1:0.206116 2:0.708608 3:-1.251781 4:1.174803 5:0.168049 6:0.753735 7:0.978887 8:0.310985 9:1.059711 10:0.814758 11:0.306107 12:-0.459368 13:-1.506720 14:0.743275 15:0.355657 16:0.007536 17:-0.298815 18:-0.041091 19:-2.464045 20:1.980570 21:1.422672 22:-0.465834 23:0.808214 24:-0.248444 25:1.806574
-1 1:-0.679613 2:-1.138594 3:0.079347 4:-0.093035 5:0.214123 6:-0.038220 7:-1.793076 8:0.369945 9:-1.355333 10:1.550472 11:-1.166792 12:1.481349 13:0.945253 14:1.684115 15:1.294413 16:0.739631 17:-1.143578 18:-0.141088 19:0.290955 20:0.351962 21:-1.704531 22:-1.083883 23:-2.157059 24:-2.920074 25:0.580145
-1 1:-0.787326 2:0.242612 3:-1.099670 4:-0.527102 5:-1.411210 6:1.139582 7:-0.662554 8:0.415504 9:0.321446 10:1.988867 11:-1.142113 12:-0.291077 13:-0.814109 14:0.930829 15:-0.468212 16:-0.054439 17:-0.372829 18:0.494261 19:0.202168 20:-0.831977 21:-1.010530 22:-1.906362 23:-0.294424 24:0.861297 25:1.118544
-1 1:-1.306988 2:2.482619 3:-0.015868 4:-0.697181 5:-0.148459 6:-1.039361 7:-1.514103 8:-0.380139 9:-0.344480 10:-0.013225 11:-0.143413 12:1.125490 13:0.762842 14:-0.600878 15:1.994344 16:0.612833 17:0.067101 18:-1.933540 19:-0.358559 20:0.908749 21:-0.079538 22:-0.956664 23:-0.772772 24:0.110303 25:-0.577494
-1 1:-0.306158 2:0.263074 3:-0.203012 4:-1.790830 5:1.379789 6:0.773323 7:-0.628274 8:0.219288 9:-1.095065 10:-0.516462 11:2.416156 12:-0.075843 13:-0.505773 14:-0.371754 15:3.009486 16:0.943529 17:-1.015910 18:0.161193 19:-0.953970 20:-0.419520 21:-0.318512 22:-0.629615 23:-1.787426 24:0.469836 25:-0.491533
-1 1:0.846696 2:-0.985682 3:0.086743 4:0.792477 5:-0.072333 6:1.115802 7:0.075327 8:-0.665136 9:-1.502123 10:-0.577820 11:0.047058 12:-0.674443 13:1.234932 14:-0.419106 15:-1.988693 16:-0.175511 17:1.397369 18:0.657340 19:-0.451038 20:0.929481 21:0.370341 22:-1.806137 23:-0.369688 24:-0.010094 25:0.637106
-1 1:0.058122 2:0.220975 3:1.028131 4:1.353947 5:-1.095514 6:-0.997653 7:-0.351018 8:-0.384681 9:-0.768517 10:-0.606349 11:-0.048707 12:-0.813088 13:-0.604648 14:-0.389977 15:0.858342 16:-0.285060 17:-0.178889 18:1.138421 19:0.129098 20:-2.332617 21:0.203904 22:-1.550863 23:0.635185 24:-0.369142 25:-1.034278
-1 1:1.898976 2:-0.147418 3:-0.498334 4:1.386938 5:0.321999 6:-0.167194 7:1.228840 8:-1.267428 9:-1.569470 10:-0.206960 11:1.249286 12:-0.409579 13:-0.092500 14:-0.807796 15:1.789435 16:-0.425960 17:-0.414474 18:-1.060097 19:0.486896 20:1.067014 21:-0.721719 22:-0.475732 23:0.506954 24:-0.039696 25:1.169115
-1 1:0.574998 2:0.554293 3:-0.011594 4:-1.836318 5:0.170351 6:-1.281601 7:-0.462580 8:-0.208328 9:2.774653 10:-2.495136 11:-0.148950 12:-0.200775 13:-0.307699 14:-1.053837 15:-0.306590 16:-1.637624 17:0.188294 18:-0.634547 19:0.658343 20:0.816890 21:0.752316 22:0.082239 23:0.195304 24:-0.683191 25:-0.589611
-1 1:0.403352 2:-1.244290 3:-1.123564 4:0.498273 5:-1.142118 6:0.841069 7:1.568396 8:0.676941 9:0.852553 10:-0.287621 11:0.117540 12:-0.812242 13:-0.033947 14:-1.712418 15:-0.361879 16:-1.329399 17:0.481383 18:-1.444438 19:0.180930 20:0.772886 21:0.685194 22:-0.149147 23:0.691657 24:-0.999538 25:-0.133729
-1 1:-0.558201 2:0.876685 3:1.896918 4:-0.006909 5:-0.443058 6:0.351679 7:-0.072472 8:0.484579 9:0.767423 10:0.048729 11:-1.068257 12:-0.352673 13:-1.178379 14:-1.535966 15:-0.680382 16:0.611354 17:-0.055669 18:0.806698 19:0.875201 20:0.783603 21:0.089449 22:0.231568 23:1.087666 24:0.588966 25:-0.032168
-1 1:-0.810233 2:-0.911559 3:1.156614 4:0.757899 5:1.535093 6:0.205271 7:-0.017702 8:-1.702232 9:-1.033014 10:-1.139360 11:-1.207685 12:1.201138 13:-2.540105 14:-0.566350 15:-0.790618 16:-1.101803 17:-0.553566 18:0.183567 19:-2.289659 20:-1.961270 21:0.391354 22:-0.885081 23:0.641953 24:-0.277090 25:2.639196
-1 1:0.405372 2:-0.118157 3:-0.578388 4:-0.274949 5:1.098002 6:-1.590715 7:0.433597 8:0.022748 9:-1.400433 10:-0.960382 11:-0.265490 12:0.017357 13:1.083665 14:-0.636975 15:0.322353 16:-1.251283 17:1.745846 18:-0.352978 19:-0.528124 20:1.260117 21:-0.612933 22:0.495896 23:0.000959 24:-1.263813 25:0.932767
-1 1:0.152120 2:0.384855 3:-0.820880 4:-0.662270 5:-1.426871 6:2.057657 7:1.020497 8:-1.400369 9:-0.584123 10:-0.446588 11:0.162890 12:-1.390456 13:-2.079298 14:0.790115 15:-0.416675 16:0.222913 17:0.299592 18:-0.039962 19:-2.071902 20:-0.330137 21:0.311664 22:0.029507 23:-1.326841 24:-0.793038 25:-0.387636
-1 1:-0.850976 2:-0.657551 3:-1.585235 4:0.029968 5:-1.412149 6:2.098941 7:-0.744792 8:-0.147355 9:1.456607 10:2.993713 11:0.055010 12:-1.635944 13:-0.298910 14:2.024776 15:-1.608908 16:0.321112 17:0.638437 18:-1.102743 19:-0.805709 20:1.039716 21:-1.695618 22:-1.219137 23:-0.045424 24:-0.188993 25:-1.561869
-1 1:-0.847330 2:1.522432 3:0.096980 4:-1.204361 5:-0.807510 6:-1.301599 7:0.862875 8:-1.985028 9:-0.300844 10:1.534767 11:-0.992857 12:0.238898 13:0.968469 14:-0.012968 15:-1.391237 16:-0.484328 17:-1.191127 18:-0.450194 19:0.066939 20:1.848890 21:0.692219 22:1.876744 23:-1.598896 24:-0.188939 25:-1.394682
-1 1:0.522654 2:1.237650 3:0.854568 4:-1.234969 5:-1.915602 6:0.756505 7:-1.410125 8:0.698148 9:-0.836800 10:-0.045620 11:0.275808 12:0.720389 13:-0.497605 14:-1.585960 15:-0.926031 16:1.244149 17:-0.177827 18:-1.044279 19:0.914231 20:-1.317637 21:-0.026454 22:1.135937 23:0.796971 24:-1.022509 25:0.950569
-1 1:-1.943161 2:-0.902750 3:1.299022 4:0.342750 5:0.057756 6:1.530778 7:0.384318 8:0.480869 9:0.352069 10:0.528594 11:1.430083 12:0.745612 13:-1.756778 14:0.134302 15:1.166543 16:-0.829269 17:0.129828 18:-0.188496 19:-0.336328 20:0.082727 21:-0.447883 22:0.389245 23:-0.644046 24:-0.138908 25:0.427262
-1 1:0.813358 2:-0.726997 3:-0.294573 4:0.513767 5:-0.151073 6:-1.546405 7:0.812826 8:0.614930 9:0.803238 10:1.211857 11:0.607153 12:-1.429503 13:-0.808708 14:0.080988 15:1.082057 16:-2.098372 17:0.718542 18:3.212497 19:-0.747460 20:0.240618 21:-2.685198 22:0.191766 23:-0.894557 24:0.231366 25:0.654116
-1 1:0.068471 2:-0.762551 3:-0.860032 4:0.416071 5:-0.036767 6:-0.264725 7:1.111311 8:0.362814 9:1.095809 10:-1.032284 11:2.000815 12:-0.120279 13:-0.417649 14:-0.509028 15:0.302040 16:-0.475002 17:-0.083412 18:1.628030 19:0.466524 20:0.502232 21:-0.547329 22:1.161110 23:1.995881 24:-0.444301 25:-1.515814
-1 1:-1.036224 2:0.405080 3:0.101152 4:0.693290 5:0.680590 6:-0.500449 7:-0.129129 8:-0.665512 9:0.168147 10:-0.766033 11:-0.465243 12:1.070884 13:-1.018601 14:0.440992 15:-1.902934 16:-1.523203 17:-0.449199 18:0.210457 19:0.698182 20:-0.856379 21:0.754882 22:-1.182800 23:0.804862 24:0.671520 25:-0.130765
-1 1:-0.843401 2:-1.899558 3:-0.502342 4:1.552963 5:-0.090481 6:2.047876 7:0.936753 8:-3.131884 9:-0.359907 10:-0.661750 11:-0.436903 12:-0.493360 13:-0.622298 14:-0.337975 15:0.729735 16:-0.031659 17:-0.873068 18:-0.125810 19:0.058249 20:0.116160 21:-0.732413 22:0.975272 23:0.891087 24:-0.347624 25:-0.971812
-1 1:-0.124357 2:-1.140168 3:-1.202090 4:-0.779994 5:-0.553366 6:-0.849319 7:0.561735 8:-0.540689 9:-2.866624 10:0.150096 11:1.422341 12:1.030985 13:0.977731 14:-0.507710 15:-0.217447 16:0.488142 17:0.888216 18:-0.610515 19:-0.025878 20:-0.588589 21:0.511500 22:-0.929153 23:-0.852925 24:0.245869 25:0.401677
-1 1:1.802550 2:-0.420695 3:1.790985 4:0.151307 5:-0.021388 6:-0.648346 7:1.814663 8:-0.781128 9:0.420359 10:1.149419 11:1.014582 12:-0.804166 13:1.009033 14:-0.369563 15:-0.373448 16:-0.172833 17:-0.482933 18:-0.340975 19:0.198565 20:0.941993 21:-1.936652 22:1.112488 23:1.186754 24:0.734572 25:-0.403804
-1 1:-0.522328 2:0.859000 3:1.195106 4:-1.522232 5:-0.583389 6:1.570859 7:1.296072 8:0.249391 9:1.473303 10:0.567430 11:-0.401653 12:0.604608 13:-1.179271 14:0.438908 15:-0.162478 16:-0.450521 17:-1.332136 18:-1.220577 19:1.180275 20:1.724369 21:-1.190385 22:0.190387 23:-1.063597 24:-0.676773 25:-0.279906
-1 1:0.874854 2:0.637635 3:-0.153067 4:1.103306 5:0.453825 6:0.809426 7:0.807575 8:0.246074 9:-0.667678 10:-1.127483 11:-0.244169 12:-0.632191 13:-1.444887 14:1.473915 15:-1.309907 16:0.176173 17:0.250555 18:-1.161243 19:-0.374200 20:-1.324116 21:-0.503235 22:-0.945705 23:0.090537 24:1.779997 25:1.046220
-1 1:1.919747 2:0.656314 3:0.477579 4:-1.504403 5:0.437251 6:-0.480395 7:1.173871 8:-0.652765 9:-0.009559 10:1.093623 11:-0.379852 12:0.785651 13:0.959802 14:-0.959696 15:0.574260 16:-0.353328 17:-0.514151 18:-0.694075 19:0.279667 20:-1.483423 21:-0.041338 22:-0.463187 23:0.056405 24:1.158098 25:0.013959
-1 1:-1.522569 2:1.241323 3:0.383823 4:0.315911 5:-0.812704 6:-0.223620 7:-0.729177 8:0.821540 9:0.705961 10:-2.480520 11:1.400973 12:0.529153 13:-0.677107 14:0.989876 15:0.094253 16:-0.774374 17:-0.091534 18:-0.395804 19:-1.429222 20:-0.811803 21:-1.409688 22:-0.214064 23:-0.309132 24:0.007740 25:0.675493
-1 1:1.389751 2:-1.362837 3:0.655459 4:1.005085 5:-0.436791 6:-0.878927 7:-1.294469 8:2.058718 9:0.558639 10:-0.180217 11:0.125795 12:0.291967 13:-1.265218 14:-0.104182 15:2.172522 16:0.802341 17:-0.810964 18:-0.470047 19:1.922626 20:0.335828 21:0.236633 22:-0.157688 23:1.043574 24:0.659189 25:0.310086
-1 1:-1.229287 2:-1.550016 3:-0.372158 4:-0.140055 5:3.243635 6:-0.065208 7:0.810215 8:1.531246 9:1.522701 10:-1.668864 11:-0.093249 12:0.712906 13:-1.632970 14:-0.860576 15:2.467825 16:0.476914 17:-0.169447 18:0.000674 19:0.802774 20:-0.095760 21:0.111946 22:-0.930181 23:-1.670920 24:0.600497 25:-1.800316
-1 1:0.759215 2:0.585981 3:-0.857459 4:0.209702 5:-0.716562 6:-2.202782 7:0.069025 8:-0.767946 9:0.093490 10:-0.641360 11:-0.420210 12:0.549356 13:-0.487681 14:0.581710 15:1.572174 16:-0.104251 17:-2.777715 18:0.037385 19:-0.282531 20:0.753918 21:-0.395295 22:0.051609 23:-0.249988 24:-0.584952 25:0.018472
-1 1:-0.159960 2:-0.400715 3:1.900769 4:-1.452099 5:1.277418 6:-1.325286 7:-0.236314 8:-0.181983 9:-0.108607 10:0.747821 11:-1.468673 12:-0.792620 13:0.137772 14:-1.018208 15:-1.707714 16:-0.036461 17:0.781844 18:-2.953883 19:-0.068504 20:-0.130997 21:-1.277436 22:0.580080 23:0.747548 24:-0.362741 25:1.997726
-1 1:0.291080 2:-0.329887 3:1.490602 4:-0.329279 5:-1.886633 6:1.168364 7:-0.053036 8:-1.195653 9:0.923767 10:-1.229823 11:1.412665 12:1.420306 13:0.634574 14:0.366474 15:0.672790 16:0.362994 17:1.115891 18:-1.292975 19:0.560870 20:-1.518373 21:-0.438388 22:0.621044 23:-1.393382 24:-0.648030 25:-0.786219
-1 1:1.582124 2:-0.402074 3:-0.226843 4:-0.281283 5:1.444120 6:-1.654893 7:-0.155758 8:1.159596 9:-0.547046 10:0.472368 11:0.697877 12:-2.044843 13:0.056752 14:0.761454 15:1.144797 16:-1.223872 17:-0.883218 18:-1.383592 19:-0.670916 20:0.869340 21:0.076426 22:1.424152 23:1.862750 24:-0.184619 25:-1.060187
-1 1:0.631355 2:-0.420374 3:1.247052 4:0.499781 5:-0.824892 6:-0.275201 7:-1.267409 8:-0.347621 9:-0.740827 10:1.277731 11:0.058342 12:0.188071 13:1.305372 14:0.000499 15:-1.651083 16:0.590778 17:1.521504 18:-0.597211 19:1.180530 20:0.957688 21:0.035232 22:0.591457 23:-0.296564 24:-0.776425 25:0.648961
-1 1:-0.388684 2:0.641785 3:1.089730 4:-0.737654 5:0.146190 6:0.282032 7:0.219270 8:-0.383874 9:0.776029 10:1.008325 11:0.944994 12:-0.329237 13:0.063840 14:-0.194830 15:0.053075 16:0.013194 17:0.497965 18:0.833166 19:0.839119 20:0.391502 21:-0.261746 22:-1.284615 23:-1.471909 24:1.257185 25:0.829229
-1 1:0.249113 2:-0.087144 3:0.324712 4:1.208143 5:1.621781 6:0.468242 7:-1.133946 8:-0.091450 9:0.133838 10:-0.839079 11:-0.164872 12:0.743489 13:-0.664673 14:0.108265 15:-0.633487 16:-0.265646 17:0.710433 18:1.024653 19:-0.246632 20:-0.248590 21:-0.435737 22:0.018489 23:-0.789367 24:-0.078715 25:0.480234
-1 1:-0.375634 2:-1.215143 3:-0.104174 4:-0.540886 5:-0.148198 6:2.050010 7:-0.277617 8:-1.202684 9:-0.809788 10:1.250474 11:-0.445445 12:-0.700052 13:-0.521258 14:-0.310876 15:0.808008 16:0.073140 17:-0.782911 18:1.439373 19:0.854467 20:-1.000951 21:0.441777 22:-1.152781 23:0.715973 24:0.395807 25:-1.609015
-1 1:0.330073 2:0.536735 3:0.296285 4:1.000071 5:0.762640 6:1.099845 7:-0.763381 8:-0.377690 9:1.718901 10:0.530547 11:0.891541 12:-1.149671 13:-1.279191 14:-0.175190 15:-0.821117 16:0.788764 17:-0.585802 18:1.604321 19:0.537216 20:-0.262051 21:-0.678732 22:0.759942 23:0.906635 24:-0.919637 25:-1.696367
-1 1:-1.618650 2:-0.168594 3:0.429166 4:-0.224380 5:-1.425919 6:-0.337302 7:1.205540 8:-0.424826 9:-0.305415 10:-1.217410 11:0.292606 12:-0.694793 13:-0.886374 14:-1.879734 15:0.450741 16:0.000346 17:0.386134 18:-0.715560 19:0.007402 20:0.030534 21:-0.730149 22:2.913137 23:-0.016211 24:0.506028 25:-0.554764
-1 1:-1.032591 2:0.564482 3:0.374070 4:0.938805 5:-0.450531 6:-0.632009 7:-0.291952 8:-1.629898 9:0.837405 10:-0.097042 11:0.340751 12:0.126922 13:1.475572 14:0.251965 15:0.613575 16:-1.329668 17:1.334631 18:1.562332 19:-1.319008 20:1.682798 21:0.972979 22:1.533312 23:0.101356 24:1.437416 25:-0.096303
-1 1:-1.100507 2:0.993773 3:-0.390774 4:-0.268528 5:1.701769 6:-1.073990 7:-1.111885 8:-0.454629 9:0.884550 10:2.359013 11:0.858196 12:1.727273 13:-1.521083 14:0.828802 15:0.456053 16:0.259204 17:1.018366 18:-0.712995 19:-0.832952 20:0.022930 21:-1.572775 22:0.124509 23:-0.587778 24:1.267282 25:1.171731
-1 1:-0.073699 2:0.721428 3:0.664970 4:-1.374000 5:-0.304031 6:-1.167165 7:1.081467 8:-0.074471 9:1.295996 10:-2.534464 11:-1.113959 12:-0.427751 13:-0.931635 14:-0.615613 15:-0.649633 16:0.435750 17:-0.970873 18:-0.351901 19:0.833499 20:-0.967199 21:-0.010582 22:-0.023471 23:-0.948566 24:-0.680612 25:1.198023
-1 1:-0.646420 2:-1.185718 3:0.552732 4:-0.042696 5:-0.679132 6:-1.363207 7:0.668524 8:0.259599 9:0.043787 10:-1.839300 11:0.233469 12:-1.633338 13:1.553887 14:-0.491948 15:1.147630 16:1.468863 17:0.142112 18:-0.187072 19:0.878030 20:1.062367 21:0.619211 22:1.600889 23:1.014990 24:-1.489970 25:-0.269308
-1 1:1.104460 2:-0.799798 3:1.727524 4:0.868207 5:1.009676 6:1.043524 7:-1.601476 8:-1.948484 9:-0.140460 10:0.508166 11:0.725986 12:-1.363679 13:0.150130 14:0.086644 15:-1.358178 16:-2.048943 17:0.066851 18:-1.760471 19:1.225901 20:-2.240511 21:0.161168 22:0.403792 23:0.720284 24:-1.259375 25:0.932275
-1 1:-0.907435 2:0.843108 3:-0.412677 4:-1.014995 5:1.415190 6:-0.839490 7:0.133223 8:0.337516 9:-0.020425 10:1.409817 11:1.210528 12:0.574553 13:-1.011525 14:-1.076322 15:-1.051319 16:-0.260455 17:3.015712 18:-0.073438 19:-0.096772 20:-0.641123 21:-1.714797 22:2.383842 23:0.048817 24:0.576952 25:-0.727392
-1 1:0.016221 2:1.154151 3:-2.688199 4:-0.153728 5:-1.272729 6:-0.140437 7:-0.266622 8:-0.790541 9:-0.176308 10:1.176339 11:0.275467 12:0.478287 13:1.181302 14:1.634706 15:-0.869855 16:0.221161 17:-1.556709 18:0.668796 19:1.508058 20:0.608334 21:1.220142 22:1.133195 23:0.000728 24:-0.331812 25:-0.099656
-1 1:-1.455149 2:-0.525053 3:-0.711828 4:-0.235886 5:0.869065 6:-0.553307 7:1.310342 8:-0.705143 9:-1.149069 10:1.284958 11:0.772142 12:-1.063270 13:-0.047574 14:-1.564081 15:-1.067573 16:1.173478 17:-0.724283 18:0.516056 19:0.820300 20:0.836493 21:-0.592913 22:1.397915 23:-0.002737 24:0.890701 25:0.221412
-1 1:1.329741 2:2.362624 3:0.182935 4:-0.156795 5:1.441013 6:-0.557126 7:0.911964 8:-1.933085 9:0.035990 10:0.576284 11:0.596093 12:0.648584 13:1.071950 14:-1.301660 15:0.687572 16:0.354297 17:1.007087 18:-0.407605 19:-0.500621 20:-0.197404 21:1.215108 22:-0.704879 23:-0.280154 24:-1.089680 25:-2.350291
-1 1:1.002019 2:-0.215946 3:0.824616 4:-1.964823 5:-0.944694 6:-0.075617 7:0.244459 8:0.474704 9:-1.094792 10:0.628655 11:0.568523 12:-1.409162 13:-0.095440 14:-1.834896 15:-0.135760 16:1.633026 17:0.461335 18:1.189329 19:-2.171170 20:-0.874976 21:0.068638 22:0.221920 23:0.597927 24:-0.276325 25:0.476476
-1 1:-0.645298 2:-0.694959 3:0.364489 4:-0.389655 5:-0.778036 6:1.260200 7:-0.263883 8:-0.253593 9:0.645176 10:0.404115 11:0.082662 12:-0.471105 13:1.692386 14:0.485644 15:-2.165288 16:-0.399155 17:-0.040961 18:0.916869 19:-1.436311 20:-0.089358 21:-0.608096 22:0.924911 23:0.335807 24:-0.088181 25:-0.148968
-1 1:-0.849021 2:0.684040 3:0.898716 4:-1.386344 5:0.656360 6:1.248679 7:1.972611 8:-0.066143 9:1.079226 10:-2.680339 11:1.259759 12:-1.002531 13:-0.184171 14:-0.213076 15:-1.160673 16:-0.346601 17:0.090592 18:1.281728 19:-1.725120 20:-1.934578 21:-0.808378 22:-0.928596 23:-1.510779 24:0.794926 25:-0.189195
-1 1:0.765647 2:-0.147338 3:1.448977 4:-0.102843 5:0.382258 6:0.529544 7:0.612322 8:1.428013 9:0.273109 10:-0.968725 11:-0.764304 12:-0.717791 13:-0.205470 14:1.301263 15:0.277004 16:-0.520720 17:1.094306 18:-0.354399 19:1.186369 20:-0.607624 21:0.391556 22:-0.889422 23:0.556236 24:0.379490 25:-1.931694
-1 1:0.449540 2:-0.333379 3:0.941772 4:0.043273 5:0.259480 6:0.527895 7:0.877088 8:-0.443015 9:0.933300 10:-0.922162 11:-0.163031 12:-1.807737 13:0.067438 14:-1.492370 15:-0.070495 16:-0.798364 17:0.952120 18:-0.600507 19:1.219690 20:-0.421520 21:0.985761 22:0.036212 23:-0.987623 24:0.376254 25:-1.832629
-1 1:1.192779 2:0.168854 3:0.708517 4:0.689060 5:1.406114 6:0.701112 7:-1.321344 8:-1.779828 9:0.700773 10:0.090332 11:0.854048 12:-0.096477 13:0.586504 14:-2.939915 15:-0.627234 16:0.220712 17:0.822372 18:-0.411461 19:-0.511351 20:-1.097197 21:0.678320 22:1.191625 23:-0.997724 24:0.051020 25:-0.791153
-1 1:-0.145116 2:0.798179 3:-2.305618 4:-0.115866 5:-1.452166 6:0.523166 7:1.604970 8:0.271442 9:-0.622554 10:0.532522 11:-0.814350 12:0.749545 13:0.629962 14:-0.575004 15:-2.509373 16:-1.918973 17:-0.885942 18:-0.431355 19:-1.500189 20:-0.572562 21:0.338783 22:-1.177043 23:-0.098198 24:-0.033419 25:0.368965
-1 1:-0.190718 2:-0.906376 3:-0.428551 4:-3.497214 5:0.341630 6:-0.572542 7:-1.392628 8:1.318856 9:0.580792 10:1.384387 11:-0.564386 12:-0.598807 13:-0.263178 14:0.739885 15:-0.256193 16:-1.332453 17:-1.389713 18:1.128001 19:0.078214 20:-0.396559 21:1.752388 22:-0.749542 23:1.154098 24:-0.341144 25:0.615779
-1 1:0.765409 2:-0.964361 3:-0.967579 4:0.929811 5:-0.916921 6:1.639332 7:0.759451 8:-0.336877 9:-0.913899 10:0.484716 11:-1.140054 12:0.852512 13:0.857949 14:-0.326027 15:-0.229369 16:1.753991 17:-0.178391 18:-1.089270 19:-0.466321 20:0.522603 21:0.731799 22:0.851902 23:1.019962 24:-0.595453 25:0.567316
-1 1:0.059021 2:0.012378 3:1.429719 4:0.119750 5:0.555724 6:-0.755109 7:-0.298816 8:0.322025 9:-0.697754 10:0.171574 11:0.347010 12:-1.293352 13:0.360368 14:0.541153 15:0.337808 16:-1.179302 17:-0.336636 18:-0.680191 19:-0.915593 20:0.090436 21:1.475058 22:-0.731975 23:-1.557555 24:0.673946 25:-1.171974
-1 1:0.438775 2:-0.086900 3:-0.116729 4:-0.372415 5:-0.158459 6:-0.266705 7:-0.100566 8:-1.558775 9:0.928484 10:1.023535 11:-0.624884 12:2.110006 13:-1.033140 14:0.225900 15:0.945044 16:-0.799067 17:-0.646440 18:-0.862862 19:-1.486174 20:0.559208 21:1.117578 22:1.096906 23:-1.436830 24:-0.410329 25:0.943522
-1 1:0.036852 2:1.201022 3:-0.971569 4:-0.729836 5:-0.572453 6:-0.669291 7:-0.440220 8:1.825623 9:-2.072801 10:0.347210 11:-0.742387 12:-0.214375 13:-1.725864 14:1.908094 15:-0.172592 16:-0.119984 17:-0.330100 18:-1.266685 19:1.619469 20:0.297311 21:0.800834 22:-0.676241 23:0.741541 24:-0.687112 25:-2.056170
-1 1:1.179270 2:0.887728 3:-0.589489 4:-0.774938 5:1.269368 6:-0.071970 7:-1.754770 8:-1.627292 9:0.630555 10:0.487236 11:0.366856 12:0.745198 13:-0.957459 14:0.227440 15:-1.367867 16:-1.510120 17:-1.210281 18:-0.592077 19:-1.200030 20:1.657449 21:-3.064527 22:3.031900 23:1.742456 24:-0.423266 25:-1.751787
-1 1:-1.316439 2:0.423067 3:0.278492 4:0.212077 5:1.840049 6:-2.793791 7:-0.533469 8:0.924116 9:-1.232789 10:-0.272705 11:-0.128729 12:-0.687839 13:1.016761 14:1.032101 15:0.217536 16:0.317337 17:-2.276962 18:0.561278 19:-0.202979 20:0.089759 21:1.113626 22:-0.482938 23:-1.058743 24:0.163927 25:-0.476565
-1 1:-1.592538 2:0.009749 3:0.728527 4:-1.949047 5:0.543280 6:-1.255348 7:0.291963 8:1.052834 9:-0.574255 10:-1.382451 11:1.032212 12:-0.752933 13:1.220548 14:-0.242223 15:0.687639 16:0.636544 17:0.041628 18:0.952677 19:0.463182 20:1.841829 21:0.308638 22:0.199853 23:-0.338143 24:-2.288625 25:-1.966371
-1 1:-1.164174 2:0.010308 3:0.800627 4:-0.670678 5:0.227178 6:-1.051875 7:1.686821 8:-1.427215 9:-0.485054 10:-0.291601 11:0.878746 12:0.337205 13:-0.020195 14:0.250039 15:0.816419 16:0.257260 17:-1.124629 18:1.164006 19:-0.879422 20:-0.424313 21:0.120116 22:2.587062 23:1.621361 24:-0.035551 25:-0.627658
-1 1:-0.134028 2:0.146116 3:-1.246333 4:-1.762967 5:-0.817970 6:-0.418840 7:2.078705 8:0.460707 9:-0.925003 10:2.186441 11:-1.052943 12:1.209647 13:0.020192 14:0.551726 15:0.206005 16:-0.525365 17:-1.140092 18:0.857064 19:-0.714101 20:-0.086004 21:1.006746 22:2.015791 23:-0.335220 24:1.138951 25:0.933661
-1 1:-0.440778 2:0.023151 3:0.675718 4:0.960084 5:-0.124816 6:0.073537 7:0.317857 8:-1.400049 9:0.525369 10:-0.150431 11:-0.826233 12:-0.828202 13:-1.331602 14:-0.983800 15:0.769911 16:-0.874307 17:0.591140 18:0.119185 19:-0.671282 20:-1.067513 21:0.424706 22:-0.574809 23:0.887523 24:0.750483 25:-0.365229
-1 1:-0.972759 2:-0.744235 3:0.809302 4:2.173484 5:0.641209 6:0.277482 7:1.206083 8:-0.036095 9:-0.232734 10:-1.409696 11:-0.245713 12:-0.661463 13:-0.503569 14:0.603634 15:1.048792 16:0.592266 17:2.060509 18:0.523623 19:-0.366273 20:0.022077 21:0.174615 22:1.487050 23:1.433906 24:-1.216657 25:0.152916
-1 1:1.849513 2:0.492801 3:-1.230817 4:-1.196293 5:-0.059733 6:-0.085241 7:-0.206136 8:0.100205 9:0.212727 10:0.695322 11:0.881637 12:1.715209 13:-1.160696 14:0.734248 15:0.820222 16:-0.194993 17:-0.184067 18:-0.800095 19:0.517992 20:-0.204030 21:1.424598 22:-2.248107 23:-1.278726 24:-0.251247 25:-1.009601
-1 1:1.224335 2:-0.626221 3:1.939168 4:0.090753 5:1.139124 6:-0.939717 7:-1.057226 8:-1.551282 9:0.544362 10:2.194692 11:-0.302680 12:1.161148 13:-0.507041 14:-0.367934 15:-0.370676 16:0.288594 17:0.093825 18:-0.516096 19:0.790295 20:1.685411 21:0.545678 22:0.399903 23:-2.762520 24:0.912691 25:0.295833
-1 1:-0.333705 2:0.988057 3:0.303466 4:0.498989 5:0.092417 6:-0.824079 7:0.240964 8:-1.153488 9:-0.273501 10:0.280785 11:-1.960916 12:0.671031 13:0.108228 14:0.749065 15:0.595863 16:0.503433 17:-0.256385 18:1.136150 19:-1.370556 20:-0.557049 21:-0.269355 22:-1.450322 23:-1.010726 24:0.020886 25:0.050180
-1 1:-0.406569 2:0.489623 3:-0.656383 4:0.255821 5:0.133085 6:-0.765190 7:0.226839 8:0.869248 9:0.412868 10:-1.311980 11:2.285590 12:-1.358375 13:-1.005623 14:-0.125658 15:0.161512 16:0.381223 17:0.758673 18:1.425772 19:-0.207651 20:-0.967623 21:0.885325 22:-0.449723 23:1.340271 24:-0.569624 25:0.257586
-1 1:0.505109 2:-1.116456 3:-1.163802 4:-1.388515 5:0.791177 6:-0.148339 7:0.985483 8:0.878711 9:-0.607205 10:0.635631 11:-0.423107 12:2.438032 13:0.559137 14:-0.495978 15:0.202683 16:0.489057 17:-0.350177 18:0.309441 19:0.794196 20:0.637473 21:-1.555711 22:1.527674 23:-0.123510 24:-1.094145 25:-0.741056
-1 1:-0.760419 2:-1.667646 3:0.414308 4:0.978552 5:0.563861 6:-2.249410 7:-0.290715 8:0.920389 9:-1.113743 10:-0.040756 11:1.895069 12:-2.301650 13:-0.713785 14:-0.468771 15:1.165649 16:0.924114 17:0.742017 18:-1.146510 19:-0.420706 20:-2.404915 21:0.911265 22:0.102106 23:0.090530 24:-1.172805 25:-0.232477
-1 1:-0.297911 2:-1.374838 3:-1.707686 4:-0.559849 5:-0.941075 6:0.878692 7:-0.472591 8:-0.052514 9:1.428372 10:0.339683 11:0.093857 12:1.225266 13:0.326939 14:-0.327941 15:-0.278127 16:-1.545858 17:1.532906 18:-1.513970 19:0.756779 20:0.503856 21:0.126238 22:-0.796167 23:0.285822 24:0.213026 25:0.398285
-1 1:-0.441732 2:-1.440694 3:-1.229754 4:0.238066 5:0.304582 6:-0.138913 7:0.575104 8:-0.769811 9:-1.488547 10:-0.283987 11:-0.642356 12:-1.165342 13:0.139023 14:0.241486 15:-0.563580 16:0.106735 17:1.399272 18:-0.180771 19:0.538947 20:0.817618 21:0.064658 22:-0.569576 23:-0.426777 24:-0.505015 25:-1.796453
-1 1:0.093978 2:0.590408 3:0.015160 4:-0.828789 5:0.220139 6:-1.477772 7:-0.630618 8:-0.004959 9:1.142672 10:0.883470 11:0.788277 12:1.134053 13:0.389475 14:0.606700 15:-1.058183 16:0.426081 17:-0.719920 18:0.419083 19:0.964783 20:2.015236 21:1.178805 22:-0.769117 23:0.091600 24:0.310596 25:-0.654675
-1 1:1.367200 2:-0.729885 3:-0.645783 4:-0.394089 5:1.352797 6:3.073144 7:0.939016 8:0.144406 9:-1.751870 10:0.337055 11:1.487766 12:-0.478278 13:-1.136401 14:-0.374013 15:0.731306 16:1.492269 17:0.161891 18:0.087575 19:-1.618599 20:-1.238163 21:0.007090 22:0.954322 23:1.784341 24:0.366289 25:-1.790765
-1 1:-1.507667 2:-0.971941 3:-0.289975 4:0.372090 5:-0.030240 6:-1.260606 7:-0.894824 8:1.048094 9:1.215864 10:0.102988 11:-0.560401 12:0.770816 13:-0.970526 14:-1.843895 15:-0.037158 16:0.877405 17:-2.522109 18:0.368953 19:1.159053 20:-0.241678 21:-1.156130 22:-0.045998 23:-1.758634 24:-0.353974 25:0.984900
-1 1:0.892945 2:-2.152680 3:-1.074645 4:-1.130136 5:1.064613 6:-1.109351 7:-1.534883 8:-0.690020 9:0.119161 10:-0.988236 11:-0.421371 12:-1.248388 13:1.443698 14:-0.852517 15:0.874774 16:-0.366445 17:-0.161472 18:-2.079926 19:-0.164845 20:-0.149671 21:-0.491714 22:-1.443981 23:-0.559405 24:2.013343 25:-0.299990
-1 1:0.568954 2:-0.903441 3:-2.692131 4:0.184317 5:-1.277491 6:-0.290094 7:-1.015952 8:1.117560 9:-0.502982 10:0.275748 11:-1.313524 12:-1.341986 13:0.957643 14:-0.106612 15:1.803408 16:-0.507621 17:-0.176548 18:-0.772913 19:-1.335641 20:1.254252 21:-0.099526 22:0.092205 23:-0.850531 24:-1.776795 25:0.891745
-1 1:0.747580 2:1.459889 3:0.589621 4:-0.836514 5:1.012540 6:-0.034931 7:0.458580 8:0.884572 9:-0.977955 10:-0.664523 11:-1.055500 12:1.575039 13:-0.878131 14:1.687170 15:1.349398 16:-0.165669 17:0.327496 18:2.009909 19:-0.711933 20:-0.182631 21:-0.374467 22:-0.328716 23:-0.678063 24:0.974031 25:-0.263347
-1 1:-0.198880 2:0.415745 3:0.702823 4:-0.132480 5:-0.583072 6:-0.059844 7:1.054367 8:-0.220888 9:-0.629570 10:1.371392 11:0.097961 12:-0.041459 13:-0.132225 14:-1.406483 15:-0.311382 16:0.935397 17:0.436267 18:1.514317 19:-1.337012 20:0.634174 21:-0.144701 22:-0.779283 23:0.671871 24:-1.072195 25:1.842648
-1 1:0.049641 2:1.483607 3:0.743629 4:0.347088 5:-0.243786 6:-1.378631 7:-0.167000 8:-0.218154 9:0.016873 10:-0.700938 11:-0.154353 12:0.213060 13:-0.177319 14:-0.369226 15:-0.433615 16:1.278741 17:-0.183547 18:1.051279 19:0.853835 20:-0.825885 21:-0.318974 22:-1.050924 23:0.742821 24:1.266867 25:-0.323520
-1 1:-2.506169 2:-0.236148 3:-0.449344 4:0.112157 5:-0.667999 6:0.834526 7:0.629757 8:0.842800 9:-0.694137 10:-0.355132 11:-0.558075 12:-0.282918 13:-1.336323 14:-0.189868 15:-0.634763 16:0.867535 17:0.170409 18:-0.010970 19:0.965934 20:2.563420 21:-0.012462 22:-0.604404 23:-0.999698 24:0.766563 25:1.233685
-1 1:1.127022 2:0.353024 3:-0.548256 4:0.391806 5:-1.167261 6:-1.188939 7:-0.974775 8:-0.556376 9:-0.056287 10:-0.795874 11:1.455453 12:-0.303529 13:-1.289108 14:-1.263639 15:1.596653 16:-0.743965 17:-1.486555 18:-1.499381 19:-0.604719 20:-0.126444 21:0.869075 22:0.864175 23:-0.751142 24:-1.362510 25:1.518469
-1 1:0.818901 2:-0.571378 3:0.271213 4:1.211983 5:1.393661 6:0.959932 7:0.640987 8:-0.356143 9:-1.927516 10:-0.413301 11:1.162317 12:1.087285 13:0.688398 14:0.842568 15:0.532590 16:0.409546 17:0.807337 18:-0.657797 19:-0.521422 20:-0.224006 21:-0.684540 22:-0.353695 23:0.435089 24:0.487236 25:2.125222
-1 1:-1.236751 2:-1.223773 3:-1.347727 4:-1.523288 5:0.915121 6:0.385829 7:2.044072 8:0.745895 9:0.331515 10:0.202761 11:-0.613580 12:-1.468357 13:-0.698606 14:-0.631908 15:-0.971504 16:0.676444 17:-0.203609 18:-1.281460 19:-0.357017 20:-1.485066 21:-0.173817 22:-1.568985 23:-0.737696 24:1.219269 25:-0.374995
-1 1:1.308249 2:-0.281405 3:-0.064629 4:-0.493733 5:1.216510 6:-1.359752 7:0.970505 8:1.132848 9:1.160005 10:-2.236811 11:0.019804 12:-0.250695 13:0.249980 14:-0.559626 15:0.687420 16:-0.972341 17:1.091673 18:-0.921488 19:0.403748 20:0.266996 21:-1.638613 22:1.376803 23:-1.000693 24:1.306796 25:0.430938
-1 1:-1.528682 2:-0.081876 3:-0.206025 4:0.479565 5:-1.515491 6:-0.053019 7:1.388184 8:-0.911043 9:0.853923 10:-0.221309 11:0.465386 12:0.454370 13:0.185724 14:-0.351421 15:-0.511397 16:-0.796635 17:-0.151675 18:0.403225 19:-0.070862 20:-1.597572 21:1.159671 22:-0.898370 23:-0.438470 24:0.188703 25:-1.636022
-1 1:0.099927 2:-1.405320 3:2.585986 4:-0.813561 5:0.285955 6:-0.092829 7:-0.802664 8:0.138705 9:0.071652 10:0.035656 11:0.216209 12:-0.770862 13:-1.262651 14:0.203298 15:0.383983 16:0.144909 17:-0.792361 18:0.663009 19:-0.618953 20:1.127459 21:1.794498 22:0.675277 23:-1.328771 24:0.414145 25:0.600956
-1 1:-0.941114 2:-0.283584 3:-0.514069 4:-0.555977 5:1.449556 6:-1.091286 7:1.070697 8:2.015808 9:1.774853 10:0.533837 11:1.936038 12:0.274491 13:-0.238819 14:0.232106 15:0.449428 16:-0.167412 17:-1.436088 18:0.649899 19:0.472943 20:-0.718683 21:-1.372270 22:0.384090 23:0.742858 24:-0.501094 25:1.779167
-1 1:-1.595960 2:1.402497 3:0.181396 4:1.183545 5:1.184182 6:-1.185638 7:-0.489787 8:0.382050 9:-1.606108 10:-1.499166 11:-0.057260 12:0.642211 13:-1.352125 14:0.093358 15:1.306293 16:-1.463773 17:1.202391 18:0.725323 19:-0.408844 20:0.162893 21:1.359804 22:0.963198 23:1.282740 24:0.781655 25:-0.670410
-1 1:0.795313 2:-0.787176 3:1.933197 4:-0.480385 5:1.629236 6:-0.036709 7:0.648499 8:0.816358 9:-1.995428 10:1.842677 11:-0.363858 12:-0.093436 13:-1.427004 14:0.502000 15:0.887119 16:-0.122760 17:0.669589 18:0.415961 19:0.247466 20:0.450072 21:-0.431520 22:-0.030473 23:-1.060965 24:-0.650542 25:-1.424181
-1 1:0.088365 2:0.052022 3:0.410397 4:-0.093871 5:1.206284 6:0.045182 7:0.837426 8:-0.220182 9:1.258167 10:0.973445 11:-1.689103 12:1.136540 13:-0.171367 14:1.389999 15:0.282286 16:-0.192606 17:0.533863 18:-0.045159 19:-0.478635 20:-1.120368 21:-0.064779 22:-0.461957 23:-0.016040 24:1.066236 25:-0.499040
-1 1:0.736570 2:0.876582 3:0.263304 4:0.783747 5:0.735426 6:1.804371 7:-0.580642 8:0.833799 9:-1.144696 10:2.783850 11:-1.263414 12:0.214249 13:0.160894 14:-0.661508 15:1.033748 16:0.770059 17:-1.053177 18:-0.299663 19:0.112747 20:-0.424003 21:-0.520733 22:0.088262 23:-0.313131 24:0.407472 25:0.075650
-1 1:-1.258710 2:0.625991 3:-0.306936 4:-0.742285 5:-0.648072 6:0.879974 7:-0.527464 8:-1.090754 9:-2.495718 10:-0.525727 11:-0.119263 12:2.275784 13:2.134266 14:0.807424 15:-0.720494 16:0.556898 17:-0.680405 18:0.765756 19:-0.247249 20:-1.422715 21:1.052558 22:-1.083860 23:-0.593190 24:1.174375 25:-1.302036
-1 1:0.033135 2:0.373435 3:-0.187075 4:-0.288588 5:0.193559 6:1.303341 7:-0.596385 8:1.292084 9:1.150309 10:0.451445 11:-1.576846 12:0.214105 13:-1.532228 14:0.497912 15:-0.460124 16:-0.642490 17:-0.162186 18:-0.528704 19:1.457120 20:1.229956 21:-0.321588 22:-0.423937 23:-0.646527 24:-0.924068 25:-0.268141
-1 1:-0.205898 2:-1.500029 3:0.851916 4:0.108374 5:-1.190704 6:-0.550471 7:0.693261 8:-0.936614 9:-1.842330 10:-0.105844 11:-0.052631 12:-1.528899 13:-0.155760 14:-0.103775 15:1.131003 16:-0.949526 17:0.355584 18:0.336075 19:0.437899 20:0.348959 21:0.837318 22:-0.375332 23:0.676366 24:0.416943 25:-0.661477
-1 1:0.180647 2:0.011377 3:1.020977 4:0.121988 5:-1.176734 6:0.138097 7:-0.127890 8:-1.246271 9:-0.176427 10:0.175801 11:0.936029 12:0.310349 13:-1.569740 14:-1.744867 15:0.917099 16:0.005767 17:-0.518141 18:-0.290415 19:0.018302 20:0.556821 21:1.338645 22:-1.527688 23:-0.535313 24:-0.998755 25:0.258861
-1 1:-0.759755 2:-1.737640 3:0.893040 4:2.223399 5:0.455186 6:-2.116323 7:-1.026940 8:0.986292 9:1.303722 10:-0.602692 11:0.443488 12:-2.491658 13:-0.093393 14:0.543587 15:0.202353 16:1.214859 17:-0.320811 18:-0.787188 19:1.337905 20:-0.168614 21:-0.080360 22:-0.632214 23:-0.729953 24:-0.179614 25:-0.584691
-1 1:0.967383 2:0.022767 3:1.401972 4:0.740228 5:0.151754 6:-0.726388 7:0.472510 8:0.679723 9:0.787774 10:-0.330364 11:0.115512 12:0.511888 13:-1.211512 14:1.429865 15:-0.124623 16:1.111200 17:1.476071 18:-0.745390 19:1.530261 20:-0.159305 21:0.436837 22:-2.320526 23:0.298951 24:-0.258683 25:0.845138
-1 1:0.210783 2:0.216241 3:0.739971 4:0.502253 5:-0.928016 6:0.730610 7:-0.011754 8:1.997022 9:-0.815385 10:0.771333 11:0.935681 12:-0.432174 13:0.234921 14:-0.698020 15:-0.280486 16:1.036416 17:1.041662 18:-0.991462 19:1.607577 20:1.106728 21:-1.027166 22:0.958061 23:0.404658 24:-1.553400 25:1.489835
-1 1:1.124098 2:-0.825598 3:-1.679869 4:2.414071 5:0.497917 6:0.447589 7:-0.158026 8:-0.681680 9:1.244066 10:-0.098078 11:-0.448935 12:-0.401983 13:-0.159537 14:1.144856 15:0.092478 16:1.030092 17:-0.620876 18:0.050337 19:-2.441793 20:-0.865723 21:-0.698753 22:0.967008 23:-0.861322 24:-0.271684 25:0.119868
-1 1:-0.094522 2:0.206425 3:0.299138 4:-0.401747 5:-1.763775 6:-1.054333 7:0.544521 8:0.776135 9:-1.220681 10:-0.365842 11:-2.570475 12:0.086139 13:0.060895 14:0.883428 15:0.085063 16:-1.086862 17:-0.812310 18:0.124992 19:0.403560 20:1.124656 21:0.669572 22:-0.338590 23:-1.210454 24:-0.254690 25:-1.862328
-1 1:-0.903493 2:-0.721553 3:0.541352 4:-0.030724 5:0.854050 6:-0.252587 7:1.607758 8:-0.339870 9:1.891103 10:-0.396913 11:-0.828095 12:-1.692059 13:1.081213 14:-1.086805 15:2.528374 16:0.585050 17:0.739876 18:-0.717023 19:0.864039 20:0.706823 21:-0.057603 22:0.287207 23:0.667405 24:0.333734 25:0.184884
-1 1:-1.611476 2:0.701956 3:-0.863715 4:-0.465098 5:0.472657 6:0.291832 7:0.241156 8:-0.914118 9:-0.201236 10:0.872957 11:0.378849 12:-1.815901 13:-0.631635 14:-1.947253 15:-0.872962 16:0.744084 17:0.247457 18:0.838522 19:0.141763 20:0.457612 21:0.020128 22:-1.172258 23:-1.879015 24:0.487832 25:0.755317
-1 1:-0.362596 2:0.338817 3:-1.334938 4:-0.036493 5:0.728927 6:-1.253185 7:1.009070 8:-1.360153 9:1.059897 10:0.866992 11:-0.810517 12:0.734591 13:0.166897 14:-0.292768 15:0.792384 16:-0.467176 17:0.031068 18:0.694246 19:0.523919 20:-0.471520 21:-0.460051 22:1.580463 23:-0.995916 24:-0.148514 25:-0.282024
-1 1:-1.150453 2:-0.802443 3:-1.058974 4:0.476620 5:-0.037509 6:0.208613 7:-1.627695 8:0.192688 9:-0.526403 10:0.130306 11:1.029202 12:0.701906 13:0.185827 14:-2.234943 15:-0.126572 16:1.028109 17:-0.263610 18:0.479342 19:0.180072 20:-0.347597 21:0.486438 22:2.104567 23:0.941719 24:-0.775229 25:1.574036
-1 1:0.109522 2:1.865868 3:0.788413 4:0.987302 5:-0.384551 6:0.291235 7:0.105994 8:0.276829 9:0.250741 10:-0.198253 11:0.991213 12:-0.133556 13:-0.233994 14:-0.945250 15:-0.496336 16:1.124807 17:-1.101920 18:0.521214 19:-0.399390 20:1.283227 21:0.297206 22:-0.451927 23:1.443240 24:0.165899 25:1.290139
-1 1:-2.466722 2:0.121515 3:-1.207144 4:0.786939 5:-0.059699 6:-2.514040 7:-0.158813 8:-0.421561 9:-1.205708 10:-1.595094 11:-1.308196 12:-0.826465 13:2.850743 14:0.750722 15:-1.996268 16:1.040748 17:-0.122746 18:0.982833 19:1.189784 20:0.071938 21:-0.439638 22:1.672308 23:1.289395 24:1.959494 25:-1.118259
-1 1:0.977724 2:0.872805 3:-0.141756 4:-1.426309 5:-0.647106 6:-0.281795 7:-0.201530 8:1.337761 9:0.748148 10:-1.282696 11:0.481863 12:1.777624 13:-0.044202 14:-0.366335 15:-2.689054 16:-0.295799 17:-0.319456 18:-0.881457 19:0.598726 20:-2.419657 21:1.376039 22:-0.588539 23:-0.408495 24:0.248729 25:1.223652
-1 1:0.263723 2:0.227813 3:-3.092720 4:-2.031689 5:-0.945875 6:0.296786 7:0.691203 8:0.999658 9:0.338475 10:-0.030076 11:-0.222694 12:-0.278536 13:0.859398 14:0.352939 15:-0.145004 16:1.166214 17:-0.250089 18:-0.124058 19:-0.711712 20:-0.003141 21:-0.534492 22:-0.634491 23:2.201244 24:-0.335857 25:0.605273
-1 1:-0.896044 2:0.736833 3:-0.770617 4:-1.661054 5:0.183014 6:0.216250 7:-0.174263 8:0.813303 9:-0.021183 10:-0.979090 11:2.101065 12:-0.136506 13:0.001394 14:1.198753 15:-0.597209 16:-0.253122 17:0.446264 18:-1.058143 19:0.529472 20:1.582347 21:-0.938876 22:0.767560 23:-0.561945 24:-1.314886 25:0.134055
-1 1:-0.238353 2:-0.353052 3:1.437756 4:0.945881 5:-1.028477 6:-1.470544 7:-1.827885 8:0.391750 9:0.087944 10:1.123022 11:0.106271 12:0.531365 13:0.194114 14:-0.686030 15:0.164789 16:-0.790829 17:-0.486776 18:-0.674724 19:0.087144 20:-0.349968 21:2.850021 22:-0.083291 23:1.550448 24:-0.713311 25:-0.316992
-1 1:-1.249856 2:-0.579078 3:1.396383 4:-2.178041 5:0.627648 6:-0.076950 7:-0.084078 8:0.327164 9:0.045542 10:0.432224 11:0.222904 12:-1.371513 13:-0.044181 14:0.016954 15:1.364985 16:-0.015359 17:0.944509 18:0.943960 19:0.014494 20:-1.515214 21:-0.284149 22:-0.363255 23:-0.964914 24:-1.615442 25:-1.021005
-1 1:0.054510 2:0.570814 3:-0.764001 4:1.559815 5:1.691395 6:0.780426 7:-0.487221 8:-0.902923 9:1.464712 10:-0.131988 11:1.438169 12:-0.834201 13:-0.609579 14:0.180610 15:-1.536474 16:-2.590037 17:0.598991 18:-1.910873 19:-0.501015 20:0.497178 21:0.850838 22:1.261847 23:-0.982460 24:0.682793 25:-0.577335
-1 1:-0.593099 2:1.511852 3:1.441648 4:-0.368061 5:-0.343225 6:0.687868 7:-0.062743 8:-0.093767 9:-0.088306 10:-1.505565 11:0.877895 12:0.071496 13:1.878258 14:0.240191 15:-0.099532 16:2.749797 17:-0.895462 18:-0.703516 19:0.595411 20:-0.027378 21:-0.805038 22:0.489420 23:-0.436540 24:0.832675 25:0.390262
-1 1:0.041030 2:0.277910 3:-1.304601 4:-0.440252 5:-0.252150 6:-1.654460 7:0.693832 8:0.587123 9:-0.900941 10:2.071941 11:2.807011 12:0.343990 13:-0.225800 14:1.126647 15:-0.450862 16:-0.755314 17:-1.738878 18:-2.919344 19:1.082620 20:2.060501 21:-1.734360 22:1.464091 23:-1.674568 24:0.764274 25:1.326769
-1 1:-0.621882 2:0.316957 3:-0.314136 4:0.359610 5:0.745824 6:-0.277957 7:0.558405 8:-0.185006 9:-2.066683 10:-0.205584 11:1.409221 12:-0.716580 13:1.308086 14:-1.897992 15:0.427585 16:-0.314195 17:0.464140 18:0.063855 19:0.379355 20:0.228472 21:0.026544 22:0.316371 23:-0.083695 24:-1.252813 25:-0.056228
-1 1:-0.579135 2:0.911518 3:0.844164 4:0.985749 5:0.598624 6:2.765557 7:0.919939 8:-0.180441 9:2.010537 10:-0.090945 11:0.998323 12:-1.789065 13:-1.236304 14:-0.716204 15:0.632263 16:-0.069746 17:0.484429 18:0.277627 19:0.385202 20:-0.026660 21:-1.162925 22:-1.602312 23:1.390627 24:-1.241496 25:0.992060
-1 1:-0.511888 2:0.926069 3:0.731153 4:0.437152 5:-0.584445 6:1.721869 7:0.592015 8:0.582565 9:0.331640 10:1.400549 11:-0.950687 12:-1.883341 13:-1.234713 14:-0.219378 15:-0.376670 16:-0.788364 17:-1.623853 18:0.174113 19:0.890893 20:-0.339431 21:0.928244 22:0.938864 23:1.131440 24:-0.036939 25:-0.427430
-1 1:-0.906124 2:0.210624 3:3.543713 4:1.943339 5:0.475865 6:0.310538 7:-0.718284 8:-1.475480 9:0.384649 10:-1.132173 11:0.345350 12:-1.191442 13:1.699201 14:-0.348919 15:0.642621 16:-0.749217 17:0.210443 18:-2.507314 19:0.287250 20:-0.220608 21:-2.246514 22:1.701489 23:0.604815 24:1.164220 25:-0.991025
-1 1:1.829487 2:-0.605615 3:-1.545473 4:0.351300 5:0.410531 6:0.673861 7:0.757221 8:-0.084688 9:0.485825 10:0.372864 11:0.908758 12:-0.740185 13:-0.327572 14:1.343248 15:0.832646 16:-0.344391 17:0.176055 18:0.059345 19:1.228502 20:-1.227374 21:1.414341 22:-0.551553 23:0.945442 24:0.148656 25:0.900739
-1 1:-1.243035 2:0.650525 3:-1.069846 4:0.386177 5:0.706583 6:0.569112 7:-1.765959 8:-0.094986 9:-0.458048 10:-0.795689 11:-0.169360 12:-0.224693 13:0.168201 14:0.866760 15:0.958379 16:-0.930606 17:-0.949305 18:-0.831295 19:-0.338740 20:-0.968319 21:1.063339 22:0.171622 23:0.987204 24:0.442553 25:-0.622934
-1 1:-0.496290 2:-0.320131 3:-1.413315 4:1.880691 5:0.950358 6:0.298868 7:0.068171 8:-1.389758 9:0.285656 10:-0.257988 11:-0.203797 12:0.165754 13:-0.817972 14:0.891314 15:-0.310265 16:-0.590455 17:0.414746 18:-1.603953 19:-0.471619 20:1.644871 21:-1.522428 22:0.914916 23:0.333966 24:0.193927 25:0.367110
-1 1:-0.238191 2:0.890408 3:0.951346 4:-0.810508 5:0.474464 6:1.111776 7:-0.791890 8:-0.293582 9:0.416288 10:0.335197 11:0.247958 12:-0.917833 13:-1.193263 14:-0.061707 15:1.792015 16:0.825352 17:-2.148443 18:1.405515 19:0.583323 20:0.933719 21:0.879698 22:-0.392905 23:0.130469 24:-0.421742 25:0.639880
-1 1:-2.607352 2:0.248424 3:0.617658 4:-0.323090 5:-0.141808 6:-0.125240 7:-0.869432 8:0.856139 9:1.657047 10:-0.854662 11:-0.448200 12:-0.569130 13:-0.451348 14:1.985688 15:-1.028750 16:0.233966 17:0.295771 18:-0.330808 19:0.668842 20:-0.626446 21:-1.151449 22:1.573601 23:-1.847721 24:0.396034 25:-0.485029
-1 1:-0.424100 2:-2.183205 3:-0.037772 4:-0.687082 5:1.115926 6:-0.444491 7:-0.059160 8:0.202377 9:-1.361138 10:0.236877 11:1.547706 12:-0.285642 13:-0.856492 14:-1.526789 15:-0.603420 16:-0.208296 17:0.475772 18:-0.490352 19:-0.442259 20:-2.032563 21:-0.133197 22:-0.065082 23:-0.941107 24:0.843656 25:1.180297
-1 1:0.040688 2:1.007752 3:-0.974538 4:0.091653 5:-0.798526 6:0.493676 7:2.029560 8:0.405370 9:-0.881793 10:0.160752 11:-2.243979 12:-1.281442 13:-1.874089 14:-0.865636 15:0.236234 16:-0.037171 17:-0.711791 18:1.293442 19:-1.429137 20:0.531014 21:0.636000 22:-1.014972 23:-0.140216 24:-1.076233 25:0.616980
-1 1:-1.675967 2:-1.810587 3:1.380697 4:0.072409 5:1.660614 6:0.727356 7:0.281994 8:-0.718089 9:-0.814654 10:0.644807 11:-0.913579 12:0.213836 13:0.933292 14:0.457941 15:1.011414 16:-0.596512 17:-0.495227 18:1.138729 19:-1.251398 20:0.701303 21:0.643611 22:0.931291 23:-0.441030 24:0.735125 25:0.126815
-1 1:-0.204699 2:-0.903513 3:-0.623921 4:-0.017261 5:-1.114727 6:0.937403 7:-0.274051 8:-0.136077 9:-0.413350 10:1.055068 11:-0.071148 12:1.595507 13:0.018864 14:0.684476 15:-1.226761 16:1.458854 17:0.698867 18:-0.839772 19:1.744319 20:-0.805261 21:1.811397 22:-0.326969 23:0.344595 24:0.472879 25:-0.696712
-1 1:-0.248665 2:-0.479951 3:1.312882 4:0.183886 5:0.578410 6:-1.060267 7:0.578105 8:2.126869 9:-0.939566 10:1.446591 11:1.067031 12:-0.500644 13:1.585140 14:1.470416 15:0.177349 16:0.317950 17:0.039841 18:0.937553 19:-1.024342 20:-0.010305 21:-0.055249 22:0.347331 23:0.184449 24:0.144947 25:0.010889
-1 1:0.552640 2:-2.091940 3:1.133163 4:0.464138 5:-1.895747 6:1.089583 7:0.673713 8:-2.509657 9:1.274329 10:-0.718060 11:0.189438 12:-0.173901 13:-0.448338 14:-1.099240 15:-1.762433 16:-0.424908 17:0.913741 18:-0.835505 19:0.505769 20:-0.570200 21:-1.892754 22:-0.754748 23:0.092161 24:1.322440 25:0.955190
-1 1:-1.589735 2:1.011853 3:1.242240 4:0.915206 5:0.541324 6:-0.283595 7:0.177985 8:0.327041 9:-1.397477 10:-0.095541 11:-1.651372 12:0.300405 13:-0.950441 14:0.216073 15:-0.376491 16:0.204265 17:2.834604 18:-0.739071 19:0.189194 20:0.172386 21:2.271221 22:-0.238428 23:0.102637 24:0.195554 25:0.609045
-1 1:-0.652860 2:0.494626 3:1.258365 4:-0.980466 5:-1.492827 6:-0.358975 7:2.462230 8:-0.481161 9:0.583624 10:-0.555816 11:0.182492 12:0.124579 13:-1.346439 14:-0.744672 15:0.374700 16:1.113573 17:-1.181472 18:-0.910701 19:-0.195977 20:-0.469273 21:0.936588 22:0.068727 23:0.624218 24:0.518084 25:0.780016
-1 1:-1.175316 2:1.159628 3:1.015072 4:0.957650 5:0.975399 6:-1.467238 7:1.037840 8:0.249868 9:-1.393039 10:-0.891393 11:0.937866 12:-0.576346 13:0.560391 14:1.343503 15:0.205208 16:0.357054 17:1.274387 18:0.201180 19:-0.098648 20:0.599964 21:0.789768 22:-2.190756 23:-1.720864 24:0.775342 25:1.009029
-1 1:-1.917165 2:-1.544393 3:0.243536 4:-0.353202 5:-0.940406 6:1.045713 7:0.881345 8:1.827119 9:-1.583593 10:0.394534 11:0.445273 12:-0.846241 13:0.504972 14:0.114163 15:-1.689797 16:-0.399399 17:0.649393 18:1.600457 19:-0.708820 20:-0.802694 21:-1.118594 22:0.866343 23:0.219229 24:-0.193787 25:-1.641997
-1 1:-1.494290 2:-0.653153 3:0.660762 4:-0.486549 5:0.863794 6:-0.512772 7:0.429220 8:1.169734 9:-2.491829 10:-0.198328 11:1.257201 12:-0.227065 13:-1.517610 14:-0.026982 15:0.042934 16:-0.775989 17:0.682364 18:0.510297 19:0.257961 20:0.952686 21:0.325500 22:0.593208 23:0.813451 24:-0.227301 25:-0.158212
-1 1:-0.317500 2:0.018975 3:-0.452969 4:-1.026816 5:0.680270 6:-1.228752 7:0.369005 8:0.157910 9:-0.665456 10:0.295739 11:0.188670 12:-1.171348 13:-0.444306 14:0.024039 15:1.757479 16:-0.968631 17:-0.744209 18:0.725802 19:0.653985 20:0.302732 21:-0.318129 22:0.866096 23:-1.865322 24:0.607889 25:0.173182
-1 1:0.230150 2:-1.027549 3:-0.275261 4:-0.899633 5:-0.136423 6:-0.916751 7:1.182351 8:-0.695315 9:-0.985724 10:-0.187299 11:0.069809 12:0.633592 13:1.061212 14:-1.143121 15:0.857373 16:-0.545201 17:1.392630 18:-0.257264 19:-0.318555 20:-1.621362 21:0.413624 22:0.346495 23:-0.332546 24:0.217853 25:-1.287401
-1 1:-1.070249 2:-0.080043 3:0.429286 4:-0.481722 5:0.308828 6:2.629131 7:0.479256 8:0.238894 9:0.551944 10:0.396582 11:-0.238322 12:-0.664302 13:0.042178 14:1.316472 15:-0.295290 16:-1.957650 17:2.244274 18:0.188725 19:0.128627 20:-0.868649 21:-0.685774 22:-0.046732 23:0.728923 24:0.237564 25:-0.322923
-1 1:-0.176496 2:-0.430421 3:-1.277281 4:0.156113 5:1.000641 6:-0.278803 7:-0.501096 8:0.666137 9:0.502672 10:-0.732372 11:-0.815461 12:-1.429370 13:0.058669 14:-0.478428 15:0.595874 16:1.403053 17:0.064344 18:0.973736 19:-0.701695 20:-1.208266 21:-0.978668 22:0.926798 23:-0.675202 24:-0.118570 25:0.429207
-1 1:0.224304 2:-0.124876 3:-1.200025 4:1.398893 5:-0.048179 6:1.038241 7:0.062511 8:-1.495579 9:0.354923 10:-2.631397 11:1.512890 12:-0.233476 13:0.463324 14:1.749446 15:2.757702 16:-0.105262 17:0.897305 18:-0.048697 19:-1.472456 20:-0.811053 21:0.415543 22:0.273330 23:0.371921 24:0.951161 25:0.103512
-1 1:1.324757 2:-0.094584 3:0.140209 4:0.270412 5:0.236825 6:0.657707 7:0.364828 8:0.150847 9:-1.534649 10:0.767592 11:1.012404 12:-1.219157 13:1.149386 14:0.212008 15:0.013208 16:0.237071 17:0.282146 18:-0.185882 19:-0.614482 20:-1.056227 21:0.888671 22:-1.170404 23:0.481514 24:-0.621868 25:-0.109955
-1 1:1.601503 2:-0.554174 3:-0.021104 4:0.565082 5:-1.049070 6:-0.484934 7:-2.972072 8:-1.347329 9:0.471015 10:-1.226804 11:0.457837 12:1.797674 13:-0.760629 14:1.046535 15:0.343635 16:-0.287466 17:-0.760735 18:-0.854126 19:1.058643 20:0.323911 21:0.317409 22:0.016875 23:1.485759 24:1.039635 25:-0.132859
-1 1:-0.667779 2:0.836782 3:-1.423737 4:0.879831 5:-0.188206 6:-0.889567 7:-0.548713 8:-1.030130 9:0.161265 10:-1.456521 11:0.112072 12:0.789984 13:-0.337871 14:-0.322160 15:0.200334 16:-1.529205 17:-0.311415 18:-0.380473 19:-0.171397 20:0.920696 21:-1.124134 22:0.966254 23:0.231661 24:-1.210054 25:0.430542
-1 1:1.697635 2:-0.255970 3:-1.297295 4:0.441240 5:-0.258805 6:-0.083602 7:0.265346 8:-2.235463 9:0.009203 10:-0.147668 11:-0.490804 12:2.002094 13:-0.871540 14:-0.631464 15:-0.293629 16:0.448010 17:-0.348987 18:0.071015 19:-0.355245 20:0.399938 21:0.744161 22:0.855961 23:-0.314969 24:-0.009308 25:1.214673
-1 1:-0.094973 2:0.014806 3:0.058585 4:1.098743 5:2.467206 6:-1.698239 7:0.081764 8:0.635209 9:0.181621 10:-0.806220 11:-1.343417 12:-0.034715 13:1.158297 14:0.243939 15:-1.234256 16:0.337003 17:2.733192 18:1.052102 19:-0.837395 20:1.225864 21:0.587850 22:-0.677700 23:0.112532 24:0.327195 25:0.534952
-1 1:1.204098 2:-0.690429 3:1.606744 4:0.955235 5:0.060359 6:1.021364 7:-0.273821 8:1.391978 9:-0.564104 10:0.623078 11:-0.598673 12:-0.114239 13:1.555642 14:-0.847313 15:1.590728 16:-0.219986 17:-0.497064 18:0.534064 19:0.896036 20:1.681733 21:1.627443 22:-1.948763 23:0.988371 24:-0.022728 25:1.198246
-1 1:-0.590902 2:0.889914 3:-0.270699 4:-0.881700 5:-1.072942 6:0.159710 7:0.624964 8:-0.842583 9:0.103891 10:0.288181 11:1.555522 12:-0.312746 13:1.098491 14:-0.167135 15:-0.970282 16:0.564323 17:0.222883 18:1.256538 19:1.109559 20:-1.453525 21:-0.298348 22:0.992761 23:-0.643311 24:0.453160 25:-0.866131
-1 1:0.369721 2:-1.260112 3:1.312587 4:-0.496992 5:-0.699824 6:0.545675 7:-0.356684 8:-0.749734 9:0.462019 10:-0.467269 11:-0.093225 12:-0.251463 13:0.040953 14:-0.000176 15:-1.786307 16:-0.965083 17:0.383747 18:-0.024725 19:-0.355817 20:-1.878407 21:-0.115215 22:0.568507 23:0.957324 24:0.145232 25:2.499036
-1 1:0.007908 2:0.076779 3:1.927411 4:-0.191896 5:2.059050 6:0.550015 7:-1.408650 8:-0.377524 9:-0.359578 10:-0.768620 11:-0.489062 12:-1.508286 13:0.592671 14:-0.399895 15:-0.053997 16:0.882893 17:0.291279 18:1.473415 19:-0.729567 20:0.865417 21:-1.878022 22:1.592350 23:0.198748 24:1.905720 25:-0.497650
-1 1:0.272782 2:-0.155229 3:-0.457190 4:-0.037830 5:1.123380 6:0.676564 7:-1.815096 8:-0.159288 9:-0.685474 10:-0.384034 11:0.489915 12:-0.027625 13:2.230184 14:-1.163419 15:-1.531411 16:-1.729922 17:0.083445 18:-1.167460 19:2.232532 20:-0.471338 21:1.139257 22:-0.000113 23:-0.444297 24:0.390976 25:0.060442
-1 1:0.888269 2:0.164979 3:-0.373758 4:-1.319536 5:-0.645838 6:0.658981 7:-1.785876 8:-0.038387 9:-0.329111 10:0.024693 11:-0.511118 12:-0.688525 13:2.094248 14:-0.482950 15:-0.244153 16:-0.008695 17:0.809660 18:-0.315698 19:-2.171660 20:0.288503 21:-0.809902 22:-0.862209 23:0.122119 24:0.128270 25:0.202364
-1 1:-1.226178 2:-1.200273 3:1.452180 4:0.538484 5:0.012434 6:1.087459 7:-0.183709 8:-2.297273 9:-0.569556 10:0.479122 11:-0.350506 12:-0.708734 13:1.231224 14:-0.600464 15:0.254241 16:0.858396 17:-1.649139 18:0.600137 19:0.645695 20:-0.464192 21:0.039638 22:-0.570396 23:0.212550 24:1.532631 25:-0.564019
-1 1:0.188715 2:1.562613 3:0.536686 4:0.210057 5:1.628857 6:0.194847 7:0.128991 8:-0.947416 9:0.119075 10:0.204310 11:-0.625764 12:-0.852045 13:-0.165568 14:-0.323069 15:-1.016656 16:-0.342335 17:0.082756 18:0.769559 19:-1.004170 20:-2.222115 21:0.702308 22:-1.113377 23:-0.260463 24:-0.351687 25:-0.417402
-1 1:0.474810 2:-0.611271 3:-0.211309 4:0.123659 5:0.460231 6:0.424955 7:-0.222495 8:-2.354320 9:0.160221 10:-0.700220 11:-0.796490 12:-0.687636 13:0.283938 14:-0.169952 15:-0.445261 16:-1.909346 17:-0.759742 18:-0.902616 19:-0.121713 20:1.690799 21:0.285204 22:0.424163 23:2.469019 24:-0.384704 25:1.967724
-1 1:1.576488 2:0.499613 3:0.355438 4:-1.464991 5:-1.053558 6:1.843452 7:-1.354078 8:1.527041 9:1.477210 10:1.395299 11:-1.587254 12:1.846832 13:0.345598 14:-1.634764 15:-1.298732 16:-0.925421 17:0.145463 18:1.266633 19:1.480823 20:-0.116168 21:0.898388 22:1.599670 23:2.687865 24:-1.151309 25:-0.412179
-1 1:0.564379 2:0.697235 3:2.649530 4:2.580391 5:-0.227917 6:-0.640658 7:-0.796875 8:0.325705 9:0.005192 10:1.412471 11:-0.058389 12:-0.270084 13:1.072661 14:-1.090490 15:-0.767243 16:1.029917 17:0.774319 18:-0.593493 19:0.436609 20:0.428692 21:-0.464900 22:-0.551767 23:0.649189 24:0.421257 25:-0.155775
-1 1:0.790771 2:-0.193595 3:0.588437 4:-2.167862 5:-1.276515 6:0.205194 7:-1.232909 8:1.642238 9:-0.760051 10:-1.362281 11:0.626639 12:1.071863 13:2.506546 14:0.292941 15:1.192153 16:-1.391533 17:0.447579 18:-0.473483 19:-0.434591 20:1.874047 21:0.776537 22:-0.117334 23:0.916491 24:-0.257633 25:1.502756
-1 1:-1.808709 2:-0.817687 3:-0.083153 4:-0.646564 5:-1.307966 6:-0.088389 7:0.454181 8:0.078407 9:0.982485 10:-0.599989 11:0.866753 12:-0.959363 13:1.532032 14:-0.010523 15:-2.905331 16:-0.074223 17:-0.823680 18:-0.214295 19:-0.038288 20:1.095860 21:-1.232237 22:0.598233 23:0.792120 24:0.125254 25:-3.555582
-1 1:-1.148012 2:-0.431529 3:-1.212632 4:1.079451 5:0.754022 6:-1.209661 7:0.016937 8:1.718455 9:2.445401 10:0.043018 11:-1.408688 12:0.399323 13:-1.416764 14:0.035883 15:2.006008 16:0.453039 17:-0.047761 18:-1.069468 19:0.280825 20:1.238674 21:0.086980 22:-1.455513 23:-1.129216 24:-1.208162 25:0.484223
-1 1:-0.804338 2:0.520232 3:-2.248844 4:1.574167 5:0.560555 6:0.141262 7:-0.347791 8:0.896071 9:-0.828654 10:-1.006668 11:-1.692209 12:0.427377 13:-0.532402 14:-0.413048 15:-1.326186 16:0.410068 17:-0.992922 18:0.404290 19:2.327630 20:0.643982 21:-1.210419 22:0.261880 23:0.481244 24:-0.168171 25:-0.549677
-1 1:0.311392 2:0.903448 3:-0.363744 4:-1.187292 5:-0.425274 6:-1.362986 7:0.650743 8:0.712159 9:-0.568157 10:1.027056 11:0.752058 12:-0.644656 13:-0.446603 14:-0.499137 15:1.297080 16:0.415867 17:-2.052806 18:-0.172467 19:0.625687 20:-1.088351 21:0.154404 22:0.352102 23:0.126655 24:-0.966989 25:-2.227465
-1 1:-0.475997 2:-0.386797 3:0.128953 4:-1.906857 5:-2.809933 6:-0.808189 7:-1.639645 8:-0.702443 9:-0.866223 10:-0.382957 11:-0.811297 12:1.182007 13:0.237687 14:-0.502244 15:0.318682 16:-0.433829 17:1.560658 18:-2.104133 19:-1.297068 20:-1.257911 21:-0.875230 22:0.488027 23:-0.231789 24:-0.635317 25:0.731701
-1 1:0.664500 2:0.093124 3:-1.142496 4:-0.898489 5:0.308470 6:0.239704 7:-1.023894 8:-0.651587 9:-0.602973 10:0.061577 11:1.620651 12:1.842167 13:-0.870200 14:0.693087 15:-0.503683 16:-0.490770 17:-1.466097 18:0.141393 19:-0.695240 20:0.008346 21:-0.045135 22:0.314651 23:3.287503 24:0.508166 25:-1.469179
-1 1:-0.418215 2:-1.520195 3:0.776262 4:0.809772 5:-0.584505 6:0.654192 7:-0.310788 8:-2.893346 9:0.354703 10:0.106184 11:2.131613 12:-1.142690 13:-0.061631 14:-0.566558 15:-0.439134 16:0.141968 17:2.261702 18:0.500895 19:-0.476499 20:-0.760558 21:-0.170163 22:-0.721610 23:-0.574945 24:1.067084 25:2.507151
-1 1:-0.073747 2:-0.439294 3:-0.906431 4:-0.894950 5:0.511226 6:1.585279 7:-1.661282 8:-0.464816 9:0.138683 10:-1.532082 11:-0.147508 12:-0.477061 13:0.025998 14:0.760720 15:0.647595 16:2.678552 17:-0.301616 18:0.147577 19:-1.853868 20:-1.261298 21:-0.051635 22:-0.152100 23:1.305154 24:-1.070151 25:-0.762447
-1 1:-2.065901 2:-0.852473 3:0.608224 4:0.326495 5:0.199568 6:0.841431 7:1.279700 8:2.150263 9:0.571551 10:0.474417 11:0.390712 12:1.147046 13:-1.025728 14:-0.441238 15:0.137225 16:-0.200252 17:0.103039 18:0.357471 19:-0.071182 20:-0.917205 21:1.206520 22:0.510529 23:-1.417028 24:0.673834 25:0.693199
-1 1:0.002282 2:-0.515370 3:-0.095240 4:1.700955 5:-0.618530 6:-1.606575 7:-0.268102 8:1.377157 9:0.895943 10:-0.447111 11:-0.644747 12:1.206178 13:-0.594927 14:0.826918 15:0.250390 16:1.900612 17:0.280004 18:-0.795400 19:-1.472267 20:-0.223263 21:0.318207 22:0.137384 23:1.451600 24:0.327139 25:-1.743390
-1 1:-0.402138 2:0.835726 3:-0.347909 4:-1.270362 5:-0.946434 6:1.614585 7:0.046140 8:1.110580 9:-0.243503 10:-0.205127 11:0.628485 12:0.752747 13:1.530859 14:-1.158782 15:0.654767 16:1.308538 17:-0.576932 18:-1.711476 19:-0.371559 20:-1.291836 21:-1.153713 22:0.435078 23:-1.584782 24:1.125017 25:-0.081884
-1 1:-0.023673 2:0.612913 3:1.282189 4:0.238839 5:0.636898 6:0.354761 7:-1.811025 8:1.443859 9:-1.874982 10:-0.523749 11:0.448791 12:2.151834 13:-0.690771 14:-0.129122 15:0.723411 16:1.284581 17:-2.753580 18:-0.138319 19:-0.372969 20:0.443983 21:1.231707 22:0.101825 23:-1.784981 24:0.739596 25:0.737875
-1 1:-0.260968 2:0.692183 3:-0.593386 4:-0.688392 5:1.678435 6:-0.924422 7:-0.608176 8:-0.806863 9:1.222811 10:-0.344686 11:-0.703160 12:-1.073794 13:1.651352 14:1.026278 15:1.472509 16:0.575160 17:-0.215915 18:-0.330048 19:-0.926684 20:0.911950 21:-0.304932 22:-0.804377 23:-0.146459 24:0.684354 25:0.855348
-1 1:-0.519776 2:-0.404633 3:-0.542863 4:1.282359 5:-1.164508 6:-0.791489 7:-0.742726 8:-1.161942 9:-0.146393 10:1.144626 11:-0.594063 12:-0.915481 13:0.151362 14:-0.553196 15:0.752645 16:0.405367 17:-0.654132 18:-0.172264 19:-1.342076 20:0.790924 21:-1.106444 22:-0.694641 23:0.780442 24:-1.149553 25:0.972183
-1 1:-1.070238 2:0.498954 3:-1.975658 4:-0.811973 5:0.128956 6:1.170547 7:1.201069 8:2.404461 9:2.804558 10:-0.011844 11:1.309580 12:-0.590570 13:0.071417 14:-0.558676 15:-0.062232 16:-0.706162 17:0.593007 18:1.089855 19:0.981348 20:1.043364 21:0.463339 22:0.327945 23:0.286944 24:0.176341 25:0.152647
-1 1:2.058920 2:0.969828 3:-0.191541 4:-1.900881 5:-0.513847 6:0.261239 7:0.792452 8:-0.116835 9:-0.421694 10:-0.661851 11:-0.433358 12:-0.416542 13:-1.070522 14:-1.338090 15:0.209091 16:-0.860710 17:0.629866 18:0.824611 19:0.832875 20:-0.841653 21:-1.234524 22:0.533358 23:0.654426 24:1.619544 25:0.753671
-1 1:-0.582231 2:-0.621900 3:-1.223254 4:0.402162 5:-1.788734 6:0.472171 7:0.781766 8:0.695616 9:-1.090127 10:-0.825584 11:0.038720 12:0.287235 13:-0.945226 14:0.499486 15:-0.658710 16:-1.291082 17:-0.291123 18:-0.171599 19:0.387314 20:1.419323 21:1.449382 22:-1.827738 23:-0.729442 24:-0.048548 25:1.040422
-1 1:1.525228 2:-1.182641 3:-0.385231 4:-0.007859 5:0.996575 6:0.296016 7:0.942789 8:0.411961 9:-0.494883 10:-1.938317 11:0.209354 12:-0.701647 13:1.479415 14:-0.243274 15:-0.645391 16:-1.677094 17:-0.196318 18:-0.969635 19:-0.092559 20:1.674349 21:0.112377 22:0.030294 23:-0.401283 24:1.473353 25:0.099295
-1 1:0.269195 2:0.032565 3:1.010962 4:-1.139237 5:-1.790712 6:-1.185030 7:-0.979969 8:-1.510493 9:-0.513198 10:0.842110 11:1.324011 12:-0.242508 13:1.050100 14:0.037916 15:-2.246725 16:0.944103 17:0.538608 18:0.014305 19:-0.872311 20:0.752107 21:-0.477112 22:0.067041 23:-0.133850 24:-0.857880 25:0.828754
-1 1:0.113780 2:-0.944738 3:0.621413 4:-0.193664 5:1.486860 6:0.164861 7:-0.285144 8:0.648871 9:-1.190010 10:0.117726 11:-0.879101 12:1.009318 13:-0.564536 14:0.238882 15:1.406204 16:1.091458 17:0.242763 18:-0.944180 19:-0.970616 20:0.358195 21:-0.505054 22:2.000650 23:0.095473 24:-0.917520 25:-1.017595
-1 1:1.298032 2:0.678251 3:-0.755247 4:2.792631 5:-1.309130 6:-0.119561 7:-1.972541 8:1.406297 9:-0.287732 10:2.716839 11:-0.732031 12:0.656681 13:-1.066045 14:-0.691279 15:1.684450 16:0.488028 17:0.135174 18:0.443925 19:0.821607 20:-0.119999 21:1.591803 22:-1.613929 23:0.354984 24:0.722678 25:1.745698
-1 1:0.207071 2:-0.848359 3:-0.097412 4:1.856679 5:-0.072934 6:-0.506621 7:0.537731 8:0.192781 9:-0.517159 10:0.273538 11:-1.238149 12:-0.838205 13:-0.070797 14:0.869213 15:-1.515605 16:0.394892 17:0.507484 18:-0.834897 19:-0.701404 20:0.586566 21:0.908673 22:0.847147 23:0.561386 24:-0.761640 25:0.612203
-1 1:-0.567056 2:-0.183999 3:0.238259 4:-0.896143 5:0.900425 6:-1.515715 7:0.563948 8:0.083077 9:-0.935329 10:-0.391456 11:0.900910 12:0.628700 13:-0.313743 14:0.401865 15:1.059491 16:1.355178 17:-1.179735 18:0.536409 19:-0.985250 20:0.337922 21:0.138344 22:-0.903198 23:0.104475 24:-0.735131 25:0.621105
-1 1:1.112952 2:0.072024 3:-1.326641 4:-0.222670 5:-1.379806 6:-1.345410 7:0.479587 8:-0.778100 9:0.145101 10:-1.774492 11:-0.776694 12:0.379674 13:-2.071788 14:-0.921967 15:-1.514420 16:0.649184 17:0.250572 18:-0.282341 19:-0.386363 20:0.138694 21:-0.763059 22:0.763177 23:0.165194 24:0.931503 25:1.162241
-1 1:-1.663793 2:1.065380 3:-0.231874 4:0.813054 5:0.827261 6:-0.227022 7:0.798409 8:-1.064609 9:1.927354 10:-1.054291 11:-0.265383 12:-2.321712 13:-0.089369 14:-0.949877 15:0.560625 16:0.246221 17:-1.470824 18:1.359512 19:2.722336 20:-0.823420 21:0.002705 22:1.371607 23:0.276709 24:-0.999835 25:-2.532059
-1 1:-0.459393 2:-1.478008 3:-1.414650 4:0.299449 5:-1.400563 6:-0.249483 7:1.231764 8:-0.298227 9:1.296035 10:0.876045 11:-1.227223 12:2.481583 13:-0.068076 14:0.221708 15:0.947129 16:-0.033244 17:0.763869 18:0.441520 19:0.475074 20:-0.003203 21:-0.579714 22:2.477625 23:0.193870 24:2.680095 25:0.072708
-1 1:0.420516 2:-0.141635 3:0.100600 4:0.778352 5:-1.206312 6:0.605831 7:0.388288 8:-0.619485 9:-0.399247 10:0.895548 11:0.918705 12:0.075076 13:0.143708 14:0.335465 15:1.344819 16:-1.391624 17:1.169797 18:0.897312 19:-1.204463 20:0.084854 21:1.481087 22:-0.915401 23:0.299670 24:0.685288 25:-0.344984
-1 1:0.738258 2:-0.853158 3:-0.536527 4:0.206369 5:0.687634 6:0.789617 7:-0.384075 8:-2.165237 9:0.189223 10:-0.055477 11:0.138027 12:0.878201 13:-1.517270 14:1.223983 15:-2.096476 16:-0.421487 17:-1.472316 18:-1.507360 19:-0.393493 20:0.632252 21:-0.704698 22:0.501839 23:1.586578 24:0.302184 25:-0.490969
-1 1:-0.080941 2:0.365218 3:1.021089 4:0.273526 5:-0.388927 6:0.336136 7:-1.290309 8:0.471430 9:0.121237 10:-3.089635 11:0.149697 12:-0.891094 13:0.732363 14:-0.002684 15:-0.888198 16:-1.810919 17:0.514616 18:-2.635565 19:-0.020370 20:-0.120004 21:-0.819524 22:0.055246 23:-0.310665 24:-1.837406 25:-0.394386
-1 1:1.116295 2:-0.082753 3:1.031898 4:0.767041 5:-0.505237 6:-0.080417 7:-1.154519 8:0.878282 9:1.024331 10:0.369365 11:2.571267 12:-0.552970 13:-0.214141 14:-0.290311 15:1.235342 16:-1.612307 17:0.613115 18:0.602212 19:-1.101457 20:-1.731862 21:-1.400904 22:-0.379850 23:0.032391 24:-0.601553 25:1.207380
-1 1:0.795109 2:0.034938 3:-0.473647 4:-0.986472 5:2.120043 6:-0.634902 7:-1.216220 8:0.053525 9:1.381804 10:-0.738786 11:-0.852734 12:-0.800748 13:-1.137453 14:-1.094836 15:0.847302 16:2.179909 17:0.788603 18:-1.090779 19:1.625994 20:1.165510 21:-0.022259 22:0.022920 23:0.204829 24:0.973862 25:0.917922
-1 1:-0.379902 2:1.839629 3:1.537697 4:-1.185760 5:-0.303899 6:2.053093 7:0.430441 8:-1.230750 9:-1.901859 10:-1.239255 11:-0.156173 12:-0.143482 13:-0.410561 14:-1.457047 15:0.705772 16:-1.303906 17:-0.491994 18:0.810721 19:0.814110 20:0.890920 21:0.582959 22:-1.021150 23:-0.125232 24:0.354683 25:1.577155
-1 1:-1.460824 2:1.608136 3:-0.833559 4:0.115600 5:-1.643056 6:-0.481952 7:-0.644266 8:-1.756501 9:-1.522396 10:1.437025 11:0.061592 12:-0.263672 13:-0.051997 14:1.033016 15:-1.285331 16:0.429533 17:0.467268 18:-0.362573 19:-0.763315 20:-1.473990 21:-1.087384 22:-0.488352 23:-2.163542 24:-1.012912 25:1.388231
-1 1:0.152066 2:-1.065622 3:0.195499 4:-0.309267 5:-0.951711 6:-0.415510 7:0.393945 8:0.021832 9:0.719801 10:0.725505 11:0.441163 12:-1.054384 13:0.056924 14:0.650310 15:-1.431299 16:-0.229770 17:-0.774839 18:1.102566 19:0.350937 20:0.517844 21:0.715421 22:0.314025 23:0.733770 24:-0.412560 25:0.428989
-1 1:0.204948 2:-0.505153 3:-0.529745 4:-0.217805 5:1.909851 6:-0.675226 7:0.689723 8:1.709216 9:1.193923 10:-0.382491 11:-0.518846 12:0.592066 13:-0.884647 14:0.770049 15:0.089207 16:0.237445 17:1.088040 18:1.369382 19:0.387200 20:1.001786 21:-2.104631 22:1.510406 23:0.218962 24:1.429572 25:-1.057655
-1 1:0.064329 2:-0.185590 3:0.020339 4:-0.295009 5:-1.531455 6:-0.602701 7:-1.515489 8:0.650143 9:-0.043666 10:0.848634 11:1.154947 12:-0.587978 13:0.970665 14:-1.174970 15:-1.403461 16:0.401055 17:-0.145934 18:-0.475585 19:0.192077 20:0.058993 21:-1.169454 22:1.294772 23:-0.776495 24:1.627653 25:-0.239512
-1 1:-0.091677 2:-0.145592 3:0.936164 4:-1.048211 5:0.870029 6:1.282117 7:1.734672 8:1.556063 9:-1.107582 10:1.213273 11:-0.981480 12:0.517035 13:0.049806 14:0.387623 15:0.389834 16:-0.671688 17:-0.494917 18:1.213977 19:1.219704 20:-0.565080 21:-0.802143 22:1.107115 23:-0.151685 24:-0.027116 25:-0.087408
-1 1:-0.801919 2:-1.627311 3:0.572354 4:-0.901516 5:-0.630175 6:-2.130527 7:-1.505474 8:-2.151873 9:1.015994 10:0.581036 11:-1.331122 12:-0.884875 13:-0.737005 14:-1.051436 15:-0.387339 16:2.134624 17:-0.381220 18:-0.102065 19:-0.662632 20:0.364197 21:1.068841 22:0.510043 23:0.836098 24:0.267851 25:0.746005
-1 1:1.033287 2:0.886179 3:-0.454780 4:0.367796 5:0.604373 6:0.499475 7:0.193749 8:1.836272 9:-0.086725 10:1.113701 11:-1.242322 12:-0.174787 13:0.451579 14:-1.212962 15:-0.941061 16:-0.949979 17:-0.418737 18:0.102080 19:0.803698 20:0.020091 21:-0.520549 22:0.493086 23:-1.107065 24:0.392291 25:0.125710
-1 1:0.412283 2:0.792235 3:0.665135 4:-0.503009 5:1.036830 6:1.198781 7:-1.614743 8:-0.052800 9:0.849534 10:-0.698094 11:-0.747376 12:-1.726040 13:1.216326 14:-1.984967 15:-1.619444 16:-0.016174 17:0.145892 18:2.364668 19:1.369600 20:-0.763317 21:-1.627985 22:-0.423237 23:1.180605 24:0.826027 25:1.619191
-1 1:-0.383255 2:-0.459748 3:-0.238192 4:0.463094 5:0.247506 6:-0.508289 7:0.003363 8:-0.529853 9:-1.866850 10:-0.216129 11:0.639233 12:-2.324850 13:0.346595 14:1.687161 15:0.471087 16:-1.193248 17:-0.450609 18:1.062944 19:1.241906 20:0.627423 21:0.131970 22:-0.217026 23:0.283154 24:-0.113044 25:-0.965002
-1 1:-1.216412 2:-1.522244 3:-0.326489 4:0.062161 5:-1.605990 6:-0.196502 7:-0.891433 8:-0.295540 9:-0.022678 10:0.284101 11:1.542591 12:0.829883 13:0.466343 14:0.437838 15:-0.342074 16:-1.022894 17:-1.184032 18:-0.756042 19:0.471655 20:-0.322668 21:0.233228 22:0.914967 23:2.911131 24:2.216517 25:0.677854
-1 1:-1.325250 2:0.214332 3:0.765569 4:0.262460 5:0.296318 6:0.162547 7:-1.675612 8:1.228631 9:-0.484142 10:0.427227 11:-0.165312 12:0.015889 13:-0.346067 14:-0.575594 15:-0.229423 16:0.173740 17:1.548801 18:0.021126 19:-0.269533 20:-1.593138 21:-0.345304 22:1.950969 23:0.434856 24:0.155155 25:-0.839490
-1 1:-0.089680 2:1.001593 3:-0.176175 4:-0.270789 5:-0.915253 6:1.692571 7:-2.613207 8:0.020532 9:-1.431717 10:-0.033941 11:-0.916744 12:0.152767 13:-0.339234 14:-0.714488 15:0.145873 16:0.247900 17:-1.703271 18:0.116587 19:-0.036546 20:0.553458 21:-0.312557 22:-0.783142 23:-0.286376 24:-0.118307 25:1.652225
-1 1:-0.925317 2:0.073139 3:0.416613 4:-1.534950 5:-1.265512 6:-0.552375 7:1.810440 8:-1.831061 9:-0.655162 10:0.682565 11:0.451028 12:0.425334 13:1.126548 14:0.595589 15:1.439134 16:1.338362 17:0.639997 18:0.739137 19:-0.085963 20:0.146620 21:1.949608 22:0.578648 23:0.405922 24:-0.037215 25:-0.637497
-1 1:0.348763 2:-1.259590 3:0.985191 4:0.951177 5:0.584911 6:-0.619926 7:-0.609975 8:0.085937 9:-1.019648 10:-0.134958 11:-0.380543 12:0.377488 13:0.440724 14:-0.624901 15:-0.060704 16:0.094815 17:-0.727522 18:-0.521444 19:0.671685 20:-0.615851 21:-0.487269 22:-1.002565 23:0.014614 24:-0.368103 25:-0.489466
-1 1:-0.032014 2:0.195918 3:0.430273 4:0.264077 5:-0.697802 6:-0.716905 7:-0.389717 8:0.344729 9:-0.569802 10:-0.855315 11:0.598338 12:-0.927953 13:-0.109257 14:2.629772 15:0.261077 16:-0.599640 17:-1.398534 18:0.857761 19:-0.888805 20:1.034084 21:0.376780 22:-1.275496 23:-0.221812 24:0.161349 25:-0.474571
-1 1:0.855999 2:0.396703 3:1.217857 4:0.039388 5:-1.835501 6:-1.612766 7:0.576803 8:2.202124 9:-0.632715 10:-0.224530 11:0.382636 12:-0.963961 13:-1.265103 14:1.595033 15:1.001048 16:0.156200 17:-0.846640 18:-0.889983 19:0.163941 20:1.307312 21:1.245930 22:0.616698 23:-0.510158 24:-1.309708 25:0.019977
-1 1:-0.074973 2:1.973843 3:1.526490 4:1.104280 5:-0.777130 6:-0.089148 7:0.153259 8:-0.463057 9:-1.401830 10:-1.525325 11:-1.369081 12:2.638331 13:-0.192241 14:1.250513 15:-2.512371 16:1.435081 17:-0.004697 18:1.367236 19:-0.900053 20:0.517135 21:0.650371 22:1.128761 23:2.510433 24:0.246974 25:0.510034
-1 1:-1.326291 2:-0.123060 3:0.686302 4:-0.585634 5:-0.044281 6:-0.334170 7:-1.253243 8:-2.255592 9:-0.218085 10:0.167749 11:-0.467958 12:-0.192884 13:0.704299 14:0.718649 15:-1.221910 16:-0.162956 17:-0.830447 18:-0.750445 19:-1.168344 20:0.382591 21:-1.735422 22:-0.203907 23:-1.207754 24:-0.347111 25:-1.836864
-1 1:-0.047225 2:-0.661778 3:0.590127 4:-0.165921 5:-0.512173 6:1.473377 7:-0.094896 8:-1.437984 9:0.540168 10:-0.542513 11:-0.956185 12:-0.741252 13:-0.151064 14:0.737314 15:-0.474752 16:-0.143345 17:0.564243 18:-1.211599 19:0.827068 20:-1.394945 21:-0.066095 22:0.366132 23:-0.154494 24:0.614594 25:-1.198051
-1 1:0.155086 2:-0.039600 3:0.715237 4:-1.246463 5:0.685504 6:-0.216922 7:0.056852 8:0.487553 9:-1.009717 10:-0.266876 11:0.349225 12:-1.992340 13:0.592131 14:0.377681 15:-1.548889 16:0.921479 17:0.330966 18:2.635826 19:0.481929 20:2.048939 21:0.782455 22:1.631854 23:0.591608 24:-0.511450 25:-1.800799
-1 1:0.392826 2:-0.745825 3:0.070225 4:1.357586 5:1.331501 6:-0.166681 7:-1.954669 8:-0.181969 9:-1.469552 10:0.407025 11:1.347621 12:-0.327860 13:-1.150936 14:1.762242 15:-0.524001 16:0.735315 17:1.490874 18:0.573588 19:1.907736 20:-1.010632 21:-0.419000 22:-0.786669 23:-1.537289 24:-0.752695 25:1.784059
-1 1:0.425304 2:-0.727660 3:-1.318434 4:0.738281 5:0.241773 6:-1.012757 7:-0.111950 8:-2.541868 9:-0.465309 10:0.480308 11:-0.560606 12:-0.185294 13:0.189633 14:2.076781 15:1.913862 16:-0.650423 17:-1.681827 18:-1.012860 19:-1.420446 20:0.651177 21:0.174999 22:0.312588 23:0.867684 24:-0.274493 25:0.371770
-1 1:-1.361670 2:1.451749 3:0.216173 4:-0.751000 5:1.889378 6:-0.729523 7:0.032821 8:-2.344314 9:-0.068499 10:0.107052 11:-0.760899 12:-1.963672 13:0.577287 14:0.317843 15:0.698681 16:2.191791 17:-0.533094 18:0.596550 19:0.320890 20:2.256299 21:-0.109229 22:0.114104 23:0.280631 24:1.354303 25:-0.018082
-1 1:-1.872045 2:1.125208 3:0.777857 4:0.853825 5:0.595653 6:0.136230 7:0.002238 8:-0.577558 9:0.053458 10:0.305571 11:1.297291 12:-0.088053 13:0.314069 14:-0.479367 15:0.494336 16:-0.084606 17:1.469432 18:-1.363035 19:1.854051 20:1.753893 21:0.852754 22:1.179990 23:-0.059633 24:1.672835 25:0.473492
-1 1:-0.735807 2:1.906703 3:1.325362 4:-0.711760 5:-0.430734 6:1.441915 7:0.079826 8:1.426480 9:-0.861225 10:0.172125 11:-1.103150 12:2.374222 13:0.160904 14:0.374361 15:-1.793255 16:-0.309537 17:0.352067 18:0.361278 19:-1.517326 20:-1.169543 21:-0.774906 22:0.458907 23:-0.305648 24:0.422456 25:1.386327
-1 1:-1.111665 2:-0.331344 3:0.209143 4:-0.709020 5:1.275058 6:0.624171 7:0.964650 8:-0.446333 9:2.401616 10:-2.415776 11:-0.939406 12:-0.719837 13:-0.175430 14:-0.859225 15:1.459767 16:0.789831 17:-1.603886 18:0.009545 19:-0.615771 20:-0.946715 21:-1.011432 22:0.033232 23:-0.304849 24:-1.206811 25:-0.052569
-1 1:-0.239484 2:-0.140054 3:-0.404579 4:1.672430 5:0.489625 6:-0.229914 7:-0.421321 8:2.036028 9:-0.218481 10:1.204072 11:-0.143296 12:-0.703450 13:0.099160 14:-0.529331 15:0.643153 16:0.411753 17:-0.338198 18:1.158665 19:-0.859888 20:-1.450653 21:-0.148175 22:-0.102199 23:1.173519 24:0.980760 25:1.418317
-1 1:0.127837 2:0.735811 3:0.882971 4:-0.841864 5:0.721455 6:1.523863 7:1.076075 8:-0.635818 9:-0.285124 10:-1.298499 11:0.398971 12:-1.201914 13:-1.599578 14:0.974264 15:-2.352428 16:1.960476 17:0.944260 18:-2.193516 19:-0.052047 20:0.770497 21:0.763901 22:-0.404326 23:0.148380 24:-1.499123 25:-1.619929
-1 1:-0.158829 2:-0.061097 3:1.068789 4:0.684180 5:-0.923692 6:0.247013 7:-0.844782 8:0.901186 9:0.195322 10:-1.098819 11:0.084347 12:-0.414285 13:-0.105731 14:-0.311746 15:-0.943693 16:1.442509 17:-1.323874 18:0.970515 19:-1.305295 20:0.431775 21:0.602598 22:1.059369 23:-0.024218 24:-0.687761 25:-1.313672
-1 1:-1.373779 2:1.273662 3:0.075650 4:-1.725347 5:-1.499515 6:0.654970 7:1.574296 8:0.472910 9:0.492796 10:-1.626176 11:0.490471 12:-0.746332 13:1.233814 14:1.522103 15:0.220854 16:0.236394 17:0.294067 18:-0.699335 19:0.431610 20:0.219255 21:-0.652716 22:1.444903 23:0.780427 24:0.556048 25:-0.577924
-1 1:-0.469161 2:0.085981 3:-0.775856 4:0.005112 5:-0.039202 6:1.907152 7:0.712542 8:1.587388 9:1.413647 10:-0.352897 11:-0.542188 12:1.728285 13:-0.820166 14:1.208911 15:0.680545 16:0.016005 17:-0.889396 18:0.545044 19:0.723534 20:-1.352024 21:-0.128689 22:-2.422889 23:-0.171420 24:1.333016 25:1.139576
-1 1:-0.943415 2:0.071949 3:1.031011 4:1.802262 5:-1.401732 6:-0.521878 7:-0.532788 8:-1.821363 9:1.163558 10:-0.512928 11:-2.137088 12:0.364633 13:0.630120 14:0.390189 15:-0.956489 16:-1.886385 17:-0.535095 18:-0.407966 19:-1.000307 20:1.697371 21:-0.015595 22:0.033067 23:-0.894642 24:0.968290 25:1.715802
-1 1:-0.396535 2:0.593342 3:0.424285 4:-1.271001 5:0.000367 6:0.892109 7:-1.562205 8:0.339087 9:-0.565018 10:0.728402 11:-1.004033 12:1.636366 13:0.083753 14:-0.672681 15:-1.417430 16:-1.084316 17:-3.248773 18:2.053240 19:1.118279 20:0.802675 21:0.023763 22:-0.316705 23:1.223297 24:2.700012 25:1.331767
-1 1:-0.946186 2:-0.812688 3:-0.799384 4:-0.651056 5:0.691707 6:-0.166731 7:1.738309 8:-0.287685 9:-0.536478 10:-0.423120 11:-0.379564 12:0.536402 13:0.789931 14:0.073717 15:-0.029416 16:1.343318 17:1.381522 18:-1.440196 19:-0.004335 20:-0.262703 21:1.406147 22:1.825566 23:-0.604817 24:-1.588120 25:-0.479346
-1 1:1.102705 2:-1.414625 3:-1.102370 4:-0.210050 5:-1.090301 6:1.428019 7:0.523022 8:-0.129575 9:-0.199525 10:0.989968 11:-0.706984 12:1.335248 13:-0.713397 14:-0.544334 15:-0.224656 16:0.272335 17:0.354373 18:2.040019 19:0.479015 20:0.343169 21:2.223024 22:0.838789 23:0.452439 24:0.015567 25:-1.589392
-1 1:1.101027 2:0.096789 3:-1.278556 4:-0.853066 5:0.187176 6:0.283776 7:2.268876 8:0.419894 9:0.028351 10:0.465496 11:-0.037821 12:0.856953 13:-1.713870 14:-0.184623 15:-2.499036 16:0.089405 17:-0.869856 18:-0.666885 19:-1.733948 20:-0.347430 21:-1.024719 22:-0.404912 23:0.000867 24:1.670114 25:0.281730
-1 1:-0.704685 2:0.411527 3:-0.458639 4:-1.163194 5:-1.034775 6:-0.811987 7:0.594319 8:0.054413 9:0.330614 10:-0.368368 11:-0.741566 12:0.098535 13:-0.796936 14:-0.173387 15:-1.470117 16:1.282318 17:-0.810908 18:-0.989834 19:-0.944628 20:-0.687976 21:-1.872676 22:0.432525 23:0.644835 24:0.491654 25:-2.371367
-1 1:0.394033 2:-1.975758 3:-0.567149 4:0.805542 5:0.614797 6:-0.181171 7:0.189707 8:0.142632 9:1.660768 10:-0.560892 11:-2.630162 12:-0.511704 13:1.345213 14:-1.267161 15:0.778690 16:0.329139 17:0.308339 18:0.221988 19:-0.880208 20:1.947241 21:-1.248671 22:0.302473 23:0.258411 24:0.007385 25:0.208383
-1 1:-1.362465 2:0.364509 3:0.862086 4:0.701018 5:1.357121 6:-1.396519 7:-0.067789 8:-1.029662 9:-0.022646 10:0.524203 11:0.076193 12:-0.033875 13:-0.118850 14:1.135552 15:-0.255838 16:-0.518282 17:1.289932 18:-0.991901 19:-1.308248 20:-0.660118 21:-0.484743 22:2.203262 23:-0.670433 24:-0.000726 25:-1.168267
-1 1:0.807017 2:-0.725297 3:1.143082 4:-2.090430 5:-0.905592 6:-0.582259 7:1.226233 8:-0.584266 9:-0.950156 10:-1.147980 11:-1.910059 12:-0.511019 13:0.871657 14:-0.295480 15:-0.220978 16:-0.774995 17:-0.944315 18:1.838295 19:0.688955 20:1.750014 21:0.680797 22:0.311994 23:0.864467 24:-1.829033 25:1.399670
-1 1:0.063483 2:1.642206 3:-0.261281 4:1.746634 5:-1.066856 6:-1.970291 7:-0.086544 8:0.107476 9:-0.083698 10:0.024489 11:-1.364329 12:0.069017 13:-1.608363 14:0.740702 15:-0.716228 16:-0.318772 17:0.170849 18:-1.922835 19:0.905302 20:0.383737 21:0.654999 22:-0.239731 23:0.206680 24:-1.008995 25:0.837819
-1 1:0.200634 2:0.285985 3:-1.052099 4:-0.261404 5:-0.195686 6:-1.257558 7:-0.098387 8:-0.519245 9:-1.158849 10:-1.679791 11:0.691546 12:1.424289 13:0.908290 14:-0.404808 15:2.614996 16:-1.995137 17:0.303567 18:0.523110 19:0.537432 20:-1.330064 21:-0.777219 22:-0.642305 23:-1.995695 24:-0.507961 25:-0.526738
-1 1:1.294129 2:1.574769 3:0.618619 4:-0.415872 5:-0.687583 6:-0.772852 7:-0.139033 8:-0.819449 9:-0.531316 10:0.607477 11:-0.236698 12:0.770116 13:0.158711 14:1.578517 15:-1.435720 16:-0.915273 17:-1.265963 18:1.495259 19:-2.333449 20:0.221846 21:0.264285 22:0.051385 23:-0.803377 24:0.832177 25:-1.054376
-1 1:-0.544118 2:0.941035 3:-0.511722 4:0.570211 5:0.488698 6:0.866043 7:-0.542182 8:-1.291418 9:0.583143 10:0.032431 11:-1.738551 12:-1.487536 13:0.420909 14:0.398924 15:-1.835777 16:-0.587411 17:-0.596312 18:-0.490769 19:-0.450847 20:0.859157 21:0.093501 22:-0.179909 23:-0.203513 24:-0.210356 25:0.410276
-1 1:0.430265 2:-0.193624 3:-1.285332 4:0.112768 5:-0.394533 6:-0.528392 7:1.189329 8:-0.576459 9:-2.033572 10:-1.615084 11:0.592632 12:-2.396456 13:-0.001789 14:0.193204 15:-0.222400 16:1.735531 17:0.808861 18:0.081783 19:0.475262 20:-0.511881 21:0.996363 22:0.365115 23:-0.928941 24:0.087133 25:0.453067
-1 1:-0.037243 2:0.064496 3:0.923754 4:-0.848445 5:-0.341711 6:-0.653091 7:-0.218675 8:1.538537 9:0.933085 10:-0.498118 11:0.392316 12:0.035945 13:-0.256127 14:-0.646166 15:-0.985886 16:1.568577 17:-0.629094 18:1.180734 19:-0.572959 20:0.425989 21:0.222725 22:-0.689754 23:0.723647 24:2.138043 25:-1.145268
-1 1:-0.271915 2:0.138179 3:-0.389727 4:-0.745136 5:1.703390 6:-0.685838 7:-0.170156 8:-1.297922 9:-0.183358 10:-1.302811 11:1.040572 12:1.798710 13:0.958317 14:0.142505 15:-1.853385 16:0.288078 17:0.596940 18:-0.262340 19:0.661112 20:-1.661604 21:0.096584 22:0.804597 23:-1.867679 24:-0.678294 25:0.268826
-1 1:0.571255 2:-1.236932 3:-1.278311 4:0.334758 5:0.206921 6:0.893358 7:-1.442781 8:0.597243 9:-1.042928 10:-1.270924 11:-0.317588 12:-1.268199 13:-0.497201 14:0.997855 15:-0.519065 16:-0.388170 17:-0.309667 18:-1.747684 19:0.414016 20:0.046569 21:0.501821 22:-0.593577 23:-0.095845 24:-0.029588 25:1.415305
-1 1:0.061867 2:0.647006 3:-0.399129 4:1.147416 5:-0.559592 6:2.314756 7:2.542889 8:-0.307126 9:-0.282026 10:0.652379 11:1.052198 12:1.660591 13:-0.534530 14:0.902166 15:0.711027 16:0.002791 17:-0.492744 18:0.543867 19:-0.824686 20:0.931764 21:1.241648 22:-0.919147 23:1.627923 24:0.890162 25:2.002550
-1 1:1.586367 2:-1.402442 3:0.774454 4:-0.115072 5:0.291305 6:-0.991695 7:0.541848 8:0.022958 9:-1.575541 10:1.121485 11:-0.833180 12:0.789781 13:0.266969 14:-0.959230 15:2.369428 16:0.668819 17:1.678823 18:0.310373 19:1.941939 20:-0.961630 21:-0.111336 22:-1.541689 23:-0.429737 24:-0.345694 25:0.402138
-1 1:-0.721937 2:-0.118758 3:-0.102475 4:-0.613452 5:-0.068882 6:0.711659 7:-1.656763 8:0.597193 9:-1.345361 10:1.025002 11:-0.252626 12:-0.827592 13:-1.952394 14:-0.322230 15:-0.208474 16:0.340508 17:0.596043 18:0.798802 19:0.516848 20:0.577969 21:-0.345404 22:0.303632 23:-0.703808 24:-0.388171 25:0.139470
-1 1:-0.411272 2:0.269446 3:-0.221322 4:1.288251 5:1.762272 6:-1.211711 7:-1.040714 8:0.542766 9:-0.304078 10:0.589796 11:-1.322276 12:0.931296 13:-0.974942 14:-0.461568 15:-0.357132 16:-0.372951 17:-0.781870 18:0.351136 19:1.247473 20:-0.000659 21:1.195244 22:1.710857 23:0.054351 24:-1.088544 25:-0.665784
-1 1:0.093184 2:0.481025 3:1.282206 4:1.175995 5:0.046562 6:1.273975 7:0.633408 8:-0.918798 9:-0.942225 10:-1.147077 11:-0.662518 12:-1.861788 13:-1.612378 14:-0.540621 15:-0.096593 16:-0.225631 17:0.600029 18:0.275441 19:-0.703845 20:0.571918 21:0.326955 22:-0.199306 23:-0.682713 24:-0.030637 25:-0.052937
-1 1:-0.674980 2:1.596198 3:-0.618414 4:-0.831560 5:0.189359 6:1.040496 7:-1.354738 8:-1.547204 9:0.185633 10:-0.609298 11:-1.786762 12:0.032571 13:0.522413 14:-0.173637 15:-0.640116 16:-0.845532 17:-0.619915 18:-0.100535 19:-0.878211 20:-0.210245 21:-1.538960 22:-0.278306 23:-0.429921 24:0.798991 25:-0.352096
-1 1:-1.088798 2:0.561954 3:-0.289101 4:-1.923862 5:0.212703 6:-0.225575 7:-0.157760 8:1.134955 9:0.362144 10:-0.705412 11:0.738573 12:-0.742764 13:-0.909399 14:2.006411 15:-0.296384 16:0.475318 17:1.040806 18:-0.055252 19:-1.604084 20:-0.097068 21:0.545319 22:-0.200902 23:-0.767771 24:0.260855 25:0.824785
-1 1:-0.183586 2:-0.503156 3:-0.911942 4:-2.028922 5:0.334627 6:0.098604 7:-0.459793 8:-0.228888 9:-1.633430 10:0.013749 11:-1.556539 12:-0.270033 13:0.509355 14:-1.597161 15:-0.410744 16:0.487919 17:-0.583702 18:-1.089174 19:-0.560469 20:-0.432485 21:3.453900 22:-0.707980 23:-0.802795 24:-0.633823 25:1.158279
-1 1:0.003727 2:1.046917 3:0.510216 4:0.186405 5:-0.108323 6:-0.703068 7:0.366253 8:0.079920 9:0.903258 10:0.886877 11:1.669514 12:0.109503 13:-2.639041 14:0.043091 15:-0.240143 16:-0.075000 17:0.932820 18:-0.414168 19:-0.262494 20:-0.606275 21:-0.703850 22:-0.252255 23:1.161470 24:0.393879 25:-0.335101
-1 1:0.526104 2:-0.394720 3:-0.616254 4:1.153583 5:0.774989 6:-0.699777 7:-0.274893 8:-0.989098 9:0.803007 10:-1.386887 11:-1.700906 12:0.892514 13:-0.420073 14:0.437636 15:-1.653075 16:-0.445592 17:-0.766874 18:-0.319586 19:-1.335814 20:0.284701 21:-0.520981 22:2.072290 23:-1.790544 24:1.940321 25:1.301285
-1 1:-0.553951 2:-2.738595 3:-0.411831 4:0.910874 5:1.532885 6:-0.314229 7:0.802202 8:-0.370058 9:-0.130875 10:0.588088 11:1.254353 12:-1.998032 13:-0.107395 14:0.693118 15:0.621061 16:0.763664 17:-0.257546 18:0.403388 19:1.509864 20:0.719955 21:0.242748 22:0.766029 23:-0.927058 24:-0.366010 25:-0.917138
-1 1:0.710946 2:-0.618437 3:-0.712079 4:-0.162731 5:1.460317 6:-0.297727 7:0.536770 8:1.970508 9:-1.856574 10:-2.150526 11:1.255510 12:-0.540555 13:0.146269 14:0.228047 15:0.298291 16:-1.400947 17:1.382920 18:-0.155249 19:-0.259691 20:-0.051548 21:-0.963540 22:-0.479377 23:0.536361 24:1.491988 25:1.197360
-1 1:0.447105 2:-1.349778 3:0.203432 4:2.089123 5:-1.123170 6:0.903050 7:-0.210249 8:-1.344269 9:0.293404 10:-1.436496 11:-0.384403 12:-0.493962 13:-0.873919 14:-0.156743 15:-0.355238 16:-0.594103 17:-2.174324 18:0.409492 19:1.687724 20:-0.641047 21:0.110022 22:1.205983 23:0.533333 24:0.222958 25:0.470586
-1 1:-1.154706 2:1.078026 3:1.624381 4:0.130964 5:-0.099482 6:0.403842 7:0.110477 8:1.360849 9:-1.614177 10:0.944946 11:-1.029080 12:0.957412 13:-0.963423 14:-0.223481 15:0.409300 16:-0.098118 17:1.794134 18:0.084365 19:1.906004 20:-0.032345 21:0.515607 22:2.028456 23:0.085441 24:-0.094567 25:0.282786
-1 1:-0.166335 2:1.528388 3:-0.149183 4:-0.110401 5:-0.207165 6:1.282053 7:1.200067 8:-0.717379 9:-1.103961 10:1.306686 11:0.632127 12:-0.507265 13:0.336754 14:-1.206780 15:-0.347543 16:-0.002809 17:-0.572148 18:-0.059012 19:0.366987 20:0.944469 21:-0.561739 22:-0.534601 23:0.299158 24:-1.044634 25:1.991469
-1 1:-0.547003 2:0.582245 3:-0.277539 4:-0.022174 5:-0.524048 6:0.753860 7:1.319574 8:-0.464628 9:0.293055 10:-0.548315 11:0.950771 12:0.821274 13:1.124636 14:0.400921 15:1.407375 16:0.297812 17:-1.256725 18:-0.177821 19:0.463890 20:1.741190 21:0.197844 22:0.439827 23:-0.565181 24:0.007384 25:-0.697799
-1 1:1.114783 2:-0.547086 3:1.301227 4:-0.757276 5:0.498936 6:-0.276970 7:-0.410953 8:0.186236 9:-0.819772 10:1.051429 11:1.182552 12:1.424919 13:0.129876 14:-0.563618 15:-0.836632 16:0.304975 17:-0.819809 18:-1.083864 19:-1.527818 20:0.985339 21:-0.463922 22:0.270584 23:0.295387 24:0.298082 25:2.004340
-1 1:0.165544 2:0.575828 3:-0.718574 4:0.126548 5:0.721117 6:0.834382 7:1.276123 8:-0.834285 9:-0.863908 10:-0.792762 11:1.909329 12:-1.421557 13:0.071046 14:0.456391 15:-1.191268 16:0.179823 17:0.571107 18:-0.258112 19:0.681205 20:1.072480 21:-1.085395 22:0.404802 23:-1.216101 24:-0.601266 25:0.504128
-1 1:-0.461017 2:-1.025550 3:-0.214810 4:-1.314925 5:0.823208 6:0.087754 7:-0.763447 8:-0.901413 9:0.325309 10:-1.434195 11:1.069844 12:-0.427759 13:1.661317 14:-0.541175 15:0.323078 16:-0.179636 17:-2.158263 18:1.275683 19:-0.330694 20:-0.907685 21:0.788528 22:-2.029691 23:0.224242 24:-0.212337 25:-1.395267
-1 1:-0.368292 2:0.421324 3:1.048705 4:-1.744710 5:0.105290 6:-1.138984 7:2.492675 8:-0.754675 9:1.767423 10:-0.274769 11:1.199998 12:1.268072 13:0.791037 14:0.073794 15:-0.799241 16:0.141210 17:0.408672 18:0.271809 19:1.317344 20:-2.875916 21:1.025933 22:-1.690793 23:0.238709 24:-1.722956 25:0.873215
-1 1:1.645410 2:-1.119478 3:-1.363482 4:-0.612011 5:-1.568925 6:-0.686593 7:0.601427 8:-0.119942 9:0.332523 10:0.422923 11:1.600967 12:-0.665460 13:0.573980 14:-1.208625 15:-0.642999 16:1.286028 17:-0.550639 18:0.624663 19:0.085497 20:-0.048813 21:-1.769530 22:2.158166 23:0.206228 24:-1.472452 25:-0.336063
-1 1:-0.826499 2:0.798346 3:1.482783 4:1.306393 5:-0.833106 6:-0.605225 7:-1.564099 8:-0.956629 9:0.899614 10:0.351073 11:0.235134 12:0.502936 13:-1.293815 14:0.584338 15:2.095494 16:-0.160642 17:0.421090 18:0.232109 19:-1.166654 20:-0.343153 21:-0.717428 22:2.164938 23:-0.169823 24:-0.795661 25:-0.400874
-1 1:-0.994057 2:-0.875817 3:-0.126050 4:1.520124 5:-0.345868 6:1.497266 7:0.162538 8:-0.758883 9:0.685383 10:-0.578550 11:-1.091883 12:0.796064 13:-0.003431 14:-1.090278 15:-1.173323 16:0.345085 17:2.916469 18:0.945386 19:-0.421865 20:-0.667732 21:0.760762 22:1.179394 23:-0.421726 24:-1.146320 25:-0.578707
-1 1:0.039924 2:1.168500 3:-1.074893 4:0.440538 5:-1.105142 6:-1.557349 7:-0.276871 8:-1.095218 9:0.401654 10:1.877471 11:-0.283535 12:0.106962 13:-0.257047 14:-0.838929 15:-0.628756 16:0.690451 17:1.276321 18:-0.009907 19:-0.975590 20:0.119072 21:-0.550921 22:-1.429834 23:-0.855701 24:0.276786 25:1.118029
-1 1:-0.950495 2:0.065718 3:1.415023 4:0.294071 5:-1.112885 6:0.844591 7:1.631452 8:0.309348 9:1.395854 10:-0.178616 11:0.992832 12:-0.284877 13:1.572877 14:0.848697 15:0.241985 16:0.987461 17:0.161635 18:1.221660 19:0.814091 20:-0.041044 21:0.735760 22:-0.303180 23:-0.022322 24:-0.251114 25:1.551503
-1 1:0.536502 2:-0.256466 3:1.329380 4:0.878669 5:0.935739 6:-1.036382 7:-0.062701 8:-1.414343 9:0.067486 10:-0.606022 11:0.359624 12:-1.378972 13:-1.592212 14:-0.947169 15:-0.584457 16:0.042134 17:2.235466 18:-0.040223 19:0.214378 20:-0.743536 21:-1.163554 22:-0.971449 23:-0.182345 24:-0.856169 25:-0.462318
-1 1:-0.286817 2:-1.299691 3:0.150664 4:0.870548 5:-0.978315 6:0.069464 7:2.139269 8:-0.860292 9:0.752981 10:-1.598211 11:0.075894 12:-0.682621 13:-0.622639 14:2.025982 15:-0.468379 16:1.488725 17:-0.294745 18:2.254744 19:-0.854187 20:-0.210554 21:0.570128 22:-1.018098 23:0.292007 24:1.404375 25:-0.646192
-1 1:1.469022 2:-0.841950 3:-0.764644 4:-0.049318 5:-2.375950 6:1.105344 7:-0.584317 8:1.239756 9:0.125115 10:-1.293224 11:1.334773 12:-1.089196 13:-0.611246 14:0.933499 15:-0.994371 16:0.150632 17:-1.685232 18:0.268677 19:-0.664849 20:0.569570 21:0.046598 22:-1.188565 23:0.442213 24:0.296374 25:-0.239484
-1 1:1.870288 2:0.160117 3:-0.355240 4:1.208194 5:0.404689 6:0.706758 7:1.124976 8:-1.213613 9:1.191457 10:0.549369 11:0.630098 12:-0.681690 13:0.989998 14:0.609699 15:0.990286 16:-0.841247 17:-0.007477 18:-0.335775 19:-0.185334 20:0.573106 21:-0.266680 22:-1.830976 23:0.053716 24:-0.099636 25:0.129255
-1 1:-1.336094 2:-0.655150 3:-1.939643 4:1.315962 5:0.141902 6:1.057155 7:-0.305022 8:-2.409780 9:1.343943 10:-0.801519 11:0.422250 12:-1.797006 13:1.958510 14:0.768351 15:1.098230 16:-1.813104 17:0.223284 18:0.487153 19:2.669467 20:-1.864416 21:-1.734354 22:0.758359 23:-1.196728 24:0.030281 25:0.175777
-1 1:-0.888355 2:0.346265 3:-0.794008 4:-0.113213 5:-0.834029 6:0.245220 7:-0.662223 8:1.489921 9:-1.354675 10:0.148382 11:0.067722 12:0.702975 13:1.745614 14:0.782014 15:-0.460404 16:-0.769289 17:0.956919 18:1.295451 19:0.652430 20:0.352821 21:-2.837870 22:0.279283 23:-0.649370 24:1.535695 25:-0.581704
-1 1:-0.812375 2:0.804865 3:1.118727 4:-0.218329 5:-0.099357 6:-0.267378 7:-0.619811 8:-0.776358 9:1.807513 10:1.004888 11:0.445378 12:0.161264 13:1.165857 14:0.882486 15:-1.459981 16:0.858448 17:-0.136105 18:-0.406856 19:-1.402171 20:0.641688 21:0.646045 22:-1.372825 23:-0.130781 24:0.937002 25:-1.933802
-1 1:0.398704 2:-0.305461 3:0.037390 4:0.030208 5:0.654540 6:-1.432414 7:0.969323 8:0.474697 9:0.235357 10:1.194278 11:-1.700055 12:2.308693 13:2.633315 14:1.781872 15:-0.051699 16:0.877383 17:-1.334924 18:-0.267386 19:-1.844636 20:0.586936 21:-0.143840 22:-0.381993 23:-1.406609 24:1.162333 25:-0.310783
-1 1:-1.204844 2:0.071800 3:0.681895 4:-0.457992 5:-1.177055 6:0.441888 7:-0.632303 8:1.955484 9:-0.641093 10:1.882996 11:-1.623930 12:-0.590483 13:-1.163537 14:0.026151 15:-0.605549 16:1.325629 17:-1.002215 18:-0.936784 19:-0.526523 20:0.705731 21:1.945050 22:0.158702 23:-0.161035 24:-0.706761 25:1.292203
-1 1:0.917496 2:1.269024 3:0.815724 4:0.643658 5:-0.388915 6:0.006210 7:-0.454976 8:1.026016 9:0.010073 10:-0.100451 11:-1.606096 12:-0.299255 13:0.471139 14:-0.378865 15:-1.023399 16:0.546120 17:-0.313394 18:-0.552238 19:-0.815709 20:-1.094472 21:0.713736 22:0.159352 23:1.677732 24:0.982104 25:0.768979
-1 1:-1.594841 2:-0.606271 3:0.815627 4:1.850763 5:-0.718774 6:0.829886 7:-0.610838 8:0.875671 9:-0.055786 10:0.207253 11:-1.721984 12:-1.086349 13:0.565201 14:-2.097925 15:-0.242295 16:1.118612 17:-0.462068 18:0.647299 19:0.496275 20:-0.844948 21:-1.144633 22:-0.252365 23:0.975876 24:-0.686372 25:-1.162788
-1 1:0.081932 2:-0.677862 3:0.753964 4:0.090733 5:1.129696 6:-0.099266 7:-0.842322 8:-0.780765 9:0.342700 10:1.996373 11:0.402484 12:-0.515925 13:0.042494 14:0.554474 15:-0.259320 16:-0.653931 17:-0.295104 18:-0.086019 19:0.247281 20:-0.066231 21:-0.394874 22:0.239608 23:0.466819 24:1.049777 25:-0.901213
-1 1:-1.425777 2:-0.181242 3:2.046988 4:-2.353488 5:-0.999081 6:0.470433 7:-1.659438 8:-0.377599 9:-0.905352 10:-0.938156 11:-0.821911 12:0.394517 13:1.082707 14:-1.039646 15:-1.293472 16:-1.607716 17:0.197490 18:1.513776 19:0.276431 20:0.674407 21:-1.269808 22:0.211850 23:1.872864 24:-0.070525 25:-1.797348
-1 1:-1.595690 2:0.116111 3:0.285230 4:0.261314 5:-0.254400 6:1.437196 7:0.386587 8:-1.345581 9:-0.425942 10:0.208742 11:0.903582 12:-0.852626 13:1.008372 14:-0.955317 15:0.625902 16:-0.346126 17:0.620952 18:-0.073552 19:-1.372513 20:-0.037395 21:-1.574536 22:0.537223 23:-0.580956 24:-0.489049 25:-1.259899
-1 1:0.008946 2:0.946183 3:0.975875 4:-1.169449 5:2.818822 6:-0.624220 7:0.407080 8:0.222156 9:-0.788979 10:-0.984772 11:0.076925 12:-0.110486 13:-0.604023 14:1.531988 15:-0.922650 16:0.674029 17:-0.640926 18:0.482039 19:-0.383593 20:-0.509145 21:0.873767 22:-2.300817 23:0.069257 24:0.965601 25:-1.080948
-1 1:0.208495 2:0.547503 3:1.381472 4:1.478309 5:-1.728298 6:-0.056449 7:0.841430 8:0.668510 9:1.717552 10:0.028193 11:0.368680 12:-0.269873 13:-0.196265 14:-0.280920 15:-0.199435 16:-1.370794 17:0.394974 18:-0.346663 19:-1.229677 20:0.985302 21:-0.246240 22:-0.582959 23:1.336370 24:-0.970300 25:-0.689589
-1 1:-0.221116 2:0.886218 3:-0.567322 4:-0.226400 5:0.819818 6:-1.213917 7:0.446759 8:-0.106712 9:2.071007 10:-0.174848 11:0.345933 12:-0.023981 13:-0.461377 14:-2.393858 15:-0.645295 16:0.090144 17:0.769167 18:0.096659 19:0.049215 20:0.590034 21:0.992666 22:-0.808378 23:2.185788 24:0.472892 25:-0.649143
-1 1:0.834396 2:0.081295 3:0.765116 4:-0.420122 5:-1.165119 6:2.645329 7:-0.005557 8:-0.366408 9:0.798367 10:0.274937 11:0.970963 12:-0.019033 13:0.214271 14:0.521271 15:-0.894102 16:-0.812071 17:0.940046 18:0.652233 19:0.780925 20:-1.944070 21:0.979493 22:0.124499 23:0.175037 24:-1.536059 25:1.937377
-1 1:0.566495 2:0.654268 3:-0.049411 4:-0.466075 5:0.378522 6:0.840263 7:1.001505 8:-1.238206 9:0.188480 10:0.127478 11:1.052518 12:0.111457 13:-0.312459 14:0.090772 15:0.578352 16:-0.985110 17:1.029343 18:1.221525 19:0.007339 20:-0.452027 21:0.111287 22:-0.459551 23:2.327142 24:-1.784627 25:0.310301
-1 1:-1.650610 2:1.656769 3:0.761519 4:0.069591 5:-0.080853 6:-1.228564 7:-1.772306 8:-1.261309 9:-2.008270 10:0.391888 11:-0.283233 12:-0.396108 13:0.278923 14:1.996237 15:-1.013203 16:1.470184 17:0.945106 18:2.270176 19:-0.595083 20:-1.848321 21:0.901760 22:0.304926 23:-2.572701 24:-0.159008 25:-0.137884
-1 1:-0.270178 2:0.115789 3:-0.881433 4:-0.173595 5:1.062390 6:-1.165636 7:-0.900167 8:-0.517142 9:0.099752 10:-0.402057 11:0.648883 12:1.097105 13:-1.265627 14:1.575742 15:0.896393 16:0.286959 17:-1.107434 18:-0.524439 19:0.055882 20:0.178824 21:0.887389 22:-0.736980 23:-0.573243 24:0.496156 25:0.886162
-1 1:0.477743 2:-0.005857 3:0.017520 4:0.104172 5:-0.756978 6:1.246605 7:-0.313677 8:2.280842 9:-0.746464 10:-0.265422 11:-0.068898 12:0.238650 13:-1.964524 14:-1.871952 15:-0.102359 16:1.282648 17:0.271069 18:-0.486109 19:-0.910095 20:0.998869 21:0.005735 22:-0.772001 23:0.175249 24:1.162618 25:1.025013
-1 1:0.198651 2:1.463515 3:0.988302 4:0.546939 5:-0.119921 6:0.671859 7:1.076977 8:-1.009485 9:-0.125968 10:0.312088 11:-0.283105 12:0.108656 13:1.496199 14:1.107558 15:-1.424440 16:0.953345 17:-1.454732 18:-0.670368 19:-0.370306 20:-1.326199 21:-1.076676 22:-0.096960 23:-0.078966 24:0.490038 25:-1.768902
-1 1:-0.626720 2:0.815569 3:-0.001176 4:-0.936227 5:-2.354446 6:-1.471586 7:0.946785 8:0.315319 9:-0.167543 10:-1.246107 11:-0.790779 12:-1.206716 13:1.026640 14:-0.472129 15:2.031575 16:0.789865 17:0.735087 18:-2.777049 19:0.393760 20:-0.241781 21:-0.347684 22:1.633589 23:1.105004 24:0.047219 25:1.398115
-1 1:2.242463 2:0.558632 3:1.937858 4:-0.492574 5:-1.997543 6:-0.777971 7:1.136919 8:-1.060839 9:0.752609 10:-0.708997 11:-1.086230 12:0.541522 13:1.495389 14:-1.670499 15:-0.067468 16:-0.245081 17:1.062183 18:0.630950 19:0.306740 20:-0.807467 21:-1.272767 22:0.464966 23:0.941971 24:-1.854399 25:-0.151794
-1 1:-0.794053 2:-0.166179 3:1.008342 4:-1.220142 5:0.122343 6:0.166186 7:0.042498 8:0.365694 9:-0.360723 10:1.431377 11:1.205801 12:1.202568 13:-1.194395 14:0.458907 15:0.819875 16:0.786940 17:-0.055559 18:-0.285972 19:1.184775 20:0.881202 21:-0.764586 22:-0.355921 23:1.696121 24:-2.487888 25:0.344173
-1 1:-0.142173 2:-0.091136 3:-1.136401 4:1.571050 5:1.991639 6:-1.028358 7:-0.330561 8:-0.680318 9:-0.081461 10:-0.137243 11:0.949012 12:0.163098 13:0.165221 14:-0.266915 15:1.276965 16:-0.312860 17:-0.690752 18:0.056812 19:0.669797 20:-1.747643 21:0.160982 22:0.253229 23:0.426612 24:-2.037683 25:-0.309038
-1 1:-0.411062 2:-2.856994 3:-1.379938 4:-0.279239 5:-1.104884 6:-0.453098 7:0.514923 8:0.831395 9:0.550890 10:0.754347 11:-0.112516 12:1.198165 13:-1.467988 14:-0.435321 15:0.533555 16:-0.047693 17:-0.519801 18:1.605302 19:1.665481 20:1.476731 21:-0.163221 22:1.079152 23:-1.857598 24:0.069386 25:-1.891787
-1 1:0.321184 2:0.636474 3:1.894017 4:-0.942470 5:-1.314360 6:-0.740162 7:-1.134231 8:0.003597 9:-3.351911 10:-0.280914 11:-0.035485 12:0.687953 13:-0.583293 14:-0.199876 15:-0.667772 16:-0.052531 17:-0.925977 18:-1.085477 19:-0.435659 20:-1.184010 21:-1.702600 22:1.087936 23:-1.111271 24:0.284736 25:0.782650
-1 1:0.769559 2:1.040366 3:0.776409 4:1.269653 5:-0.776642 6:0.320793 7:2.894984 8:-1.137506 9:0.391534 10:0.489775 11:-0.202768 12:-1.054980 13:-0.610665 14:0.004276 15:0.498042 16:1.246865 17:-1.253708 18:0.337921 19:-0.193747 20:-1.067080 21:-1.361923 22:1.038506 23:0.170833 24:0.678395 25:0.935589
-1 1:-0.549038 2:-0.026783 3:-0.302054 4:-0.881980 5:0.089636 6:0.787872 7:-0.162313 8:-0.367882 9:-0.218393 10:-0.603968 11:0.777305 12:0.517310 13:-2.158974 14:-0.488334 15:-1.740016 16:1.383110 17:1.950173 18:0.164478 19:0.522546 20:1.014794 21:0.798359 22:0.052516 23:0.050974 24:-1.619002 25:-0.001424
-1 1:-0.099513 2:-1.213056 3:0.488236 4:-0.398929 5:1.020849 6:0.003848 7:2.492603 8:0.021281 9:-0.373738 10:0.702216 11:0.454040 12:1.750944 13:-0.688939 14:-0.150415 15:-0.352467 16:-0.293692 17:-0.749336 18:-0.069867 19:0.158304 20:0.145337 21:-0.916050 22:1.374981 23:0.273433 24:0.040459 25:0.977873
-1 1:0.408733 2:-1.028380 3:-0.891102 4:-1.168103 5:-1.382796 6:-0.634269 7:-0.629985 8:1.360182 9:-0.624654 10:-1.536855 11:-0.863524 12:-0.847425 13:0.590153 14:-0.762406 15:0.633202 16:0.914016 17:-1.109314 18:-1.255096 19:1.117450 20:0.900533 21:0.729813 22:-0.581048 23:1.052312 24:0.994409 25:-0.327421
-1 1:-0.469102 2:0.609862 3:0.977606 4:-0.998083 5:-0.445263 6:0.967260 7:0.049450 8:0.319384 9:0.077457 10:0.990533 11:0.436408 12:-1.061339 13:-1.162991 14:-0.696398 15:0.274382 16:-0.104208 17:0.357137 18:0.201187 19:1.773118 20:1.566780 21:-1.608569 22:-1.210585 23:-0.157439 24:-1.328744 25:0.434557
-1 1:-0.963983 2:1.201167 3:0.342061 4:0.143784 5:-0.200663 6:-1.920214 7:1.222249 8:2.300443 9:0.654837 10:1.184133 11:0.118159 12:0.003013 13:-1.336681 14:0.756647 15:-0.486751 16:1.009150 17:-0.908196 18:-1.442574 19:-1.898658 20:0.930561 21:0.454626 22:0.335418 23:-0.382580 24:0.606701 25:0.348345
-1 1:-0.696209 2:0.569317 3:-1.364251 4:0.343025 5:2.045012 6:-0.356820 7:-0.665043 8:0.572263 9:-0.865848 10:1.729611 11:-1.001391 12:0.697706 13:-1.251413 14:-0.854249 15:1.354432 16:0.195964 17:0.786703 18:1.067885 19:0.208996 20:-0.263541 21:0.271799 22:-0.650833 23:1.175696 24:1.539185 25:1.085020
-1 1:0.008088 2:-1.632905 3:0.293584 4:0.852632 5:1.116565 6:0.856871 7:-0.114012 8:0.846584 9:-1.704523 10:0.836523 11:2.276543 12:-0.724327 13:-0.572099 14:0.907102 15:-0.090355 16:0.265648 17:0.454197 18:0.006519 19:-0.162584 20:-0.545390 21:-0.843958 22:-0.810479 23:-1.201051 24:1.172377 25:0.156918
-1 1:-1.869260 2:0.908461 3:-1.020424 4:0.125474 5:1.933457 6:-0.336165 7:-1.794779 8:-1.856380 9:-1.873443 10:-0.256662 11:0.826578 12:0.316561 13:-0.270570 14:1.003219 15:-0.985204 16:-0.281952 17:-0.003620 18:-0.290052 19:-1.359848 20:0.793930 21:0.387650 22:-0.988612 23:1.287825 24:0.933085 25:-1.635036
-1 1:0.009681 2:-0.201970 3:0.301508 4:0.039903 5:-1.270265 6:-0.087408 7:-0.169279 8:-0.226175 9:0.171407 10:-0.060880 11:-0.897617 12:0.231166 13:-1.173239 14:-0.843925 15:-0.083164 16:-1.175776 17:-1.614335 18:-0.290082 19:-1.037905 20:0.383951 21:0.515692 22:-1.226427 23:0.126487 24:0.511103 25:0.006404
-1 1:-0.127873 2:0.456430 3:1.105648 4:-0.248283 5:-0.842675 6:-0.441036 7:0.299635 8:1.434068 9:0.061946 10:1.024956 11:0.946354 12:0.285848 13:-0.230095 14:1.573278 15:1.675701 16:-0.151469 17:-1.843954 18:-0.657731 19:0.414453 20:-0.804013 21:0.487092 22:-0.189403 23:1.432240 24:2.765927 25:0.562841
-1 1:1.855962 2:1.201811 3:-0.507098 4:1.680570 5:1.132908 6:1.089363 7:-1.173244 8:-0.345576 9:0.624019 10:0.590189 11:1.000918 12:-0.499181 13:0.118029 14:-0.925237 15:-0.089788 16:-0.532823 17:0.184109 18:-0.867968 19:-1.550660 20:-2.281133 21:-2.626461 22:-0.884501 23:-0.455184 24:0.382314 25:-1.473665
-1 1:1.847076 2:-0.954912 3:-2.215119 4:-0.289301 5:1.591460 6:-0.611762 7:0.039332 8:0.859469 9:1.064397 10:0.204987 11:2.019901 12:0.995438 13:-0.309578 14:1.213056 15:1.061581 16:-0.756489 17:-0.682773 18:0.296425 19:-0.953683 20:-0.758593 21:-0.771511 22:1.775054 23:-1.655842 24:0.435224 25:-0.522102
-1 1:1.469629 2:0.460977 3:1.552885 4:0.792934 5:1.830425 6:1.428593 7:2.065957 8:-1.807936 9:-1.120113 10:0.711942 11:1.129959 12:-0.075807 13:0.777291 14:-1.219419 15:1.633887 16:0.623691 17:0.080277 18:0.750226 19:-2.049368 20:-0.501917 21:1.393480 22:-0.941979 23:-0.469917 24:-0.841744 25:-0.607745
-1 1:1.178190 2:0.508849 3:0.467662 4:0.148006 5:-0.417323 6:-1.105836 7:0.213531 8:0.612732 9:0.398402 10:0.679357 11:-0.527145 12:0.223639 13:2.220388 14:0.253855 15:1.866187 16:-2.571824 17:-0.406393 18:-0.232818 19:0.736659 20:-0.337631 21:-0.610877 22:0.536457 23:0.452785 24:1.623994 25:-0.135896
-1 1:-1.621485 2:0.081503 3:1.042173 4:-3.027156 5:-0.634869 6:0.460276 7:-1.722944 8:-0.504852 9:-2.461642 10:0.526654 11:-0.180533 12:-0.531973 13:-1.694091 14:0.408157 15:2.547969 16:0.305141 17:-0.053115 18:-1.271028 19:-1.094676 20:0.754863 21:-1.358447 22:-2.711878 23:-0.325602 24:1.758171 25:-1.442177
-1 1:0.403706 2:0.265041 3:-0.360116 4:-0.005430 5:0.133647 6:0.399515 7:0.060400 8:-0.375509 9:-0.336849 10:0.767083 11:-1.174014 12:-0.190623 13:-2.127494 14:-0.241231 15:-2.088168 16:-0.330095 17:-0.753816 18:-0.246117 19:-1.624272 20:0.260889 21:-1.811555 22:-0.989479 23:-0.273000 24:0.331933 25:1.451918
-1 1:2.028550 2:0.435409 3:1.136589 4:-0.290547 5:0.420021 6:0.336468 7:-0.943191 8:0.894035 9:-0.630929 10:-1.554363 11:-1.869769 12:-0.145696 13:0.366826 14:-0.118744 15:1.110144 16:0.208460 17:0.672562 18:0.744118 19:-1.948254 20:-0.983196 21:1.695855 22:-1.364296 23:0.214135 24:0.898226 25:0.992114
-1 1:-1.271749 2:2.509026 3:-0.261109 4:-0.531180 5:1.404193 6:0.474192 7:-1.632260 8:0.863453 9:-0.562429 10:-0.086069 11:-2.236054 12:-0.042909 13:-1.480437 14:0.991358 15:-0.214926 16:0.196711 17:-1.269723 18:-1.537153 19:1.068644 20:-0.299084 21:-0.511851 22:-0.670445 23:-0.697441 24:0.844731 25:-1.099812
-1 1:1.774664 2:-0.075138 3:0.825343 4:-0.138644 5:-0.826325 6:-1.039530 7:-0.564016 8:-1.152146 9:1.379208 10:-1.482857 11:1.149682 12:-0.633869 13:-0.862588 14:1.268194 15:0.613352 16:-1.072802 17:0.687096 18:-1.137929 19:-0.200162 20:-1.836132 21:-1.060998 22:-2.696165 23:2.226310 24:1.388312 25:0.038957
-1 1:-0.918004 2:-0.993450 3:-1.150955 4:0.538164 5:1.026074 6:-0.275839 7:-0.035560 8:0.770922 9:1.484206 10:0.260377 11:-1.273169 12:-0.010999 13:0.472718 14:0.750952 15:1.314324 16:1.126499 17:0.448536 18:-1.140930 19:1.533800 20:-0.213454 21:-1.166755 22:1.380482 23:-1.814681 24:0.909947 25:0.483687
-1 1:0.127406 2:0.276828 3:0.480976 4:-0.048663 5:0.204042 6:-0.726951 7:-0.924630 8:1.925149 9:0.756034 10:1.073435 11:1.060906 12:-1.377742 13:0.284479 14:0.865088 15:0.811697 16:0.474246 17:-1.708483 18:-0.801143 19:0.322348 20:-0.578623 21:-0.705850 22:-0.587483 23:-0.852963 24:-0.480902 25:0.729701
-1 1:-1.062576 2:-1.246135 3:-0.636755 4:-0.419371 5:-1.936535 6:-0.642167 7:-0.849410 8:-0.430501 9:-0.368040 10:-0.202741 11:-1.372416 12:0.234931 13:-3.428737 14:-0.003274 15:0.800252 16:0.642505 17:-1.869046 18:1.188340 19:2.478646 20:-0.127941 21:-0.721093 22:-0.295497 23:1.164976 24:-0.975080 25:-0.129037
-1 1:-0.417337 2:-1.808354 3:0.395820 4:-0.781212 5:-1.017747 6:2.289350 7:-1.784451 8:0.894865 9:0.893347 10:0.059179 11:-1.860737 12:0.326370 13:0.159490 14:-0.665981 15:0.825961 16:-0.976741 17:-0.953804 18:0.921641 19:1.768537 20:1.172290 21:-1.101680 22:-1.067467 23:0.174131 24:-0.498596 25:0.686658
-1 1:2.266829 2:0.607383 3:0.628247 4:0.223900 5:1.613236 6:-0.602691 7:-0.079813 8:0.869530 9:-0.675456 10:-0.533646 11:0.081878 12:-0.948277 13:-0.520669 14:-0.341218 15:-0.052565 16:-0.130883 17:-0.202436 18:-1.921957 19:-1.210961 20:-0.245216 21:0.069655 22:-1.133934 23:-1.964991 24:-0.478962 25:-0.851828
-1 1:0.080445 2:-0.665834 3:0.789366 4:-0.440786 5:-1.993693 6:-0.492251 7:0.646795 8:1.269376 9:-1.618552 10:0.875582 11:0.424057 12:0.678984 13:-0.325953 14:-0.333255 15:0.478514 16:-0.169728 17:-0.467247 18:-1.335614 19:-0.069133 20:1.233314 21:0.545267 22:-0.973825 23:-0.427783 24:-1.548069 25:-0.364146
-1 1:0.582825 2:-1.018685 3:-1.182957 4:1.303753 5:0.562885 6:-1.096257 7:0.189119 8:0.005589 9:0.865997 10:-0.106256 11:-0.163334 12:1.261485 13:-0.556560 14:-2.102477 15:0.045470 16:1.201350 17:-0.977021 18:-0.496289 19:1.019799 20:-0.197985 21:1.725836 22:-1.040417 23:0.554089 24:-1.419377 25:-0.145983
-1 1:0.017315 2:-1.415984 3:1.927733 4:-0.175760 5:-0.809104 6:-0.134918 7:0.069063 8:-0.304594 9:0.255646 10:0.261233 11:-0.588914 12:0.577165 13:0.131705 14:1.560967 15:0.239767 16:0.417946 17:1.383768 18:0.758970 19:-0.275267 20:0.513745 21:-0.458297 22:0.315809 23:0.881617 24:0.353233 25:-0.950200
-1 1:0.723751 2:-0.569374 3:-1.460295 4:-0.283472 5:-1.240362 6:-0.492687 7:0.720638 8:0.320517 9:0.332490 10:-0.353642 11:-1.489041 12:-0.159838 13:0.165293 14:-0.562742 15:0.500153 16:0.249213 17:-0.165044 18:0.679865 19:0.555952 20:1.419852 21:-0.064583 22:1.062469 23:-0.462135 24:-0.194046 25:-0.251503
-1 1:-0.961603 2:0.793479 3:0.375943 4:1.511060 5:-0.232341 6:0.096150 7:-0.124818 8:-0.403285 9:0.580435 10:-0.718179 11:-0.771498 12:-0.556849 13:0.829481 14:0.094081 15:1.511690 16:-0.081348 17:-1.212229 18:2.184380 19:0.402095 20:0.445289 21:-0.211363 22:-0.064985 23:-0.449233 24:-1.225994 25:-0.507891
-1 1:-1.111874 2:-0.187938 3:0.740050 4:1.044792 5:-1.331787 6:-0.967679 7:-0.514670 8:-0.533086 9:-0.018593 10:0.810561 11:1.556083 12:-0.104231 13:1.937637 14:-1.756812 15:-1.162404 16:-1.134569 17:0.190465 18:-0.733747 19:-0.735777 20:-0.247407 21:-0.524696 22:0.692682 23:-0.244485 24:-0.427263 25:0.041296
-1 1:1.089999 2:-0.896802 3:0.211701 4:0.966030 5:-1.776535 6:1.242713 7:-0.069451 8:-3.849235 9:-1.013217 10:-0.854416 11:1.966216 12:0.718665 13:-0.991899 14:0.438753 15:-0.102294 16:-0.344999 17:-1.154074 18:2.143901 19:-0.805200 20:0.420315 21:0.190985 22:1.121708 23:0.204059 24:2.147246 25:-0.390752
-1 1:0.915259 2:-1.996501 3:0.891772 4:-0.948576 5:0.253137 6:0.338308 7:0.603478 8:1.247667 9:0.634236 10:0.964127 11:0.627244 12:0.572208 13:-0.607247 14:0.377720 15:-0.164716 16:-0.643270 17:0.416001 18:2.102430 19:1.041179 20:-0.173951 21:0.549909 22:2.385523 23:0.395300 24:-0.361975 25:1.236690
-1 1:0.296336 2:0.023470 3:0.723351 4:-1.992802 5:-0.067491 6:0.325831 7:0.777321 8:-1.357397 9:1.729824 10:-1.025143 11:0.003972 12:0.396586 13:-1.604599 14:0.515126 15:-0.746480 16:-0.352461 17:-0.577370 18:-1.134414 19:-1.061498 20:-0.360819 21:-1.335193 22:1.634894 23:-1.037038 24:-0.006500 25:0.936409
-1 1:1.634809 2:-0.798927 3:-0.810499 4:-1.292476 5:0.441774 6:-0.594431 7:-1.566009 8:-0.188948 9:-0.511682 10:0.488121 11:0.309332 12:0.498577 13:0.223229 14:-0.201655 15:-1.640963 16:0.095803 17:-0.968810 18:0.326970 19:0.922045 20:1.147599 21:0.337446 22:0.032199 23:-0.678269 24:1.034686 25:0.027138
-1 1:-0.945772 2:0.208970 3:-0.038519 4:-0.958342 5:0.725814 6:1.167573 7:0.212175 8:0.791901 9:-0.552634 10:0.469855 11:-0.562837 12:0.422646 13:1.089792 14:1.359780 15:-0.212572 16:0.313557 17:-0.393633 18:-0.599043 19:0.276560 20:0.391905 21:-0.121859 22:-0.140154 23:-1.957037 24:-0.017082 25:0.450713
-1 1:0.255099 2:-1.221217 3:-1.416238 4:0.632885 5:0.147784 6:1.139869 7:-1.547990 8:-1.329225 9:-1.607630 10:0.056934 11:-0.846996 12:0.076672 13:1.695130 14:0.094299 15:0.622557 16:0.331379 17:-1.656741 18:-0.536502 19:-0.853032 20:-0.369315 21:-0.005189 22:0.860424 23:-0.892310 24:-0.175024 25:0.042298
-1 1:-0.643938 2:-0.388175 3:0.117084 4:-1.581469 5:-1.097545 6:0.456568 7:1.788140 8:-0.085049 9:0.781116 10:-0.257298 11:0.589659 12:-0.522700 13:-1.310254 14:-2.666469 15:-0.960096 16:-1.368976 17:-1.280026 18:0.398675 19:-0.865053 20:-0.847671 21:1.274767 22:-1.682527 23:-0.385979 24:-2.808210 25:-0.448173
-1 1:1.497388 2:0.296260 3:0.571595 4:-0.226465 5:0.790131 6:0.811185 7:0.047046 8:0.788101 9:-1.352490 10:-1.611793 11:1.677784 12:0.301137 13:1.222516 14:1.465657 15:-1.024354 16:0.082878 17:0.902967 18:-0.369147 19:-0.024114 20:1.761056 21:1.088963 22:0.186069 23:0.746608 24:-1.570465 25:-0.694511
-1 1:0.779543 2:-0.089967 3:-1.006673 4:-1.547238 5:-1.151874 6:0.305108 7:0.166628 8:0.814923 9:0.278069 10:1.141660 11:-0.361526 12:-0.724225 13:0.925987 14:0.475167 15:-1.015861 16:0.438894 17:0.836497 18:-1.349115 19:-1.301808 20:0.025964 21:0.627907 22:0.278104 23:0.576067 24:0.079851 25:-0.802259
-1 1:-0.823876 2:0.186367 3:-1.825848 4:0.205937 5:0.902144 6:-0.984420 7:0.602907 8:-0.464943 9:0.090233 10:1.734668 11:-0.438593 12:0.672095 13:0.450928 14:0.171796 15:-2.562578 16:-0.378436 17:-0.436577 18:0.548104 19:1.725358 20:-2.060098 21:1.279314 22:-0.447396 23:-0.337536 24:-1.332397 25:-1.305772
-1 1:-0.040635 2:0.165127 3:-0.882653 4:-1.695589 5:-0.228575 6:-0.208571 7:-0.857198 8:0.429393 9:-0.980904 10:-0.423804 11:-0.991958 12:0.713634 13:-0.494421 14:-0.302438 15:2.507182 16:1.062584 17:-1.015741 18:-0.941988 19:0.371250 20:0.697107 21:-0.482335 22:1.546133 23:0.294395 24:-0.470383 25:-0.410105
-1 1:-1.368545 2:-0.546973 3:0.806968 4:1.478702 5:0.637414 6:-1.587208 7:1.035534 8:0.324209 9:0.466957 10:1.303553 11:-1.422689 12:-1.756210 13:-0.952862 14:-1.268530 15:-0.818383 16:-0.391611 17:0.996622 18:-0.285678 19:1.025628 20:-0.197162 21:1.309129 22:-0.024769 23:-0.316732 24:1.574746 25:0.440793
-1 1:0.343950 2:-0.084271 3:-1.539622 4:-2.798476 5:-0.216266 6:0.857919 7:0.757841 8:1.790419 9:-0.007437 10:0.208418 11:-0.662166 12:-0.101892 13:-0.026616 14:0.054184 15:-0.641206 16:-0.548950 17:-0.991005 18:-0.252098 19:-0.869082 20:-1.833960 21:-1.049175 22:-0.524150 23:-0.314876 24:-0.328443 25:-0.263874
-1 1:-2.333147 2:0.515828 3:-0.429884 4:0.702463 5:2.150035 6:0.095068 7:-0.707706 8:0.350676 9:0.453613 10:0.310625 11:-0.961950 12:0.995596 13:-0.455424 14:-0.931050 15:-0.259599 16:-1.192444 17:-2.291841 18:-0.005307 19:0.216896 20:-0.304376 21:-0.739498 22:-0.930795 23:-1.031271 24:1.043088 25:-1.778986
-1 1:0.356556 2:-1.687109 3:1.493925 4:1.134883 5:-0.855472 6:-0.019318 7:-0.653079 8:-0.486825 9:1.266894 10:1.162001 11:-0.074197 12:-0.409627 13:-1.641147 14:-0.176400 15:0.313651 16:0.938952 17:0.224260 18:0.399272 19:-0.615166 20:-1.078913 21:-1.141457 22:0.912179 23:-0.862660 24:0.524227 25:0.157378
-1 1:0.445086 2:-1.378864 3:0.562019 4:-0.577404 5:-1.978205 6:-1.052833 7:0.734540 8:-0.286558 9:-0.294040 10:-1.003910 11:1.285836 12:0.482816 13:0.068101 14:0.921555 15:0.829580 16:-0.387106 17:-0.846012 18:-0.444994 19:-1.412030 20:0.854073 21:1.005683 22:0.415344 23:-1.771745 24:-1.371078 25:0.614296
-1 1:-0.941338 2:1.243344 3:0.593734 4:-1.253495 5:1.228168 6:1.393525 7:0.480500 8:-0.028825 9:-2.557408 10:-1.520564 11:0.715797 12:-0.880247 13:0.395446 14:-0.852592 15:-0.395612 16:0.270690 17:0.126596 18:0.242302 19:-1.909904 20:0.754625 21:0.572903 22:-0.736319 23:1.028446 24:0.539612 25:1.254407
-1 1:-1.117158 2:-1.325007 3:-2.957259 4:0.162525 5:0.336130 6:-0.822943 7:-0.297772 8:-0.783772 9:0.784715 10:0.331909 11:-0.566616 12:-0.604953 13:0.051537 14:0.128575 15:0.153859 16:-0.858627 17:-0.579565 18:-1.500840 19:1.456659 20:0.065065 21:0.505369 22:0.536401 23:0.265606 24:2.038626 25:0.383593
-1 1:-0.497725 2:-0.034016 3:0.617827 4:0.082746 5:0.864393 6:1.271525 7:-0.322562 8:-0.124878 9:-0.939389 10:0.810078 11:-1.060592 12:1.754891 13:0.101888 14:-0.201315 15:0.066615 16:-1.969021 17:0.308464 18:0.900644 19:0.106854 20:-1.008382 21:-0.040427 22:0.444381 23:1.854627 24:-1.291819 25:1.060437
-1 1:0.340277 2:0.105267 3:1.841088 4:-1.043117 5:-1.675857 6:0.243126 7:0.135952 8:-0.473220 9:-0.278578 10:-0.441317 11:0.636136 12:-1.216602 13:-2.228920 14:-0.297818 15:-0.267487 16:0.803248 17:-0.810614 18:0.643298 19:-0.726615 20:-1.442438 21:-0.838280 22:0.451294 23:1.376712 24:-1.770148 25:-1.221353
-1 1:0.849540 2:0.191157 3:0.336672 4:-0.876096 5:-0.847714 6:-1.081947 7:1.275389 8:-1.078990 9:-0.925960 10:-1.455727 11:1.210899 12:0.348545 13:-0.061686 14:0.889175 15:-0.431188 16:1.798179 17:0.327730 18:0.834352 19:1.417351 20:-1.083116 21:-0.175262 22:-0.458443 23:-1.386093 24:-0.257332 25:-0.279069
-1 1:0.978463 2:-0.331315 3:-0.554150 4:-0.696054 5:0.519473 6:0.114363 7:-0.418981 8:-0.752336 9:-0.089594 10:-0.695298 11:0.321644 12:0.245866 13:-1.627649 14:-0.809287 15:0.668696 16:-0.103312 17:-1.092402 18:-0.671913 19:-0.678464 20:-1.868528 21:-0.922370 22:1.410770 23:-0.280299 24:-0.552720 25:0.709714
-1 1:-0.752243 2:0.712527 3:-2.048316 4:-2.207730 5:-0.919549 6:-0.547706 7:-0.033355 8:1.934467 9:-2.435364 10:1.048876 11:-0.138076 12:-0.587254 13:-1.907742 14:0.154649 15:-0.448658 16:-0.316201 17:0.340294 18:-1.030318 19:0.332172 20:-0.300945 21:-1.598450 22:-0.162729 23:-0.363834 24:0.905315 25:-2.246422
-1 1:0.968194 2:-1.829226 3:-0.942447 4:-1.303473 5:-0.361573 6:1.762045 7:-1.371586 8:0.874889 9:0.057108 10:0.612008 11:-0.536880 12:-0.752315 13:0.572024 14:-1.667857 15:-0.633434 16:1.117753 17:-0.652268 18:0.491679 19:0.184925 20:1.254528 21:-1.346579 22:1.172216 23:-0.481524 24:-0.967750 25:-0.897249
-1 1:-1.534721 2:-1.000840 3:-0.756796 4:0.767139 5:-0.233167 6:1.249359 7:-0.061236 8:-1.486723 9:0.138351 10:-1.077911 11:0.834102 12:-0.144040 13:-0.925233 14:-1.259790 15:0.613954 16:-1.949345 17:-0.072284 18:0.067472 19:0.743037 20:0.374412 21:0.318983 22:0.111723 23:-1.546839 24:0.236422 25:0.051819
-1 1:-1.636022 2:1.097533 3:-1.178570 4:0.417676 5:0.634136 6:-1.581026 7:-0.580536 8:0.371897 9:-1.367673 10:1.311245 11:-1.155371 12:0.479134 13:-0.360838 14:-0.731506 15:0.295136 16:-0.525018 17:0.303115 18:0.871770 19:0.736240 20:0.000760 21:-0.734002 22:-1.235284 23:-1.123097 24:1.139911 25:-0.834858
-1 1:0.906858 2:-0.247056 3:1.476701 4:-0.086474 5:2.098601 6:-0.347014 7:-0.168128 8:1.136141 9:0.611062 10:-1.101474 11:0.487033 12:1.272552 13:0.667748 14:-0.499542 15:-1.096433 16:-0.094060 17:1.458520 18:-0.472376 19:-0.593433 20:0.713222 21:0.597603 22:0.310378 23:0.895202 24:-1.241692 25:-0.210303
-1 1:-0.748821 2:-0.006480 3:0.117108 4:1.291907 5:-0.630300 6:0.317481 7:-0.179298 8:-1.879042 9:0.955579 10:-0.710087 11:0.502545 12:0.158811 13:0.095131 14:0.351791 15:-1.469169 16:-0.467805 17:-1.011980 18:0.209080 19:1.489449 20:0.703502 21:0.424005 22:-2.082418 23:-2.651384 24:1.315903 25:0.475530
-1 1:0.412020 2:0.607276 3:-1.410398 4:-0.960034 5:0.111276 6:0.255495 7:-1.936518 8:-0.395281 9:0.201717 10:0.078535 11:-1.229349 12:-0.147688 13:0.211471 14:1.093861 15:-0.569013 16:0.912639 17:1.091597 18:0.195780 19:-0.546044 20:-0.307270 21:1.005531 22:-1.402022 23:-0.780326 24:0.846527 25:0.364443
-1 1:0.302702 2:-0.994676 3:-0.879577 4:1.459433 5:0.943387 6:0.219040 7:-0.774546 8:-0.105647 9:0.887269 10:-0.389176 11:-0.234299 12:-1.476993 13:0.024235 14:-1.708051 15:-0.441572 16:-0.522858 17:0.867838 18:0.700500 19:0.287270 20:0.677615 21:0.448183 22:0.625975 23:-1.580687 24:-1.433138 25:-1.309889
-1 1:-1.492694 2:-1.443001 3:0.367338 4:-1.136221 5:1.451157 6:-0.257085 7:-0.513407 8:-1.899584 9:-0.963762 10:-1.339820 11:0.934744 12:-1.903500 13:-0.781518 14:-0.952680 15:-0.234130 16:-0.400749 17:1.514348 18:0.495579 19:-0.673761 20:0.981408 21:1.205423 22:1.046535 23:0.034903 24:-1.055914 25:1.403516
-1 1:1.089317 2:0.064971 3:-0.373507 4:-0.734390 5:0.009923 6:-0.256591 7:-0.157636 8:0.637238 9:0.235595 10:-1.160621 11:0.461306 12:0.255837 13:1.182642 14:0.314734 15:-0.649064 16:2.157157 17:-1.328143 18:-0.416566 19:1.421563 20:1.852598 21:0.691205 22:-0.372097 23:-0.482185 24:1.945469 25:-0.527429
-1 1:0.263013 2:2.677139 3:0.151847 4:0.819604 5:-0.026366 6:0.026810 7:-0.403733 8:0.076660 9:1.388225 10:2.221421 11:-0.648020 12:0.247188 13:0.612432 14:0.367056 15:-1.377125 16:0.328056 17:-0.882962 18:1.023838 19:-1.018473 20:1.243600 21:1.568977 22:0.104662 23:0.595143 24:0.146668 25:1.135697
-1 1:0.791196 2:1.318014 3:-0.265633 4:0.661400 5:-0.354401 6:-0.561309 7:0.022321 8:-1.598393 9:0.315943 10:0.379320 11:-0.821884 12:-0.172244 13:-0.112867 14:-1.073453 15:0.955085 16:0.367963 17:-1.908325 18:0.327221 19:1.627104 20:0.272202 21:0.277968 22:-0.487518 23:-0.697944 24:-1.122575 25:-1.606954
-1 1:-0.035911 2:1.255478 3:1.350914 4:-1.321606 5:0.854685 6:-0.376076 7:0.246918 8:0.447318 9:0.425307 10:1.125200 11:-0.950205 12:-1.046086 13:0.630813 14:0.401941 15:-1.418928 16:-0.296206 17:0.664666 18:1.164421 19:1.448604 20:-0.134944 21:1.430677 22:2.055241 23:-0.981407 24:-1.616631 25:-1.495955
-1 1:-1.050682 2:-0.827264 3:-0.826868 4:-0.152398 5:-0.602213 6:-0.451055 7:0.058528 8:1.833222 9:-2.608991 10:0.643744 11:-1.366766 12:0.853433 13:-0.489850 14:0.227262 15:0.127052 16:-0.086796 17:1.005274 18:-0.177477 19:-0.285629 20:1.362331 21:0.019478 22:0.931590 23:0.982627 24:-0.942419 25:-1.517827
-1 1:0.684617 2:0.392242 3:-1.028688 4:-1.887411 5:1.465315 6:-0.756448 7:-1.594251 8:-1.395238 9:1.910672 10:0.194478 11:1.289923 12:-0.682306 13:0.601121 14:1.064891 15:0.591729 16:0.548267 17:-1.123139 18:-0.877471 19:-0.539975 20:0.051650 21:0.001049 22:0.340786 23:1.115150 24:0.277012 25:0.005036
-1 1:-0.851771 2:-0.667726 3:-1.694907 4:-0.212845 5:-1.198132 6:-0.562660 7:1.081369 8:-0.723113 9:-1.036749 10:-1.424765 11:0.223728 12:0.662855 13:-0.985113 14:-0.219512 15:0.029479 16:-0.233282 17:-0.147280 18:-0.084185 19:0.613287 20:-0.015217 21:0.215803 22:-0.387277 23:0.117968 24:-2.290621 25:1.023914
-1 1:0.183674 2:0.419670 3:0.165431 4:-0.385106 5:-0.749605 6:0.354368 7:0.937195 8:1.427455 9:0.833007 10:0.146329 11:1.647254 12:0.599462 13:-2.574420 14:0.823568 15:-0.718013 16:1.877728 17:-0.195348 18:0.703165 19:0.082937 20:0.261589 21:-0.676690 22:-0.958396 23:0.189223 24:1.237498 25:-1.705396
-1 1:0.058473 2:0.096202 3:0.788597 4:-0.264620 5:0.532256 6:-0.508483 7:0.039293 8:-0.377214 9:-0.684512 10:-0.588298 11:0.629017 12:-0.703423 13:0.760207 14:-0.284488 15:1.185295 16:-0.142107 17:-0.292206 18:-0.332813 19:0.393192 20:0.002431 21:-0.325834 22:-1.251642 23:-0.383671 24:0.034820 25:0.496336
-1 1:-0.846410 2:1.419681 3:-1.609742 4:1.130714 5:-0.003596 6:-0.888227 7:0.087465 8:-1.015821 9:1.403623 10:-0.384424 11:1.208715 12:0.292020 13:0.204949 14:0.678106 15:2.058084 16:0.162926 17:-0.731892 18:1.363491 19:-0.568765 20:0.064989 21:-1.170226 22:0.472860 23:-0.467869 24:0.318354 25:0.266689
-1 1:-1.173798 2:1.251786 3:-0.957946 4:-0.741357 5:0.712597 6:-1.499864 7:0.974291 8:-1.566609 9:-0.956979 10:1.219992 11:-1.094519 12:0.610829 13:-1.035434 14:0.099069 15:1.504233 16:0.671350 17:1.103684 18:-0.201643 19:-0.773675 20:0.861698 21:0.004032 22:-0.914732 23:-1.469022 24:0.221115 25:1.395614
-1 1:-0.060090 2:-0.606928 3:-0.090113 4:-0.772222 5:-0.717492 6:1.578107 7:-0.522997 8:1.060885 9:-1.088548 10:-3.123109 11:0.530320 12:-0.685197 13:-0.927287 14:-0.633332 15:-0.037466 16:0.463652 17:-0.034553 18:0.188696 19:-2.450199 20:-0.490805 21:2.491476 22:0.141251 23:-1.955384 24:-1.116030 25:-0.894515
-1 1:-0.377699 2:0.180459 3:0.027842 4:-0.154476 5:-0.667738 6:0.891051 7:0.154877 8:0.847474 9:-0.476471 10:-0.305595 11:0.822256 12:-0.291204 13:0.831207 14:0.349454 15:0.290897 16:0.091288 17:-1.442682 18:-0.926424 19:0.700296 20:-1.218852 21:-0.150678 22:1.238624 23:-0.272714 24:0.212735 25:-0.670922
-1 1:0.013496 2:-0.689737 3:0.866227 4:1.161009 5:1.472666 6:0.125266 7:0.828346 8:0.040602 9:1.128167 10:0.616259 11:-1.545528 12:0.288422 13:1.134346 14:0.227179 15:-0.155555 16:0.063632 17:0.976641 18:0.241009 19:1.374140 20:-0.085733 21:-1.546992 22:0.682821 23:0.930766 24:0.924359 25:0.322702
-1 1:1.804790 2:1.439457 3:-0.011145 4:0.140443 5:2.056641 6:-0.058203 7:-0.436137 8:0.886009 9:-0.722046 10:0.243125 11:0.519169 12:1.006938 13:1.520699 14:0.669273 15:0.547463 16:0.724613 17:-1.220901 18:-0.069591 19:-0.445900 20:0.156781 21:-1.740642 22:0.906342 23:0.389696 24:-2.853798 25:0.792572
-1 1:1.666821 2:-0.070615 3:-1.835203 4:-2.864794 5:0.631981 6:-0.514032 7:-2.417559 8:0.451674 9:-0.248979 10:-0.708469 11:-0.048390 12:1.251144 13:-0.473323 14:-0.385316 15:-1.294249 16:-0.420297 17:1.884490 18:-0.292747 19:0.289889 20:0.794200 21:0.051222 22:-0.827990 23:-1.562514 24:-0.931684 25:-1.997632
-1 1:-0.124969 2:0.996627 3:-1.328413 4:1.746670 5:0.555199 6:-1.229050 7:1.214007 8:-1.661860 9:1.541442 10:0.014087 11:-0.109462 12:1.041707 13:1.985174 14:1.824354 15:-1.684435 16:-0.708199 17:0.695623 18:0.328518 19:-0.747100 20:-0.221698 21:-0.089133 22:-1.278222 23:0.143846 24:2.316256 25:-0.473172
-1 1:-0.840188 2:-2.320333 3:-0.251324 4:0.025106 5:-0.057261 6:0.238583 7:0.885142 8:1.285894 9:-1.025562 10:1.306001 11:1.149117 12:0.356275 13:-0.275638 14:-1.429217 15:0.922962 16:-0.936248 17:-0.742185 18:-1.610235 19:0.321279 20:0.044021 21:1.591713 22:1.418869 23:-0.286739 24:2.406119 25:0.523720
1 1:0.148949 2:0.210895 3:0.055135 4:0.048927 5:-0.383199 6:-0.196582 7:-0.134310 8:-0.276035 9:-0.085481 10:0.164690 11:0.134485 12:0.162664 13:-0.044100 14:-0.387243 15:-0.130121 16:-0.236253 17:0.239050 18:0.200183 19:-0.039919 20:0.266235 21:-0.119208 22:-0.287412 23:-0.230645 24:-0.040391 25:-0.152385
1 1:0.112348 2:-0.133573 3:-0.022989 4:-0.072094 5:-0.185171 6:-0.101554 7:-0.127674 8:-0.017100 9:-0.093560 10:0.028219 11:0.155432 12:0.126102 13:-0.071194 14:-0.182627 15:-0.160171 16:-0.361291 17:0.151598 18:0.214826 19:0.330242 20:0.042260 21:0.107713 22:-0.633736 23:-0.126523 24:-0.221773 25:-0.002469
1 1:0.060605 2:0.054744 3:0.140761 4:-0.089553 5:0.010585 6:0.101128 7:-0.021366 8:0.076776 9:-0.045890 10:0.345379 11:0.125167 12:0.186687 13:-0.309465 14:-0.377654 15:-0.304636 16:-0.214978 17:-0.095221 18:0.262337 19:0.243695 20:-0.084404 21:-0.211610 22:0.048356 23:-0.108929 24:-0.135704 25:0.421531
1 1:0.038830 2:0.113416 3:0.225871 4:0.184076 5:-0.107302 6:-0.545664 7:-0.152036 8:-0.055493 9:0.286999 10:-0.162332 11:-0.032384 12:-0.224402 13:-0.196930 14:-0.105724 15:-0.150265 16:-0.263651 17:0.151863 18:0.451740 19:0.084199 20:-0.074907 21:0.030062 22:-0.069139 23:0.124975 24:-0.043988 25:-0.004953
1 1:-0.172092 2:0.080554 3:0.404111 4:0.034708 5:-0.084377 6:-0.269575 7:-0.239958 8:-0.288061 9:0.089645 10:0.139138 11:0.215217 12:-0.018291 13:-0.131293 14:-0.128542 15:-0.170080 16:-0.118265 17:0.296086 18:0.247958 19:0.012769 20:-0.047126 21:-0.105129 22:0.057556 23:-0.156379 24:-0.317592 25:0.370261
1 1:0.145811 2:-0.107125 3:0.193665 4:-0.219625 5:-0.149888 6:-0.175322 7:-0.231272 8:-0.126073 9:0.125028 10:0.002642 11:0.266642 12:-0.116699 13:-0.354547 14:-0.107131 15:0.058473 16:0.033230 17:0.267896 18:0.120126 19:0.293582 20:0.278143 21:-0.413411 22:-0.283200 23:0.053892 24:-0.010285 25:-0.114033
1 1:0.068574 2:0.380135 3:0.177826 4:0.003862 5:0.087563 6:-0.380559 7:0.017043 8:0.143732 9:-0.062014 10:0.298886 11:-0.041106 12:-0.339870 13:-0.103089 14:-0.272365 15:0.007847 16:0.070192 17:0.148277 18:0.072465 19:-0.049956 20:-0.112716 21:-0.175359 22:-0.402849 23:-0.189043 24:0.130332 25:0.239454
1 1:0.345356 2:0.154176 3:0.203598 4:-0.115326 5:-0.063086 6:-0.208594 7:-0.134121 8:-0.066394 9:0.222657 10:0.175660 11:-0.044011 12:-0.005277 13:0.183874 14:-0.222421 15:0.110760 16:0.131168 17:0.466850 18:0.140714 19:-0.084312 20:0.237745 21:-0.227808 22:-0.273329 23:-0.223118 24:-0.167756 25:0.176800
1 1:0.315053 2:0.157764 3:0.245901 4:0.208517 5:-0.067535 6:-0.150194 7:-0.240551 8:0.078377 9:0.612212 10:0.043818 11:0.174264 12:-0.050068 13:-0.028766 14:-0.013078 15:-0.007049 16:-0.151789 17:-0.134309 18:0.093414 19:0.154954 20:-0.004312 21:-0.265308 22:-0.058729 23:0.136527 24:-0.049714 25:0.318354
1 1:0.249009 2:0.162069 3:0.318269 4:0.069211 5:0.164010 6:0.113477 7:0.030707 8:-0.075605 9:0.017547 10:0.070745 11:0.185154 12:-0.162009 13:-0.209694 14:-0.347427 15:-0.019103 16:-0.087966 17:-0.386581 18:0.180834 19:-0.114466 20:0.170045 21:0.107812 22:-0.056759 23:-0.086535 24:0.399547 25:0.338306
1 1:0.090874 2:0.420718 3:0.269502 4:-0.155282 5:-0.225301 6:-0.270782 7:-0.154919 8:0.125306 9:0.047501 10:0.208846 11:0.013703 12:0.236759 13:-0.006558 14:-0.226462 15:-0.270541 16:0.025344 17:0.179263 18:0.385202 19:0.199533 20:0.000550 21:-0.130406 22:-0.194674 23:-0.203168 24:0.092015 25:-0.044195
1 1:0.297676 2:0.323009 3:0.137129 4:0.223236 5:-0.055695 6:-0.105049 7:-0.326995 8:-0.216267 9:0.209985 10:0.215317 11:0.239401 12:0.104987 13:-0.177972 14:-0.006148 15:-0.102989 16:-0.105888 17:0.101299 18:0.091567 19:-0.032614 20:-0.179346 21:-0.087813 22:-0.338979 23:0.120148 24:0.107137 25:0.397307
1 1:0.304856 2:0.232743 3:0.233611 4:-0.251086 5:-0.264769 6:-0.046650 7:-0.197985 8:0.224131 9:-0.085580 10:0.197054 11:0.446825 12:-0.157730 13:0.039244 14:-0.059813 15:-0.211163 16:-0.172929 17:0.183175 18:0.342626 19:-0.106219 20:0.071248 21:0.101573 22:0.074034 23:-0.152422 24:0.071154 25:-0.108942
1 1:0.201078 2:0.217710 3:-0.018951 4:-0.251488 5:-0.094389 6:-0.219415 7:-0.272074 8:-0.176041 9:0.259160 10:0.064493 11:0.219045 12:0.131241 13:-0.117507 14:0.058645 15:-0.112003 16:-0.093713 17:0.218845 18:0.386704 19:0.061751 20:0.205107 21:-0.301234 22:-0.027783 23:-0.290403 24:-0.138261 25:0.270403
1 1:0.116558 2:0.194482 3:-0.005189 4:-0.269283 5:-0.062609 6:-0.212107 7:-0.144875 8:-0.041579 9:0.219863 10:0.435014 11:-0.008742 12:-0.265869 13:-0.319786 14:-0.258463 15:-0.170489 16:-0.119889 17:0.248847 18:0.153307 19:0.177998 20:-0.179818 21:0.067762 22:-0.030600 23:-0.250112 24:0.256850 25:0.008793
1 1:0.234793 2:0.011378 3:0.251703 4:0.024589 5:0.151287 6:-0.209598 7:-0.008497 8:-0.010966 9:0.179104 10:0.482482 11:-0.076621 12:0.108431 13:-0.116848 14:-0.247265 15:-0.096964 16:0.176082 17:0.258030 18:0.215637 19:0.200154 20:-0.084161 21:-0.095782 22:-0.261409 23:-0.274533 24:0.130679 25:-0.293087
1 1:-0.128032 2:0.265447 3:0.120953 4:-0.027477 5:-0.391915 6:-0.198838 7:-0.378435 8:0.003360 9:-0.061291 10:0.362882 11:0.360340 12:0.095788 13:0.046942 14:-0.314028 15:-0.075864 16:-0.021806 17:0.099695 18:0.335837 19:0.142014 20:-0.021522 21:0.002472 22:-0.121157 23:-0.042442 24:0.138980 25:-0.027126
1 1:0.067923 2:0.096208 3:0.277910 4:0.162845 5:-0.174742 6:-0.128989 7:0.009928 8:-0.212689 9:0.261840 10:0.211731 11:0.372655 12:0.013565 13:-0.115160 14:0.007826 15:0.110845 16:0.074159 17:0.441846 18:-0.008996 19:0.007307 20:-0.033553 21:0.098961 22:-0.333561 23:-0.282112 24:0.002942 25:0.330417
1 1:-0.216898 2:0.335091 3:0.070649 4:-0.023008 5:-0.238314 6:-0.098157 7:-0.104182 8:-0.063676 9:0.211544 10:0.085165 11:-0.032940 12:-0.144972 13:-0.274196 14:-0.044417 15:-0.106129 16:0.011171 17:0.048523 18:0.233049 19:0.189403 20:-0.109766 21:-0.284009 22:-0.334882 23:-0.314287 24:-0.056542 25:0.437942
1 1:0.513360 2:0.390269 3:0.267028 4:-0.094463 5:-0.145194 6:-0.148391 7:-0.307325 8:0.165551 9:0.336302 10:-0.066662 11:0.005951 12:0.169539 13:-0.097863 14:0.138707 15:0.045850 16:-0.045524 17:-0.014801 18:-0.093135 19:0.288720 20:0.077835 21:-0.230340 22:-0.066393 23:-0.046702 24:0.039525 25:0.011630
1 1:0.179013 2:0.174187 3:0.186670 4:-0.135926 5:0.162052 6:-0.345962 7:0.005968 8:0.391183 9:0.237320 10:0.109241 11:0.087936 12:-0.136351 13:-0.018501 14:-0.271175 15:-0.157415 16:-0.045806 17:0.166489 18:0.207409 19:0.009040 20:0.173443 21:-0.253775 22:-0.143037 23:0.065090 24:-0.384317 25:0.228579
1 1:0.036243 2:0.028443 3:0.039170 4:0.021475 5:-0.221473 6:0.013623 7:-0.186523 8:0.248329 9:0.084684 10:0.182542 11:-0.097282 12:0.156630 13:-0.078012 14:-0.179109 15:-0.142290 16:-0.066855 17:0.291625 18:-0.191876 19:0.127792 20:-0.070082 21:-0.242880 22:-0.380926 23:-0.219521 24:0.164149 25:0.538964
1 1:0.123936 2:0.177196 3:0.199029 4:-0.117542 5:0.000997 6:0.111112 7:-0.094096 8:-0.001663 9:-0.242264 10:0.291427 11:-0.005049 12:0.096008 13:0.059901 14:-0.258859 15:-0.106099 16:-0.062314 17:0.163108 18:0.487923 19:0.273401 20:0.109443 21:-0.289558 22:-0.109564 23:-0.116853 24:-0.060473 25:0.418868
1 1:-0.055608 2:-0.042065 3:-0.234639 4:-0.224161 5:-0.182097 6:-0.481801 7:-0.171565 8:-0.061548 9:0.384678 10:-0.062460 11:0.091859 12:0.097374 13:-0.301993 14:-0.054209 15:-0.286626 16:0.050760 17:0.175993 18:-0.045216 19:-0.039279 20:-0.131075 21:-0.058916 22:-0.351386 23:-0.118505 24:0.081564 25:0.208017
1 1:0.224199 2:0.366923 3:0.371549 4:0.005296 5:-0.287988 6:-0.157952 7:-0.203377 8:-0.003626 9:0.114598 10:0.420976 11:0.078323 12:0.072947 13:-0.137117 14:-0.047786 15:-0.179056 16:0.161921 17:-0.043499 18:0.151457 19:-0.040120 20:0.050173 21:-0.258383 22:-0.137602 23:-0.269066 24:-0.077929 25:0.231230
1 1:-0.028048 2:0.131461 3:0.014027 4:0.008348 5:-0.112158 6:-0.308148 7:-0.107733 8:-0.068310 9:0.240928 10:0.165591 11:0.264917 12:-0.171164 13:-0.288527 14:-0.190207 15:-0.363752 16:-0.073539 17:0.059626 18:0.399379 19:0.171588 20:-0.011049 21:-0.184506 22:-0.136093 23:-0.357531 24:-0.029603 25:0.204625
1 1:0.240587 2:0.396704 3:0.130480 4:-0.297452 5:-0.505465 6:-0.271786 7:-0.067706 8:-0.169154 9:0.185232 10:0.116935 11:-0.159957 12:0.237172 13:0.021784 14:-0.139543 15:-0.051466 16:-0.108437 17:0.131506 18:0.143861 19:0.034745 20:-0.067783 21:0.017600 22:-0.252999 23:0.072443 24:-0.086652 25:0.177874
1 1:0.090199 2:0.123998 3:0.138569 4:-0.244737 5:0.009193 6:-0.228353 7:-0.147219 8:-0.052046 9:0.064122 10:0.062465 11:0.160329 12:-0.168149 13:-0.188781 14:-0.433259 15:-0.318721 16:0.078581 17:0.089939 18:0.483815 19:0.030994 20:-0.148593 21:-0.042063 22:-0.355720 23:-0.155051 24:-0.098249 25:-0.021668
1 1:-0.178380 2:0.067944 3:0.147007 4:-0.102459 5:-0.236277 6:0.146256 7:-0.116296 8:0.204290 9:0.279910 10:0.514395 11:0.187305 12:-0.082159 13:-0.313078 14:0.102180 15:-0.195267 16:-0.221653 17:0.183608 18:0.139808 19:0.012985 20:0.058188 21:-0.179119 22:-0.068623 23:-0.016984 24:0.064912 25:0.346941
1 1:0.196866 2:0.356226 3:0.202710 4:-0.036591 5:-0.158569 6:-0.018300 7:0.018650 8:0.066956 9:-0.068472 10:0.030366 11:0.061255 12:-0.063431 13:-0.574281 14:-0.119806 15:-0.172394 16:0.024702 17:0.130593 18:0.509535 19:0.154025 20:-0.230378 21:0.011381 22:0.020047 23:-0.110296 24:0.047884 25:0.072601
1 1:0.141746 2:0.199878 3:0.059386 4:-0.125308 5:-0.351948 6:-0.331271 7:-0.045018 8:-0.097307 9:0.047649 10:0.130306 11:-0.066214 12:-0.118980 13:-0.167152 14:-0.260047 15:-0.241865 16:0.085303 17:0.483893 18:0.193631 19:0.168737 20:-0.157968 21:0.041051 22:-0.316409 23:0.126988 24:0.025827 25:0.181191
1 1:-0.028211 2:0.328913 3:0.224884 4:-0.110579 5:-0.364952 6:-0.369938 7:-0.241249 8:0.032544 9:0.001237 10:0.081847 11:0.129832 12:-0.206853 13:0.053807 14:-0.315509 15:0.045039 16:-0.221938 17:0.004600 18:0.121287 19:0.110570 20:-0.054601 21:-0.312117 22:-0.292148 23:-0.146831 24:-0.206460 25:-0.044197
1 1:-0.108833 2:0.250360 3:0.123520 4:-0.174070 5:-0.026354 6:0.142982 7:0.052262 8:-0.074178 9:0.124661 10:0.392617 11:-0.184436 12:0.215753 13:-0.188089 14:-0.223711 15:-0.300429 16:-0.034435 17:0.132051 18:0.242757 19:0.127865 20:-0.479939 21:-0.063027 22:-0.143124 23:0.008947 24:0.132908 25:0.241172
1 1:0.302286 2:0.384108 3:0.121876 4:0.131889 5:-0.142507 6:-0.241447 7:0.051727 8:-0.249432 9:0.140939 10:0.224590 11:0.254601 12:0.207584 13:-0.344034 14:-0.202699 15:0.025151 16:-0.288135 17:0.100577 18:0.152299 19:0.146861 20:-0.064463 21:0.050294 22:-0.136784 23:-0.105170 24:-0.035120 25:0.267306
1 1:0.339129 2:0.022010 3:-0.150253 4:0.027254 5:0.053785 6:-0.075537 7:-0.141743 8:-0.104398 9:0.299484 10:0.086936 11:0.124944 12:-0.103752 13:-0.165934 14:-0.568869 15:-0.132811 16:0.249407 17:0.195480 18:0.039218 19:0.259059 20:-0.073959 21:0.072987 22:-0.089377 23:-0.058066 24:-0.332739 25:0.165082
1 1:0.234168 2:0.249319 3:0.464128 4:0.055555 5:0.017436 6:-0.263344 7:-0.021492 8:0.139790 9:0.124152 10:0.202835 11:0.125760 12:0.026284 13:-0.318542 14:-0.271248 15:-0.022446 16:0.193677 17:0.095056 18:0.409239 19:0.210296 20:-0.036874 21:-0.182926 22:-0.092611 23:-0.024412 24:0.100236 25:0.118098
1 1:0.379525 2:0.238059 3:0.080444 4:-0.067671 5:-0.212061 6:-0.138522 7:-0.236970 8:-0.240865 9:0.035175 10:0.161580 11:0.137321 12:-0.158294 13:-0.122148 14:-0.045969 15:-0.047265 16:0.050041 17:0.394203 18:0.400936 19:0.137854 20:-0.034707 21:-0.388224 22:0.089056 23:-0.143055 24:0.017971 25:0.032985
1 1:0.399591 2:0.027006 3:0.124663 4:0.002318 5:-0.260635 6:-0.273374 7:-0.246667 8:0.004999 9:0.158420 10:0.179082 11:0.252377 12:-0.069138 13:-0.071230 14:-0.246733 15:0.032564 16:0.201348 17:0.088364 18:0.127687 19:0.357223 20:-0.211440 21:-0.282777 22:-0.193884 23:-0.131637 24:-0.021168 25:0.235728
1 1:0.323739 2:0.201227 3:-0.143331 4:-0.073623 5:-0.094712 6:-0.129036 7:0.002610 8:-0.043033 9:0.214190 10:0.356085 11:-0.146329 12:0.029092 13:-0.304741 14:-0.131275 15:-0.376563 16:-0.017520 17:0.145672 18:0.168949 19:0.245284 20:0.284196 21:-0.294715 22:-0.061099 23:-0.227435 24:-0.083839 25:0.118643
1 1:0.209704 2:0.320327 3:-0.045334 4:0.161402 5:-0.146410 6:-0.417084 7:-0.090622 8:0.019715 9:0.025080 10:0.111822 11:0.200509 12:0.040702 13:-0.199269 14:-0.259290 15:-0.084178 16:-0.300644 17:0.144830 18:0.185874 19:0.263233 20:-0.082636 21:-0.187967 22:-0.332080 23:-0.147194 24:-0.188332 25:-0.165885
1 1:0.326533 2:0.194731 3:0.062358 4:0.041004 5:0.123454 6:-0.049386 7:0.156730 8:-0.007738 9:-0.018982 10:0.071476 11:0.176999 12:0.004088 13:-0.107206 14:-0.092219 15:-0.150424 16:0.195108 17:0.526315 18:0.019626 19:0.384959 20:-0.210368 21:0.013224 22:-0.112476 23:0.366033 24:-0.005732 25:0.270917
1 1:0.311381 2:0.196090 3:0.185012 4:0.216167 5:-0.225974 6:0.019790 7:-0.332427 8:0.233219 9:0.026163 10:0.118276 11:0.193838 12:-0.139591 13:-0.208510 14:-0.269999 15:0.169734 16:0.063026 17:-0.207352 18:0.156625 19:0.023541 20:-0.233850 21:-0.080313 22:-0.091917 23:-0.214163 24:-0.397215 25:-0.071254
1 1:0.020235 2:0.186035 3:0.156971 4:-0.059601 5:-0.209013 6:-0.454903 7:-0.049641 8:-0.017275 9:0.105881 10:0.328159 11:0.218190 12:-0.134166 13:0.078365 14:-0.385261 15:-0.136344 16:0.146261 17:-0.058159 18:0.063230 19:0.099130 20:-0.041239 21:0.019957 22:-0.283817 23:-0.342244 24:0.017930 25:0.295020
1 1:0.305232 2:0.018359 3:-0.119945 4:-0.369869 5:-0.002650 6:-0.204097 7:-0.013381 8:-0.148354 9:-0.116339 10:0.195030 11:0.224342 12:-0.272524 13:-0.084959 14:-0.229466 15:0.058202 16:-0.089869 17:0.059601 18:0.321846 19:0.256607 20:-0.230824 21:-0.035424 22:-0.214504 23:-0.293091 24:-0.281004 25:0.074514
1 1:0.022571 2:0.471965 3:-0.231411 4:0.017892 5:-0.087854 6:-0.415183 7:-0.248626 8:0.039741 9:0.209222 10:0.163726 11:0.406993 12:0.022074 13:0.030680 14:-0.123365 15:0.058043 16:-0.061048 17:0.120857 18:0.254793 19:0.041784 20:0.130133 21:0.127987 22:0.170478 23:-0.199823 24:0.168819 25:0.085636
1 1:0.105171 2:0.338139 3:0.137445 4:0.099162 5:-0.335457 6:-0.091852 7:0.202502 8:-0.244450 9:0.078702 10:0.255947 11:0.013692 12:-0.285412 13:-0.423012 14:-0.194466 15:-0.180645 16:-0.153428 17:0.179376 18:0.168430 19:0.049404 20:0.171071 21:-0.152369 22:-0.277119 23:-0.048920 24:0.034996 25:-0.044586
1 1:0.124737 2:-0.036089 3:0.116161 4:0.084676 5:-0.158896 6:-0.008551 7:0.238404 8:0.141954 9:0.441467 10:0.025505 11:-0.184421 12:-0.296909 13:-0.179908 14:-0.292744 15:0.086078 16:0.026161 17:0.011269 18:-0.264178 19:0.424432 20:0.238745 21:0.065852 22:-0.081684 23:-0.104085 24:0.080005 25:0.284597
1 1:0.000017 2:0.492536 3:0.135225 4:-0.113220 5:0.095407 6:-0.130341 7:0.010562 8:-0.031497 9:0.186408 10:0.296819 11:0.113695 12:-0.164234 13:-0.405225 14:0.001658 15:-0.054270 16:0.086808 17:-0.086481 18:0.206399 19:0.022622 20:0.130917 21:-0.275847 22:-0.378089 23:-0.053460 24:-0.259940 25:-0.066853
1 1:0.328525 2:0.553270 3:0.179908 4:0.282258 5:-0.145148 6:-0.041895 7:0.131343 8:0.190715 9:0.167087 10:0.043660 11:0.228947 12:-0.100810 13:-0.061270 14:-0.225566 15:-0.056982 16:-0.067375 17:0.240376 18:0.187557 19:0.131531 20:-0.036983 21:0.000138 22:-0.094615 23:-0.293322 24:-0.155298 25:0.109189
1 1:-0.182734 2:0.052863 3:0.130233 4:0.058493 5:-0.133062 6:-0.217025 7:0.073443 8:0.304425 9:0.289818 10:0.364208 11:0.329589 12:-0.045838 13:-0.029643 14:-0.190789 15:0.118937 16:0.087470 17:0.159884 18:0.319322 19:0.256512 20:-0.134655 21:-0.312010 22:-0.251138 23:0.033531 24:-0.015072 25:0.144491
1 1:0.378243 2:0.167257 3:0.370102 4:-0.043339 5:-0.093627 6:-0.443278 7:-0.221009 8:0.125578 9:0.378411 10:-0.008110 11:-0.049881 12:0.053597 13:-0.135278 14:-0.075539 15:-0.128489 16:0.069381 17:-0.117557 18:-0.137180 19:-0.004022 20:0.373878 21:0.136990 22:-0.114843 23:-0.143011 24:-0.003429 25:0.037667
1 1:0.317266 2:0.241970 3:0.350669 4:0.101818 5:-0.146616 6:-0.395981 7:-0.070661 8:0.197529 9:0.273319 10:0.083856 11:0.143214 12:0.195351 13:-0.151305 14:0.000661 15:-0.183837 16:-0.073324 17:0.301140 18:0.038680 19:0.235117 20:0.060372 21:-0.120720 22:-0.104610 23:-0.247962 24:-0.176289 25:0.116149
1 1:-0.160706 2:-0.226863 3:-0.146776 4:-0.201725 5:0.212823 6:0.019087 7:0.002429 8:-0.040036 9:0.233295 10:0.130016 11:0.213765 12:-0.148083 13:-0.033537 14:-0.097713 15:-0.056549 16:0.108251 17:0.308372 18:0.406271 19:0.440872 20:0.113855 21:-0.189474 22:-0.257181 23:-0.085573 24:0.267948 25:-0.004291
1 1:-0.037331 2:0.378742 3:0.055360 4:0.084939 5:0.101813 6:-0.034347 7:0.103421 8:-0.242492 9:0.033257 10:0.116081 11:0.160133 12:0.386478 13:-0.253101 14:0.185856 15:0.008292 16:0.458084 17:-0.121328 18:0.160371 19:0.212238 20:0.044389 21:-0.360086 22:0.047609 23:-0.207403 24:-0.049008 25:0.030585
1 1:0.354721 2:-0.128242 3:0.199091 4:-0.115476 5:-0.104234 6:-0.332915 7:-0.340536 8:-0.102467 9:0.273649 10:0.215777 11:0.184580 12:0.000744 13:0.315367 14:0.030223 15:0.022556 16:0.349326 17:0.104844 18:0.182095 19:0.211085 20:0.058423 21:-0.065999 22:-0.112974 23:-0.097621 24:0.037794 25:0.240778
1 1:0.174714 2:0.223446 3:-0.019343 4:-0.003055 5:-0.429631 6:-0.306074 7:-0.306415 8:0.155996 9:0.042825 10:0.277893 11:-0.040988 12:-0.256532 13:-0.166897 14:-0.116311 15:-0.077606 16:-0.046827 17:0.248842 18:0.053383 19:0.107216 20:-0.240404 21:-0.257657 22:-0.246437 23:-0.245721 24:-0.034476 25:0.061497
1 1:0.242174 2:0.221182 3:0.175643 4:0.104142 5:-0.016811 6:-0.098877 7:0.103163 8:0.197950 9:0.156459 10:-0.050882 11:0.184371 12:0.107248 13:0.002366 14:-0.145062 15:-0.294750 16:-0.255817 17:0.114279 18:-0.170703 19:0.297634 20:-0.244171 21:0.010909 22:-0.409075 23:0.042800 24:-0.066686 25:0.425173
1 1:0.222128 2:0.331464 3:0.157919 4:-0.319168 5:-0.032080 6:-0.277209 7:-0.147717 8:0.275504 9:0.076516 10:0.307377 11:0.129414 12:-0.034473 13:-0.142932 14:-0.312970 15:-0.182008 16:-0.160840 17:0.108470 18:0.211247 19:0.099817 20:-0.133634 21:-0.175363 22:0.019689 23:-0.304269 24:0.121883 25:-0.141255
1 1:0.181524 2:0.007499 3:0.308121 4:0.099257 5:-0.246066 6:-0.037850 7:-0.200472 8:-0.199485 9:0.043433 10:0.486336 11:0.323922 12:-0.114691 13:-0.128993 14:-0.084437 15:-0.150718 16:0.155138 17:-0.069200 18:0.204582 19:-0.016065 20:-0.158955 21:-0.246117 22:-0.192626 23:-0.214534 24:-0.273171 25:0.051996
1 1:0.325444 2:0.153050 3:0.257679 4:-0.096288 5:-0.069966 6:-0.446613 7:-0.503063 8:0.112476 9:0.106535 10:-0.010433 11:0.044941 12:-0.031956 13:-0.091240 14:-0.131245 15:0.168333 16:0.027259 17:0.276339 18:0.184155 19:-0.137290 20:0.244033 21:-0.224329 22:0.094224 23:-0.077628 24:-0.038598 25:-0.019704
1 1:0.273687 2:0.218698 3:0.430195 4:-0.110218 5:-0.360691 6:-0.259534 7:-0.118153 8:0.099953 9:0.211688 10:0.193668 11:0.006419 12:-0.126162 13:0.059710 14:-0.163580 15:-0.144315 16:-0.072343 17:0.253125 18:0.069360 19:0.021856 20:0.143042 21:-0.377064 22:-0.084113 23:-0.046423 24:0.125167 25:0.216995
1 1:0.117290 2:0.193371 3:0.109271 4:-0.003222 5:-0.069961 6:-0.297157 7:-0.234381 8:-0.044718 9:0.158011 10:0.185882 11:-0.226417 12:0.045374 13:-0.139891 14:0.004724 15:-0.464130 16:-0.231335 17:0.047719 18:0.412495 19:0.020404 20:-0.236803 21:-0.258244 22:-0.059725 23:-0.279603 24:0.067551 25:0.059010
1 1:0.042266 2:0.134799 3:-0.071328 4:-0.115021 5:0.169859 6:-0.228000 7:-0.149463 8:0.066194 9:0.431216 10:-0.076183 11:0.048910 12:-0.236226 13:-0.239744 14:-0.257555 15:-0.381761 16:0.052895 17:0.000612 18:0.251052 19:0.169815 20:-0.052455 21:0.155268 22:-0.238528 23:-0.304071 24:-0.182773 25:0.174317
1 1:0.267167 2:0.223862 3:-0.340376 4:0.068598 5:-0.085591 6:-0.214769 7:0.262636 8:-0.154783 9:-0.016266 10:0.087384 11:-0.043207 12:-0.038071 13:0.126869 14:-0.274021 15:-0.241337 16:0.084133 17:-0.267981 18:0.314783 19:-0.040654 20:0.114773 21:0.168063 22:-0.177251 23:-0.130240 24:0.176413 25:0.387765
1 1:-0.015938 2:0.039821 3:-0.252603 4:0.113006 5:-0.171236 6:-0.269881 7:-0.251738 8:0.236168 9:0.237859 10:0.104724 11:0.091620 12:0.026005 13:-0.414107 14:0.066161 15:-0.007362 16:0.258750 17:0.259651 18:0.051015 19:-0.000799 20:-0.009023 21:-0.120313 22:-0.452517 23:-0.258916 24:-0.036165 25:0.151985
1 1:-0.093727 2:0.248294 3:0.261916 4:0.050646 5:-0.101397 6:-0.226073 7:0.003299 8:0.187415 9:0.195118 10:0.019367 11:0.306212 12:-0.443129 13:-0.102701 14:-0.097442 15:-0.134102 16:0.004740 17:0.100827 18:0.198722 19:-0.076822 20:0.262515 21:-0.160379 22:-0.097766 23:0.051074 24:0.258712 25:0.407381
1 1:0.460231 2:0.356344 3:0.052877 4:0.162508 5:-0.037438 6:0.069883 7:-0.104115 8:0.013631 9:0.107059 10:0.261081 11:0.072772 12:-0.309645 13:-0.382132 14:-0.208169 15:-0.178719 16:0.062881 17:-0.066915 18:0.394292 19:0.019957 20:-0.007271 21:-0.031390 22:-0.196168 23:-0.070523 24:0.044605 25:0.042564
1 1:0.331235 2:0.283731 3:0.000726 4:0.001383 5:-0.314101 6:-0.306944 7:-0.379620 8:-0.320253 9:-0.000115 10:-0.001466 11:0.313123 12:-0.196385 13:-0.104147 14:-0.134802 15:-0.169811 16:-0.060195 17:-0.085797 18:0.089712 19:-0.075432 20:0.181025 21:0.043532 22:-0.184011 23:-0.127719 24:-0.121083 25:0.227025
1 1:0.315707 2:0.200174 3:0.071106 4:0.071176 5:-0.175310 6:-0.070811 7:-0.333481 8:0.066315 9:0.160907 10:0.062128 11:-0.305457 12:0.262037 13:-0.249368 14:-0.116287 15:-0.170657 16:0.157388 17:0.106382 18:0.275709 19:0.183796 20:0.053911 21:-0.185628 22:-0.246124 23:-0.312538 24:-0.122774 25:0.213669
1 1:0.050937 2:0.180466 3:0.356976 4:0.064552 5:-0.319492 6:-0.286428 7:-0.305296 8:0.170448 9:-0.242245 10:0.218409 11:0.001428 12:0.245239 13:-0.032753 14:-0.139087 15:-0.052635 16:-0.047276 17:0.214798 18:0.287096 19:0.095424 20:-0.229276 21:-0.056789 22:-0.242675 23:-0.131453 24:-0.254788 25:0.019060
1 1:-0.011662 2:0.194019 3:-0.028126 4:-0.284264 5:-0.080085 6:-0.271806 7:-0.183139 8:-0.003473 9:0.100839 10:0.111672 11:0.048723 12:-0.214756 13:-0.077773 14:-0.257496 15:-0.268922 16:-0.138960 17:0.075135 18:0.483766 19:0.011901 20:0.061731 21:-0.133151 22:-0.202772 23:-0.384522 24:-0.279887 25:-0.054751
1 1:0.172594 2:0.136794 3:0.046082 4:-0.083412 5:-0.201918 6:-0.399784 7:-0.203857 8:0.054017 9:-0.033512 10:0.170705 11:0.045556 12:0.486634 13:-0.240407 14:-0.206313 15:0.000512 16:-0.260912 17:0.032349 18:-0.017729 19:-0.142196 20:0.107608 21:-0.147719 22:-0.067804 23:-0.328445 24:0.260181 25:0.156873
1 1:0.404347 2:0.165106 3:0.139609 4:0.199751 5:-0.092436 6:-0.153801 7:-0.310283 8:0.057148 9:-0.280391 10:0.050315 11:-0.035853 12:-0.053615 13:-0.137680 14:-0.235447 15:-0.293322 16:0.127232 17:0.174530 18:0.279214 19:0.223684 20:-0.063456 21:-0.322190 22:-0.245764 23:-0.070196 24:-0.040807 25:0.151338
1 1:0.219115 2:0.072923 3:0.310225 4:0.036448 5:-0.297300 6:-0.305217 7:0.166300 8:0.025550 9:0.239529 10:0.210567 11:-0.082602 12:0.177502 13:-0.302700 14:-0.054954 15:-0.180708 16:0.138171 17:0.075406 18:0.048555 19:-0.009696 20:0.061246 21:-0.207508 22:-0.363463 23:-0.166835 24:-0.290602 25:0.231246
1 1:0.073618 2:0.321762 3:0.135042 4:0.149419 5:-0.252592 6:-0.229317 7:-0.110554 8:-0.135116 9:0.224628 10:0.178654 11:-0.091782 12:-0.052617 13:0.137804 14:-0.169608 15:-0.245112 16:0.230795 17:0.135947 18:-0.063195 19:0.291353 20:-0.038368 21:-0.027426 22:-0.225093 23:-0.505256 24:-0.173781 25:0.056700
1 1:0.176015 2:0.311614 3:-0.069646 4:0.003533 5:-0.085457 6:-0.025183 7:0.201318 8:0.102471 9:-0.237443 10:0.057072 11:0.341492 12:-0.056888 13:-0.300424 14:-0.060941 15:-0.113490 16:0.117814 17:0.388694 18:0.217101 19:0.270071 20:-0.078739 21:-0.422580 22:-0.003695 23:0.087836 24:0.144589 25:0.152659
1 1:0.159055 2:0.168549 3:0.016514 4:-0.178422 5:-0.097231 6:-0.280893 7:-0.266267 8:0.067033 9:0.439569 10:0.209407 11:-0.062930 12:0.010400 13:-0.044789 14:-0.180928 15:0.003332 16:0.207747 17:0.141052 18:0.225045 19:0.139661 20:-0.163557 21:-0.226814 22:-0.301978 23:-0.146731 24:0.366068 25:0.128139
1 1:0.135501 2:0.344076 3:0.130081 4:0.350649 5:-0.180982 6:-0.184130 7:-0.322352 8:-0.054518 9:0.043999 10:0.042388 11:0.142628 12:0.015332 13:-0.069207 14:-0.366089 15:-0.150935 16:-0.102827 17:0.019085 18:0.353758 19:0.005878 20:0.157098 21:-0.122015 22:-0.128747 23:-0.304228 24:-0.166384 25:0.226787
1 1:0.244722 2:-0.002875 3:0.153009 4:0.175528 5:-0.120761 6:-0.399361 7:-0.163412 8:0.031992 9:-0.048916 10:-0.166132 11:0.036014 12:-0.030327 13:-0.074357 14:-0.405746 15:0.215548 16:0.154693 17:0.153765 18:0.409656 19:-0.139541 20:0.143521 21:-0.259683 22:-0.073139 23:-0.305118 24:0.082361 25:-0.084415
1 1:0.120862 2:-0.027545 3:0.149009 4:-0.029658 5:-0.227516 6:-0.068523 7:-0.169179 8:-0.063960 9:0.156063 10:0.133707 11:-0.160941 12:-0.166527 13:0.106849 14:-0.082447 15:-0.170215 16:-0.106233 17:0.325701 18:0.361741 19:0.357646 20:0.018609 21:-0.369806 22:-0.273531 23:0.135270 24:0.168412 25:0.307585
1 1:0.300302 2:0.175766 3:0.193285 4:-0.218726 5:-0.449927 6:-0.368980 7:0.020178 8:-0.069898 9:0.163335 10:0.053709 11:-0.036689 12:-0.048767 13:0.053985 14:-0.272720 15:-0.261369 16:0.040192 17:-0.014347 18:0.311651 19:0.075898 20:-0.011444 21:-0.062271 22:-0.084560 23:0.024494 24:-0.246759 25:0.305945
1 1:0.134770 2:0.257237 3:0.025663 4:0.066884 5:-0.196569 6:0.057081 7:-0.230652 8:0.298766 9:0.141701 10:0.011468 11:0.131828 12:-0.186838 13:0.009306 14:-0.229686 15:-0.357765 16:0.216201 17:0.188380 18:-0.191589 19:0.258249 20:0.127501 21:-0.037774 22:-0.339319 23:-0.037642 24:0.160693 25:0.356581
1 1:-0.133487 2:0.105528 3:0.031533 4:0.010096 5:-0.500079 6:-0.042259 7:-0.201304 8:0.084909 9:0.308297 10:0.104971 11:-0.126956 12:0.145389 13:-0.208906 14:-0.202198 15:-0.228118 16:0.308806 17:0.348296 18:0.086601 19:0.264619 20:0.067071 21:-0.135194 22:0.036914 23:-0.019089 24:0.125864 25:0.236490
1 1:0.262795 2:0.201073 3:0.321752 4:-0.184292 5:-0.208999 6:0.011051 7:-0.373028 8:0.246644 9:-0.022881 10:0.280416 11:0.096995 12:0.043178 13:-0.015170 14:-0.031145 15:-0.030529 16:-0.039909 17:0.207354 18:0.261312 19:0.145203 20:-0.267211 21:0.144374 22:-0.243831 23:0.003359 24:-0.133226 25:0.336538
1 1:0.093069 2:0.332307 3:0.262798 4:0.102165 5:0.050509 6:0.004227 7:-0.106698 8:-0.179254 9:0.353408 10:0.271674 11:-0.086260 12:0.205898 13:-0.049077 14:-0.250128 15:-0.113937 16:-0.132466 17:0.439856 18:0.050507 19:0.163431 20:0.300614 21:-0.091549 22:0.079618 23:-0.119344 24:-0.027800 25:0.261621
1 1:0.127311 2:0.415468 3:0.137147 4:0.048296 5:0.001171 6:-0.142217 7:-0.131365 8:-0.014361 9:-0.030924 10:0.276311 11:0.289493 12:0.074184 13:-0.205463 14:-0.219741 15:-0.095981 16:-0.114528 17:0.287894 18:0.280518 19:0.399343 20:-0.200885 21:-0.219702 22:-0.037374 23:-0.180685 24:-0.165821 25:-0.041117
1 1:-0.151666 2:-0.103475 3:0.198299 4:0.082809 5:-0.233370 6:-0.304342 7:-0.206322 8:-0.290974 9:0.372237 10:0.125116 11:0.233029 12:0.046673 13:-0.417469 14:0.230999 15:0.137385 16:-0.058053 17:-0.139627 18:0.162110 19:-0.075224 20:0.086327 21:-0.069539 22:-0.108784 23:-0.117944 24:0.030856 25:0.307881
1 1:0.162506 2:0.260562 3:0.193950 4:0.094828 5:-0.153955 6:-0.341262 7:-0.282971 8:-0.164933 9:0.263576 10:0.138483 11:0.017392 12:0.049599 13:-0.367478 14:-0.085704 15:-0.075762 16:-0.042733 17:0.178205 18:0.031014 19:0.128369 20:0.124794 21:-0.363770 22:-0.322234 23:-0.253767 24:0.000147 25:-0.070407
1 1:-0.153321 2:0.135715 3:0.129889 4:0.092118 5:-0.282411 6:-0.340713 7:0.079904 8:-0.009188 9:0.095580 10:0.237147 11:0.155311 12:-0.040263 13:0.023795 14:-0.021888 15:-0.361906 16:0.044526 17:0.390060 18:0.220184 19:0.202352 20:0.085981 21:-0.252970 22:-0.352219 23:-0.066280 24:-0.007072 25:0.252634
1 1:0.244586 2:0.416199 3:0.202504 4:0.038884 5:-0.152207 6:-0.119493 7:-0.265423 8:0.137521 9:0.278378 10:0.265820 11:0.278171 12:0.225895 13:-0.096760 14:-0.015945 15:-0.305548 16:-0.226678 17:0.207230 18:0.015145 19:0.136033 20:-0.045646 21:0.047098 22:-0.122989 23:0.285069 24:0.061183 25:0.024370
1 1:0.185023 2:-0.175819 3:0.084357 4:-0.134052 5:-0.325399 6:-0.026601 7:-0.271015 8:-0.101455 9:0.002487 10:0.270565 11:-0.058834 12:0.167221 13:-0.213410 14:-0.250214 15:-0.331512 16:-0.096930 17:0.078015 18:-0.060942 19:0.330913 20:0.174202 21:0.356953 22:-0.215178 23:0.139502 24:-0.024154 25:0.209619
1 1:0.128102 2:0.171966 3:0.157054 4:-0.203788 5:-0.084665 6:-0.375876 7:-0.150053 8:0.231422 9:0.203846 10:0.420305 11:0.150449 12:0.138205 13:-0.068272 14:-0.246379 15:-0.345400 16:0.236966 17:0.060653 18:0.169020 19:-0.052533 20:-0.151361 21:-0.004572 22:0.097326 23:-0.181474 24:0.005057 25:0.249335
1 1:0.110153 2:0.243624 3:0.042167 4:-0.088983 5:-0.198722 6:-0.187336 7:0.008699 8:0.216195 9:-0.239326 10:-0.102788 11:0.106230 12:0.063205 13:-0.034707 14:-0.053022 15:-0.585818 16:-0.129835 17:-0.239304 18:0.182103 19:-0.090289 20:0.119396 21:-0.412152 22:-0.186960 23:0.054384 24:0.035991 25:-0.168306
1 1:0.067890 2:0.037452 3:0.068810 4:0.100394 5:-0.455414 6:-0.439812 7:-0.333117 8:0.062058 9:0.149814 10:0.093503 11:0.239062 12:0.134560 13:-0.132555 14:-0.068760 15:-0.146135 16:-0.076030 17:0.140231 18:0.212106 19:0.299808 20:-0.007299 21:-0.151106 22:-0.142141 23:-0.216269 24:0.167161 25:0.187875
1 1:0.237013 2:0.417602 3:0.239257 4:0.128895 5:-0.169570 6:-0.104325 7:0.199630 8:0.100891 9:-0.151437 10:-0.161051 11:0.309936 12:-0.013167 13:-0.250772 14:-0.011552 15:-0.161658 16:-0.263958 17:0.033540 18:0.482230 19:0.161993 20:-0.057119 21:-0.077250 22:-0.040405 23:-0.067825 24:0.113770 25:0.116858
1 1:0.275617 2:0.115345 3:0.030176 4:-0.184842 5:-0.096968 6:-0.331287 7:-0.372805 8:-0.051124 9:0.111029 10:0.241080 11:0.032667 12:0.202682 13:-0.182747 14:-0.278150 15:-0.148222 16:0.127648 17:0.302424 18:0.286522 19:0.101660 20:-0.213535 21:-0.184823 22:-0.008901 23:-0.232276 24:0.160627 25:-0.099008
1 1:0.206329 2:-0.043737 3:0.029481 4:-0.116822 5:0.031915 6:-0.109980 7:-0.178699 8:0.022562 9:0.358540 10:0.302413 11:-0.181441 12:-0.091705 13:-0.234806 14:-0.352454 15:-0.101515 16:0.257085 17:0.046364 18:0.354756 19:0.302542 20:0.005385 21:-0.091210 22:-0.051894 23:-0.048282 24:0.004244 25:0.381350
1 1:0.053618 2:0.105166 3:0.221671 4:0.051308 5:-0.202912 6:-0.170182 7:-0.362382 8:0.011273 9:-0.211593 10:0.101958 11:0.159931 12:0.298547 13:-0.133828 14:-0.288981 15:-0.053687 16:-0.331312 17:0.281644 18:-0.115984 19:0.230447 20:0.154243 21:0.053356 22:-0.119742 23:0.372159 24:-0.054978 25:0.142778
1 1:0.396727 2:0.270776 3:-0.168067 4:-0.094302 5:-0.088128 6:-0.304637 7:-0.115737 8:0.307713 9:0.269579 10:0.078854 11:0.209676 12:-0.046164 13:-0.078812 14:-0.357708 15:-0.028963 16:-0.154790 17:0.240289 18:0.114776 19:0.156524 20:0.058257 21:-0.056743 22:-0.220081 23:-0.077620 24:0.036940 25:0.285821
1 1:0.240536 2:0.291885 3:-0.034068 4:-0.076620 5:-0.130519 6:-0.070153 7:-0.355507 8:0.078712 9:0.296325 10:0.258477 11:0.092440 12:0.032528 13:-0.428857 14:-0.219853 15:-0.245092 16:-0.154626 17:0.092154 18:0.264680 19:-0.000987 20:0.073304 21:-0.052114 22:-0.069424 23:-0.080119 24:0.015314 25:0.341775
