-1 1:1.616666 2:0.617771 3:1.677425 4:-2.172482 5:1.059876 6:-1.656716 7:1.381856 8:0.181003 9:-1.118854 10:0.452737
-1 1:-1.846730 2:1.397609 3:0.162030 4:0.301679 5:0.884510 6:0.301641 7:-0.646907 8:-1.408832 9:1.300962 10:1.470013
-1 1:1.408890 2:-0.533203 3:-0.956858 4:-0.340309 5:1.287192 6:0.889040 7:-1.003266 8:-0.062967 9:-0.754308 10:0.002214
-1 1:1.050237 2:-0.698987 3:1.179099 4:-1.233067 5:0.538468 6:-1.000639 7:1.611303 8:-0.463504 9:1.136209 10:-1.303487
-1 1:0.950525 2:-1.647497 3:-0.205600 4:-0.302816 5:-2.223121 6:-0.464933 7:-0.970015 8:0.103511 9:0.491027 10:1.800502
-1 1:0.176646 2:0.900633 3:-0.314524 4:-0.555760 5:-1.041117 6:0.022669 7:0.800125 8:2.573146 9:-0.600506 10:0.024674
-1 1:-1.603253 2:0.525812 3:-1.275246 4:-0.875576 5:0.928385 6:-0.741357 7:-2.445466 8:-0.860596 9:0.616717 10:0.200559
-1 1:-1.505140 2:-1.590791 3:-1.372007 4:0.817576 5:-1.603715 6:-0.077112 7:-1.677390 8:1.079394 9:0.880199 10:0.672983
-1 1:1.618258 2:0.910707 3:0.762914 4:0.408892 5:-1.357302 6:0.652076 7:-0.521962 8:-0.375206 9:-0.023487 10:-0.574540
-1 1:1.599985 2:-0.418349 3:-0.179307 4:0.472466 5:0.001164 6:-0.774481 7:1.163186 8:0.023602 9:0.418168 10:0.312796
-1 1:0.958327 2:-1.267539 3:1.396401 4:0.144262 5:0.182503 6:-0.982749 7:1.232530 8:1.165186 9:0.411150 10:0.539245
-1 1:-0.683357 2:-0.668383 3:-0.333301 4:1.350758 5:0.216543 6:0.828526 7:-1.042096 8:0.425819 9:0.961953 10:1.458856
-1 1:-0.685967 2:-3.280432 3:0.272084 4:-0.052148 5:-1.307516 6:-1.062750 7:2.046638 8:-1.283300 9:-0.456670 10:-1.135458
-1 1:-1.378111 2:-0.748237 3:0.245567 4:0.666444 5:-0.038703 6:0.579511 7:0.176886 8:-1.711149 9:-0.111168 10:1.059806
-1 1:-0.599426 2:0.253891 3:-0.372566 4:-0.120286 5:-0.271449 6:1.528976 7:0.914756 8:-0.024597 9:-0.845901 10:0.960633
-1 1:0.543918 2:0.164571 3:-0.685923 4:0.310155 5:1.824054 6:-1.194509 7:-0.826125 8:0.550180 9:-0.702419 10:2.662186
-1 1:-0.425355 2:1.665019 3:-0.174102 4:-1.945389 5:-0.179452 6:-0.377816 7:0.236900 8:0.697404 9:0.283168 10:0.172312
-1 1:0.679053 2:-0.346824 3:-0.691068 4:1.121941 5:0.856302 6:-0.100224 7:-0.349396 8:1.195065 9:1.008628 10:-0.715331
-1 1:-0.235818 2:-1.429209 3:0.906251 4:-0.591562 5:1.098533 6:0.195091 7:0.678603 8:0.866623 9:1.110717 10:1.119051
-1 1:0.699369 2:0.871138 3:-1.834951 4:0.069857 5:0.877117 6:0.863402 7:1.013276 8:-1.494236 9:-1.606831 10:1.097986
-1 1:0.132331 2:0.377724 3:-0.678821 4:-0.360692 5:1.013710 6:-1.001884 7:-0.844198 8:1.267664 9:-0.005123 10:-0.930985
-1 1:1.295761 2:0.161220 3:1.108664 4:-1.330350 5:-0.089833 6:0.757591 7:-0.184033 8:-1.006149 9:-1.283962 10:-1.267166
-1 1:1.207593 2:-0.194821 3:0.353614 4:1.153852 5:0.045268 6:-0.879033 7:-0.373498 8:0.529447 9:1.407507 10:-0.987742
-1 1:-1.984230 2:-0.007073 3:-0.528774 4:0.575437 5:0.200861 6:-0.026567 7:0.226801 8:1.586495 9:1.056610 10:-0.551140
-1 1:-1.340560 2:-0.543966 3:-0.826534 4:0.013654 5:-1.157810 6:0.312326 7:-0.080011 8:-1.201685 9:-0.799572 10:0.334464
-1 1:0.113061 2:-0.493075 3:0.455558 4:-1.892170 5:0.010612 6:1.426378 7:0.043384 8:0.400448 9:-0.723683 10:1.411657
-1 1:0.761682 2:1.710321 3:-0.928818 4:1.939047 5:0.302495 6:0.029039 7:-0.780221 8:2.244354 9:0.211618 10:1.707801
-1 1:1.719341 2:0.104017 3:-2.341378 4:-1.192429 5:-0.150177 6:0.147142 7:0.487969 8:-1.355167 9:-1.097793 10:-2.035518
-1 1:0.145779 2:-1.184155 3:0.352061 4:2.790384 5:-1.071541 6:-0.374744 7:0.532536 8:0.619704 9:0.992516 10:1.096070
-1 1:-0.998329 2:-0.361796 3:-0.281550 4:-0.381220 5:-1.251640 6:-0.842537 7:0.035026 8:1.185780 9:0.734377 10:-0.443143
-1 1:1.369066 2:0.763013 3:0.716228 4:0.065393 5:1.029731 6:1.628462 7:0.106853 8:1.780968 9:1.090821 10:0.613875
-1 1:-0.723879 2:-1.763817 3:-0.271099 4:1.882298 5:-1.601287 6:0.261820 7:0.172533 8:1.389694 9:0.420458 10:-1.027520
-1 1:0.126636 2:0.496999 3:0.967249 4:-1.026917 5:0.758088 6:1.616230 7:-0.201322 8:-0.829220 9:-0.866687 10:0.884725
-1 1:0.091925 2:-0.903820 3:0.678658 4:-0.120218 5:0.587737 6:2.137884 7:-0.244482 8:0.858475 9:-0.054758 10:-0.097937
-1 1:0.400979 2:-0.285868 3:-0.722483 4:1.441628 5:-0.085616 6:1.642356 7:0.153892 8:-0.270866 9:-0.335995 10:-1.012766
-1 1:0.449912 2:1.705126 3:-1.075760 4:1.748276 5:0.722237 6:-0.478594 7:1.226145 8:0.283245 9:-0.762935 10:-1.138990
-1 1:0.722923 2:1.414613 3:0.967807 4:-0.981134 5:1.066152 6:-0.431610 7:0.024456 8:0.627263 9:0.560763 10:-0.334249
-1 1:-1.800377 2:-1.016722 3:1.567256 4:1.263101 5:1.804174 6:-0.031710 7:0.267454 8:0.750291 9:-1.062983 10:0.610786
-1 1:0.042994 2:0.248463 3:-0.908756 4:-1.173197 5:-1.385472 6:2.288687 7:0.056793 8:0.996082 9:-0.552739 10:0.191150
-1 1:0.912936 2:1.114945 3:-2.164349 4:-1.150524 5:-1.029900 6:1.504849 7:-1.231801 8:-0.742697 9:-0.210591 10:-0.542119
-1 1:-2.161319 2:-0.292205 3:-0.327341 4:1.071315 5:1.060889 6:0.163711 7:-2.356810 8:-0.910345 9:0.722587 10:0.214756
-1 1:0.665144 2:0.008912 3:-0.080485 4:-1.302750 5:0.670716 6:-1.381215 7:-1.706467 8:0.564173 9:0.958858 10:0.210037
-1 1:-0.226954 2:-0.568795 3:1.286623 4:0.242901 5:-0.140296 6:-1.138995 7:0.586399 8:0.085345 9:-0.348136 10:-2.155614
-1 1:-1.062454 2:-0.205840 3:0.691225 4:1.139896 5:-0.166992 6:-0.261956 7:0.850404 8:0.842898 9:-0.151750 10:1.009577
-1 1:1.208905 2:-0.035477 3:-1.356091 4:0.119790 5:-1.239151 6:0.026144 7:-0.392177 8:1.394524 9:-1.556362 10:0.004907
-1 1:-0.424372 2:0.151224 3:0.175375 4:-0.796750 5:1.730109 6:2.013805 7:-2.231204 8:-1.062644 9:0.498553 10:-0.700666
-1 1:-1.007092 2:-0.819369 3:0.825096 4:0.550133 5:0.280431 6:0.613652 7:-1.693060 8:1.685633 9:-1.587176 10:0.743596
-1 1:-0.965699 2:-1.219614 3:0.612184 4:-0.320581 5:-0.880119 6:0.078605 7:0.344754 8:-1.764335 9:-1.583258 10:2.413152
-1 1:0.555177 2:0.416197 3:-1.002407 4:-0.375037 5:1.014094 6:0.302164 7:-1.925190 8:1.536373 9:1.154746 10:0.590709
-1 1:-0.187570 2:-0.378934 3:-0.821911 4:-0.532814 5:-1.859846 6:-0.658505 7:-0.040291 8:0.654832 9:0.332075 10:1.111670
-1 1:1.767836 2:1.398330 3:-0.399767 4:2.078975 5:-0.068121 6:-0.565734 7:-1.980751 8:-0.070710 9:-0.034055 10:-0.017956
-1 1:-0.308668 2:-1.323263 3:-0.762152 4:1.233274 5:1.712918 6:-1.208920 7:-2.412083 8:-0.269121 9:0.056965 10:0.117399
-1 1:1.351637 2:1.109220 3:-0.224021 4:-0.425336 5:0.800626 6:0.108357 7:-1.235568 8:0.681399 9:-0.364302 10:0.198421
-1 1:0.143545 2:-2.012088 3:-2.450488 4:0.461483 5:-0.752490 6:-0.980776 7:-0.727159 8:-0.828322 9:-1.570209 10:-0.909427
-1 1:0.539461 2:-0.218777 3:0.408856 4:-0.875720 5:-1.374040 6:0.365730 7:-2.076258 8:0.119942 9:-0.584340 10:-0.193912
-1 1:1.513403 2:1.220870 3:-2.284991 4:-0.283022 5:-0.847078 6:-0.347273 7:-1.531220 8:-0.345073 9:-0.837133 10:0.363018
-1 1:-0.013438 2:0.250824 3:-0.425435 4:-0.510763 5:0.156059 6:-0.255453 7:0.307105 8:0.691240 9:-0.646516 10:-2.604100
-1 1:0.330816 2:1.441711 3:0.684996 4:0.338517 5:-0.400560 6:0.600040 7:-0.168147 8:0.382213 9:-0.294073 10:-1.966270
-1 1:0.042978 2:-0.607525 3:0.963002 4:1.215273 5:0.295978 6:0.444811 7:-0.792828 8:0.789826 9:0.029418 10:-0.951429
-1 1:-0.243166 2:-0.267864 3:0.069153 4:0.397551 5:0.042470 6:0.637966 7:1.363414 8:1.030249 9:0.732619 10:0.780928
-1 1:0.332725 2:0.588231 3:-1.973053 4:-1.594064 5:-0.700056 6:0.130557 7:1.017616 8:-0.665743 9:-1.001846 10:0.520490
-1 1:-1.227563 2:-0.728679 3:-1.469877 4:-1.667437 5:-0.007007 6:-1.012172 7:1.025686 8:0.867876 9:0.721894 10:0.075221
-1 1:-1.328797 2:-0.601249 3:-0.521939 4:0.021706 5:0.458596 6:0.744801 7:0.591039 8:0.658924 9:-1.207722 10:-0.987180
-1 1:-0.843736 2:0.711837 3:-0.047857 4:0.635149 5:-1.982726 6:0.176980 7:-1.264347 8:0.645047 9:0.676960 10:-0.040060
-1 1:-1.539162 2:-0.641685 3:-2.500708 4:-1.838062 5:0.285047 6:-0.112902 7:0.490182 8:-0.205386 9:0.312507 10:-0.295623
-1 1:2.028542 2:-0.213892 3:0.084151 4:0.068043 5:0.125051 6:-0.019656 7:-0.162741 8:-0.599851 9:1.697046 10:1.658047
-1 1:-1.201667 2:0.222971 3:-0.776451 4:1.685072 5:-0.138170 6:-0.810263 7:-0.996798 8:2.432354 9:-0.685153 10:-1.098859
-1 1:-0.106694 2:-0.192128 3:-1.140600 4:-0.503767 5:-0.587399 6:-1.638188 7:0.093722 8:0.089917 9:-0.273474 10:0.122176
-1 1:-0.076340 2:-1.121266 3:1.014195 4:-0.954231 5:1.411899 6:-0.205244 7:-0.110945 8:-1.611003 9:0.141297 10:-0.226940
-1 1:-0.261864 2:1.320664 3:-0.435279 4:-0.853502 5:0.071548 6:-0.167189 7:-1.147002 8:-1.815593 9:0.762942 10:-0.394577
-1 1:1.049971 2:-0.725650 3:-1.803402 4:-1.537616 5:0.172981 6:1.503974 7:1.369327 8:0.963784 9:0.116141 10:-0.838597
-1 1:-0.990883 2:-1.561815 3:0.084402 4:1.657515 5:-1.503832 6:0.957543 7:0.828605 8:-2.299902 9:0.308669 10:0.221232
-1 1:-0.574156 2:1.501391 3:-0.954092 4:0.294333 5:-0.405284 6:0.334031 7:0.788375 8:0.635318 9:0.124065 10:-1.184771
-1 1:-0.738271 2:-0.279406 3:1.433036 4:1.339104 5:1.046635 6:-0.747546 7:1.119576 8:-1.637625 9:-0.453207 10:-0.575220
-1 1:0.591522 2:-1.719671 3:0.411294 4:1.102379 5:-0.783582 6:0.315492 7:-0.103407 8:-0.750136 9:1.212234 10:1.239356
-1 1:-0.993172 2:0.267757 3:-0.312225 4:1.635526 5:-0.328290 6:0.022127 7:-0.449402 8:-1.072801 9:-1.990697 10:-1.821927
-1 1:-0.436486 2:0.253209 3:-0.794537 4:-0.740766 5:0.525583 6:-2.036620 7:-0.516224 8:-0.808297 9:2.624719 10:0.447801
-1 1:-1.421190 2:-2.384579 3:0.169666 4:1.409139 5:-0.485622 6:0.530009 7:-0.060759 8:1.648690 9:0.522831 10:0.654595
-1 1:-1.034344 2:0.633749 3:0.146526 4:0.526077 5:-0.186871 6:0.021636 7:1.336421 8:-0.759606 9:-1.294440 10:0.442291
-1 1:-0.389409 2:-2.083052 3:0.467892 4:0.693605 5:-1.581588 6:-0.115110 7:-1.376618 8:-1.587730 9:1.068475 10:0.688134
-1 1:-2.113293 2:0.764337 3:-0.385024 4:-0.074160 5:-0.662683 6:0.135074 7:0.910743 8:2.430504 9:1.213778 10:0.773078
-1 1:0.614379 2:-1.550152 3:-0.168306 4:-0.924919 5:0.893759 6:0.757819 7:1.000124 8:-0.337058 9:0.945888 10:0.312553
-1 1:0.546083 2:0.134758 3:-0.936852 4:-0.325550 5:1.116788 6:-0.366790 7:-0.681247 8:-0.531968 9:-0.622620 10:-1.462577
-1 1:-0.629952 2:-0.787165 3:-0.396933 4:-0.268512 5:0.289508 6:0.517505 7:-0.180454 8:0.139851 9:0.501393 10:-0.206833
-1 1:0.529068 2:-0.637744 3:1.599710 4:-0.734975 5:-0.936252 6:0.614123 7:-0.602411 8:0.734677 9:-0.763115 10:1.903095
-1 1:0.047249 2:-0.324479 3:1.404640 4:1.052875 5:-0.867196 6:0.121487 7:0.143025 8:-0.225760 9:-0.076567 10:-0.508164
-1 1:-0.069650 2:-0.340608 3:0.842360 4:0.397888 5:0.904986 6:-0.986261 7:0.714454 8:-1.669902 9:-0.289784 10:-0.006996
-1 1:-0.052519 2:0.597754 3:-0.133457 4:1.391213 5:-0.300535 6:0.812386 7:0.633600 8:-0.556422 9:-0.792754 10:-1.537583
-1 1:0.484440 2:0.747352 3:0.714622 4:0.047551 5:0.951436 6:-0.804493 7:0.515666 8:0.840651 9:1.362159 10:0.958766
-1 1:0.525725 2:0.288992 3:-1.104509 4:-2.528876 5:0.138627 6:0.084321 7:-0.181355 8:-0.035844 9:0.665695 10:0.638517
-1 1:-1.014895 2:-2.611549 3:0.323879 4:0.181621 5:-0.508054 6:-0.312129 7:-1.511104 8:-0.296803 9:-1.021734 10:0.711150
-1 1:-1.770197 2:-0.053705 3:-0.313123 4:-0.674642 5:1.657014 6:0.098080 7:-0.216120 8:1.562835 9:0.205141 10:-1.254269
-1 1:-0.752832 2:-0.194366 3:-0.314883 4:0.071416 5:0.701098 6:1.253107 7:0.515573 8:0.159255 9:0.438110 10:0.031904
-1 1:0.697896 2:0.781658 3:1.298622 4:-0.769714 5:-1.148186 6:-0.274805 7:-0.004292 8:-1.185494 9:2.296551 10:-0.264046
-1 1:0.283360 2:-1.431728 3:-0.276471 4:0.080048 5:0.797097 6:-0.017672 7:-0.840461 8:-0.358314 9:-1.653567 10:0.268104
-1 1:-0.135854 2:-1.675328 3:-0.905029 4:1.401391 5:0.139860 6:-0.487375 7:-0.348847 8:1.274759 9:-1.682543 10:0.471357
-1 1:1.426787 2:-1.242806 3:1.162939 4:0.024475 5:-0.630242 6:0.124144 7:-0.577165 8:0.944551 9:-0.168925 10:0.252759
-1 1:1.179808 2:0.120952 3:0.490419 4:-0.451363 5:0.760673 6:-0.647196 7:-2.331494 8:0.003781 9:-0.030861 10:-0.354770
-1 1:0.013678 2:0.087829 3:0.349604 4:-1.382114 5:0.386072 6:0.611849 7:0.065907 8:1.184095 9:0.293179 10:-0.932593
-1 1:-0.117350 2:1.286229 3:1.237665 4:-0.275712 5:0.454201 6:2.088428 7:-0.826258 8:-1.620843 9:0.475053 10:-1.172747
-1 1:1.591147 2:0.282892 3:-0.741218 4:1.915266 5:-0.728827 6:0.145154 7:-0.780185 8:0.901801 9:-1.660769 10:-0.443056
-1 1:-2.046174 2:-0.310530 3:0.081473 4:0.074427 5:0.793144 6:1.033487 7:0.882444 8:1.056602 9:-1.311189 10:-1.102934
-1 1:1.262259 2:0.663631 3:-1.317723 4:-0.151206 5:-1.254737 6:1.678391 7:2.842234 8:0.665943 9:0.350461 10:-0.150645
-1 1:-0.194899 2:-0.795854 3:1.466765 4:-0.417415 5:1.675306 6:-0.226375 7:-1.616285 8:0.512829 9:0.760999 10:-0.353185
-1 1:-2.126184 2:0.941066 3:0.351568 4:0.559984 5:-0.453752 6:0.184196 7:1.233634 8:-2.359945 9:-0.157725 10:0.562814
-1 1:-0.705789 2:-0.908816 3:1.559999 4:-0.623419 5:-1.481806 6:1.395965 7:-0.905953 8:0.003994 9:1.155242 10:-0.418057
-1 1:-2.122985 2:0.265548 3:1.856597 4:-0.710877 5:-0.168712 6:-1.146395 7:0.161712 8:0.662785 9:-1.706391 10:0.943695
-1 1:-0.461326 2:-0.956935 3:0.164787 4:2.034764 5:-0.167180 6:0.960382 7:-0.414477 8:0.603545 9:0.385115 10:-1.170071
-1 1:0.552964 2:-0.377219 3:-1.537443 4:1.245056 5:0.741281 6:0.757865 7:0.924610 8:-0.102082 9:0.404120 10:-0.148940
-1 1:0.140237 2:-0.677400 3:-0.203657 4:-0.556150 5:-0.100856 6:0.126137 7:-1.342594 8:0.880956 9:-0.106682 10:1.146065
-1 1:0.280501 2:-0.402865 3:0.369487 4:-0.364962 5:0.458694 6:0.685386 7:-0.823521 8:0.312639 9:-0.182094 10:-0.894841
-1 1:2.763827 2:0.767862 3:-1.210472 4:0.513787 5:-0.496002 6:-1.799636 7:0.391809 8:-0.352234 9:-0.691009 10:-0.187123
-1 1:1.581480 2:1.196841 3:-0.160458 4:-1.048203 5:0.846690 6:1.437252 7:0.022206 8:-2.365366 9:-0.520142 10:-0.655109
-1 1:0.569146 2:-0.330164 3:-1.202892 4:1.229437 5:-0.199670 6:0.209134 7:0.944477 8:2.714922 9:0.249569 10:1.228182
-1 1:0.302370 2:-0.350076 3:-1.685752 4:-0.168585 5:0.792156 6:-0.576544 7:0.434618 8:-1.224472 9:-1.740705 10:0.180964
-1 1:-0.577912 2:0.037201 3:1.516725 4:-1.789139 5:0.536077 6:0.141990 7:1.147578 8:0.465676 9:0.425270 10:-0.506200
-1 1:0.419786 2:-0.907863 3:0.558955 4:1.521183 5:0.053319 6:-0.137058 7:-0.989767 8:0.305438 9:-0.747225 10:0.488040
-1 1:-0.107863 2:0.791566 3:1.041944 4:0.211823 5:-0.796307 6:1.448385 7:0.733613 8:0.182710 9:-2.419423 10:-0.122955
-1 1:-0.021255 2:-1.052423 3:0.226228 4:0.753754 5:-0.650962 6:0.365805 7:0.019317 8:1.106188 9:-0.423411 10:0.098652
-1 1:0.908853 2:0.410008 3:-0.987340 4:0.356943 5:-0.283347 6:-1.481216 7:-0.569907 8:1.279617 9:0.620297 10:-0.196799
-1 1:-0.771421 2:-0.139724 3:-0.515645 4:-1.268761 5:-1.668440 6:-0.205263 7:0.265493 8:1.773381 9:-0.224303 10:0.461244
-1 1:-0.529618 2:1.918668 3:0.092659 4:0.646357 5:0.948488 6:-0.047130 7:0.675313 8:-0.740502 9:0.277972 10:1.854206
-1 1:-0.165523 2:-0.518053 3:1.341905 4:0.225864 5:1.997831 6:1.639267 7:2.166519 8:0.876086 9:0.782976 10:0.506060
-1 1:-0.427843 2:0.013177 3:0.790826 4:-1.021368 5:-0.871976 6:-0.138974 7:0.699918 8:1.257162 9:0.550978 10:1.457487
-1 1:0.999352 2:-1.296209 3:0.557995 4:-0.924146 5:1.898524 6:0.686234 7:-3.126835 8:-1.006289 9:-1.250452 10:-1.111295
-1 1:-0.826292 2:-1.199987 3:-1.037407 4:-0.369417 5:0.055669 6:0.263927 7:1.065016 8:0.123030 9:-1.433378 10:0.150440
-1 1:-0.587243 2:-0.079304 3:1.213971 4:0.655025 5:0.616558 6:0.665431 7:-1.359708 8:-1.662201 9:-0.248839 10:-0.501566
-1 1:0.580547 2:0.410387 3:-1.684333 4:-1.169955 5:0.318580 6:-0.945782 7:-0.809142 8:0.561542 9:-0.772151 10:-2.075621
-1 1:-0.683839 2:-2.623026 3:-0.768795 4:-0.864758 5:-0.445013 6:-0.830359 7:-0.094390 8:-1.841744 9:0.417295 10:-1.140567
-1 1:0.056779 2:-1.792933 3:0.011044 4:0.541841 5:0.086101 6:-0.704686 7:-0.039488 8:-0.073764 9:1.323814 10:-0.409886
-1 1:0.008278 2:0.990767 3:-1.647558 4:0.829654 5:0.139154 6:1.136013 7:-0.660047 8:1.047976 9:0.816126 10:1.403913
-1 1:1.816719 2:-0.722442 3:-1.672663 4:0.690044 5:0.236560 6:-0.982149 7:-0.429505 8:1.309671 9:1.741937 10:1.053715
-1 1:1.738135 2:-1.760437 3:-0.899308 4:0.388475 5:-0.631531 6:-0.893940 7:0.298020 8:-1.299880 9:0.066666 10:0.455840
-1 1:-1.046470 2:1.382106 3:-1.055219 4:-0.085502 5:1.230350 6:-0.042486 7:1.847779 8:1.334361 9:0.220079 10:1.196619
-1 1:1.561693 2:0.058945 3:-0.531026 4:-1.779770 5:1.536816 6:1.544440 7:0.063241 8:1.029652 9:-0.095133 10:-1.495360
-1 1:-0.281463 2:1.552882 3:0.798715 4:0.662018 5:-0.145191 6:0.557218 7:2.372838 8:0.354668 9:0.006768 10:-0.660581
-1 1:-0.601554 2:0.482256 3:0.513771 4:-1.854692 5:0.937006 6:0.844328 7:0.685845 8:-0.076573 9:0.808509 10:0.340688
-1 1:-1.080934 2:-0.368701 3:0.491406 4:0.741819 5:-1.951931 6:-0.320951 7:-2.057156 8:-2.063667 9:-0.291174 10:-1.571267
-1 1:-2.311846 2:-1.414313 3:-0.603427 4:-0.048518 5:-0.712342 6:-0.373448 7:0.086855 8:0.437327 9:0.118794 10:0.078172
-1 1:-2.027824 2:-1.390126 3:0.675701 4:-1.357538 5:0.761837 6:1.016048 7:0.750516 8:0.926663 9:1.508535 10:-0.077573
-1 1:-0.839190 2:0.301737 3:-0.101514 4:1.783828 5:0.453528 6:0.169761 7:0.127438 8:1.405168 9:0.556253 10:-1.002857
-1 1:0.952406 2:0.347192 3:2.405984 4:-0.246332 5:0.945076 6:0.779260 7:0.877310 8:0.104151 9:1.931087 10:1.552919
-1 1:-0.088332 2:-1.010315 3:0.274022 4:-2.366761 5:-0.737043 6:-0.025958 7:0.018779 8:0.279975 9:2.038206 10:-0.692545
-1 1:-1.544080 2:0.153193 3:1.668300 4:0.516533 5:0.294625 6:-0.251212 7:-2.053717 8:0.928864 9:0.003199 10:-0.653870
-1 1:0.672902 2:-0.106284 3:-0.397477 4:-0.998147 5:0.066656 6:-0.467171 7:0.968507 8:1.303468 9:0.644044 10:1.531369
-1 1:1.615537 2:0.545025 3:0.744717 4:-0.402555 5:-0.286205 6:0.005735 7:-1.250927 8:0.470272 9:-0.292561 10:1.158701
-1 1:-0.341588 2:-1.161400 3:1.416106 4:2.207496 5:-0.168774 6:-0.242454 7:0.054888 8:-1.485639 9:-1.524961 10:-0.306743
-1 1:-0.745650 2:-0.168943 3:0.081854 4:-0.540197 5:0.046023 6:0.866019 7:0.395939 8:-0.671536 9:0.112709 10:-0.608108
-1 1:0.513048 2:-0.094266 3:0.255677 4:-0.839984 5:-0.301321 6:1.631526 7:1.976824 8:-0.724929 9:-0.192715 10:-0.630777
-1 1:-0.693916 2:0.787107 3:1.173138 4:-0.345927 5:0.266105 6:0.360265 7:0.399372 8:-1.344845 9:-0.240874 10:-0.884418
-1 1:1.107307 2:0.582888 3:-0.838003 4:-0.090906 5:1.218687 6:0.416825 7:-1.431351 8:-0.073333 9:0.570081 10:-1.802683
-1 1:2.003304 2:1.985819 3:0.514404 4:0.431485 5:-0.421574 6:-0.324305 7:-0.582602 8:-0.085411 9:-1.184675 10:-1.675323
-1 1:-1.079463 2:-0.738214 3:-0.389130 4:0.422248 5:-1.169042 6:1.340188 7:-0.158154 8:-0.095323 9:-0.209508 10:-0.210111
-1 1:0.019484 2:-0.276615 3:1.014075 4:-1.499105 5:0.308059 6:0.000519 7:-0.864923 8:-1.171320 9:-1.227050 10:0.980385
-1 1:-1.272591 2:-1.426171 3:-0.396308 4:1.203543 5:1.390374 6:0.522813 7:1.085982 8:-0.231690 9:-0.827305 10:-1.742421
-1 1:0.052783 2:1.313381 3:-1.728448 4:-0.352501 5:0.616418 6:2.025551 7:-0.698224 8:-0.350098 9:0.238941 10:-0.090864
-1 1:0.548345 2:2.059324 3:1.250671 4:-0.785050 5:-1.067541 6:-1.435471 7:-0.249596 8:0.556073 9:2.166128 10:-0.295093
-1 1:1.273473 2:-0.698959 3:0.671312 4:1.135935 5:0.062730 6:-0.020778 7:-0.364859 8:1.741596 9:-0.254244 10:0.582483
-1 1:1.798677 2:-1.038126 3:0.982985 4:-2.475797 5:-0.225202 6:1.368239 7:-0.385159 8:0.219409 9:-1.241865 10:-0.857758
-1 1:-1.119070 2:0.592817 3:-0.927848 4:-0.711336 5:-0.789199 6:0.671510 7:0.033660 8:-0.706654 9:0.993950 10:0.845290
-1 1:0.721426 2:0.242864 3:1.049772 4:0.564494 5:0.349045 6:1.263947 7:-0.815635 8:-0.100054 9:-0.459043 10:2.318508
-1 1:-0.162786 2:1.995567 3:-1.768616 4:0.433198 5:1.373958 6:-1.838567 7:-0.949675 8:-0.252345 9:0.534063 10:1.080448
-1 1:-0.375647 2:0.999527 3:-0.043001 4:-0.250886 5:-0.154680 6:1.897880 7:-0.317857 8:-0.421121 9:1.806517 10:-0.353230
-1 1:-0.598030 2:0.579425 3:0.430583 4:-0.053922 5:0.109045 6:0.275759 7:-1.175086 8:0.231774 9:-0.418065 10:0.337478
-1 1:-1.294827 2:0.342069 3:-0.310980 4:0.634954 5:0.484678 6:-0.980049 7:1.244027 8:-0.394283 9:0.647220 10:0.075241
-1 1:0.837929 2:-0.162889 3:0.338494 4:-0.143758 5:0.437152 6:-1.449100 7:0.619884 8:-0.492943 9:0.893997 10:1.523282
-1 1:0.465226 2:0.722722 3:-0.348609 4:-0.970405 5:-0.394787 6:-1.068747 7:-0.670906 8:0.639761 9:0.860408 10:0.143098
-1 1:0.314489 2:0.377075 3:-0.340413 4:1.103204 5:-0.659121 6:-0.725119 7:-0.734932 8:-1.027121 9:-0.259560 10:0.233279
-1 1:-0.319156 2:0.154604 3:-0.597497 4:-0.094764 5:1.142685 6:0.187113 7:-0.703195 8:1.027013 9:-0.669077 10:-1.034918
-1 1:-0.331011 2:-0.698792 3:0.251319 4:0.133586 5:0.835568 6:-0.799911 7:-0.313477 8:-0.565352 9:-1.076704 10:-0.456395
-1 1:-0.601819 2:0.952108 3:-0.163883 4:-0.774910 5:-0.212599 6:-0.081524 7:0.864063 8:-1.007373 9:-0.052516 10:0.495998
-1 1:-1.111214 2:0.575084 3:-0.725133 4:0.731999 5:-2.782785 6:-0.467500 7:1.738474 8:-0.355166 9:-0.906250 10:-1.329626
-1 1:0.747561 2:-1.093409 3:0.350298 4:-0.283105 5:-0.305765 6:1.063694 7:-0.627993 8:-1.542787 9:-1.271463 10:-0.545960
-1 1:-0.262701 2:-0.238519 3:0.285094 4:-2.072463 5:1.319556 6:-0.515357 7:-0.266524 8:1.146640 9:-0.459721 10:-0.056912
-1 1:0.093081 2:-0.382284 3:0.841625 4:-0.728398 5:-0.070846 6:-0.303768 7:-0.437930 8:0.879301 9:1.788168 10:1.397920
-1 1:-1.689164 2:1.823838 3:-0.414762 4:-2.207821 5:0.074471 6:-0.295661 7:-0.758605 8:-1.461065 9:-0.943817 10:-0.347729
-1 1:0.130603 2:1.090994 3:1.280761 4:2.942063 5:-2.021140 6:0.573247 7:1.120268 8:0.856237 9:-0.494368 10:-0.897940
-1 1:-0.112535 2:-0.724203 3:-0.181446 4:-1.196313 5:0.655937 6:0.841590 7:0.681277 8:0.733403 9:1.466886 10:0.077164
-1 1:1.618909 2:-1.117795 3:-1.534239 4:0.974372 5:-0.262829 6:2.247239 7:1.106282 8:-0.714562 9:0.186410 10:0.786576
-1 1:-0.822644 2:-0.145254 3:0.755325 4:-0.754252 5:-0.043639 6:-0.162076 7:1.357389 8:-0.454799 9:1.160959 10:-0.980227
-1 1:-2.135575 2:-0.869396 3:-1.173677 4:0.404300 5:-0.308681 6:-1.416991 7:2.790538 8:0.690765 9:0.819563 10:-0.330463
-1 1:-1.556622 2:0.289260 3:0.198352 4:-0.395065 5:-1.185907 6:0.105073 7:1.597109 8:1.015069 9:1.356508 10:0.961312
-1 1:-0.371198 2:0.615771 3:-1.670115 4:0.093623 5:-1.742576 6:-0.753177 7:-0.721345 8:1.232821 9:-0.356283 10:-0.854340
-1 1:1.604204 2:-0.998996 3:0.625540 4:-0.717352 5:0.259870 6:-0.318604 7:-0.447489 8:-0.845630 9:0.849734 10:1.000838
-1 1:-1.075300 2:-1.771316 3:0.682767 4:1.797422 5:-1.501237 6:-0.544100 7:-1.198300 8:0.655324 9:-0.204755 10:-1.684261
-1 1:0.828683 2:0.162768 3:-0.470595 4:-1.035749 5:-0.650598 6:-0.046556 7:1.836145 8:1.029246 9:-1.054822 10:-1.351270
-1 1:-1.620677 2:-1.805963 3:0.198628 4:0.015100 5:-0.405931 6:-0.519529 7:-0.574082 8:1.099397 9:0.053185 10:-1.444778
-1 1:0.416469 2:-0.548245 3:-1.370927 4:1.936372 5:1.044821 6:-1.175550 7:1.390652 8:-0.405051 9:-0.043861 10:0.577403
-1 1:-0.683337 2:-0.554664 3:-0.356741 4:0.596724 5:0.437445 6:-0.546291 7:0.118663 8:0.943372 9:0.039817 10:-0.158215
-1 1:-0.067322 2:-0.588276 3:0.131262 4:-1.751518 5:0.991079 6:-0.595309 7:0.147447 8:1.729274 9:0.760014 10:0.935555
-1 1:0.826818 2:-1.179875 3:0.353262 4:-1.755502 5:-0.299226 6:0.674401 7:0.927311 8:-0.865372 9:-0.688896 10:-1.629576
-1 1:-0.444697 2:-0.688679 3:-0.060652 4:0.667122 5:0.430006 6:-1.219710 7:0.402943 8:-0.228014 9:0.324010 10:0.422972
-1 1:-0.562384 2:0.770984 3:1.257702 4:-1.015483 5:1.074802 6:-0.690114 7:1.121824 8:1.973382 9:0.399458 10:-0.284032
-1 1:-2.272314 2:-0.567885 3:0.166833 4:-0.392296 5:1.461337 6:0.488033 7:-2.038178 8:-1.170032 9:0.044997 10:-0.454338
-1 1:-0.395967 2:0.760757 3:-1.809561 4:1.028774 5:0.013366 6:-0.052625 7:-2.466283 8:-0.099778 9:-2.204686 10:1.253211
-1 1:1.560241 2:-1.145447 3:-0.373456 4:-1.660958 5:0.644277 6:-0.620634 7:-1.142069 8:-1.415216 9:0.884407 10:0.105895
-1 1:-1.011322 2:1.117590 3:1.292182 4:-0.143718 5:1.686626 6:-0.503689 7:-0.453610 8:-0.554378 9:-0.394340 10:-0.191160
-1 1:1.443351 2:-1.154589 3:-0.519389 4:0.645482 5:1.760279 6:-1.028925 7:-0.975415 8:-0.498587 9:-0.178078 10:0.386786
-1 1:-0.350265 2:0.855570 3:-0.743299 4:0.178128 5:0.278272 6:-1.096356 7:2.019551 8:0.462433 9:2.229003 10:0.873881
-1 1:-1.526404 2:0.506023 3:0.309302 4:2.290594 5:-0.064357 6:0.001322 7:0.502887 8:-0.144984 9:1.680272 10:-0.044267
-1 1:0.402002 2:-0.284072 3:-0.430340 4:-1.819366 5:-0.393984 6:-2.391885 7:1.019892 8:0.896913 9:-0.451583 10:-0.401058
-1 1:-1.165919 2:2.612460 3:-0.042031 4:-0.907109 5:-0.249575 6:0.411871 7:-0.909956 8:0.216992 9:0.129696 10:-0.568126
-1 1:1.571430 2:-0.402958 3:-0.514694 4:-0.708480 5:1.076621 6:1.486949 7:1.327176 8:1.162051 9:-0.260790 10:-0.905869
-1 1:-0.218748 2:-0.358402 3:-0.417438 4:2.162419 5:-0.194020 6:-1.190897 7:0.963501 8:0.024961 9:0.788017 10:0.860631
-1 1:-1.044361 2:-0.061909 3:0.747470 4:-1.898952 5:0.714638 6:1.203790 7:0.158190 8:-0.599522 9:-0.492874 10:1.478013
-1 1:-0.950282 2:-1.304001 3:0.526634 4:0.653955 5:-0.268828 6:-1.141579 7:0.142413 8:0.838734 9:0.417285 10:0.356572
-1 1:-0.098459 2:-1.001759 3:-0.559048 4:-0.431201 5:0.304172 6:0.843188 7:2.532595 8:0.632067 9:1.921121 10:-0.873639
-1 1:-0.034098 2:-0.272948 3:-1.498215 4:0.305840 5:-0.094913 6:-1.167171 7:-2.332372 8:-1.905586 9:-0.045840 10:1.141432
-1 1:-0.018426 2:0.001918 3:1.000130 4:0.811057 5:-0.232295 6:1.269756 7:0.480507 8:-2.367508 9:-0.572617 10:-0.286781
-1 1:-0.403734 2:-2.519603 3:-0.471956 4:-0.609293 5:-2.652342 6:-0.195991 7:0.055815 8:0.962462 9:0.085710 10:1.482148
-1 1:1.320319 2:-1.720860 3:0.505993 4:0.373370 5:-1.221117 6:-0.658548 7:-0.526538 8:1.390431 9:2.066156 10:0.692295
-1 1:-2.503162 2:0.925981 3:-2.470766 4:0.414664 5:-1.396802 6:1.015605 7:-1.534839 8:0.515524 9:0.125351 10:0.273971
-1 1:-2.052262 2:1.500956 3:1.869668 4:-1.637454 5:0.832975 6:-1.028717 7:0.558807 8:-0.770921 9:-0.493133 10:0.958489
-1 1:-0.178753 2:1.523380 3:-1.483365 4:0.049240 5:-0.911696 6:-0.084074 7:0.268723 8:-0.596850 9:-0.736497 10:-0.627864
-1 1:-1.885324 2:0.816444 3:1.710536 4:0.792791 5:-0.865205 6:-0.043736 7:0.748096 8:0.450850 9:-0.195388 10:0.988225
-1 1:-1.295336 2:-1.545943 3:1.201017 4:0.039116 5:0.214144 6:-0.584164 7:1.667752 8:-0.541700 9:-1.866354 10:-0.815418
-1 1:0.186325 2:-1.355788 3:0.479981 4:-0.328255 5:-0.381258 6:-0.623810 7:-0.019399 8:-1.554739 9:-0.004002 10:-0.963833
-1 1:-1.633334 2:-1.894751 3:0.051309 4:-0.159793 5:-1.946319 6:-0.386538 7:0.320084 8:-0.122898 9:-0.908234 10:-0.350850
-1 1:-0.595640 2:0.724145 3:0.133243 4:-1.182650 5:-0.616760 6:0.552450 7:0.771232 8:0.832200 9:-1.330303 10:0.750304
-1 1:0.213622 2:-0.183005 3:1.583690 4:-1.225413 5:-0.159825 6:0.652321 7:-0.880919 8:1.022263 9:-0.264312 10:0.459321
-1 1:1.759505 2:0.830673 3:-0.221536 4:0.421953 5:-0.324894 6:0.490880 7:-0.744480 8:-0.156180 9:1.821965 10:1.698818
-1 1:-1.156553 2:1.186254 3:0.845121 4:1.922085 5:1.070269 6:-1.079349 7:0.152094 8:-0.746545 9:-1.033917 10:-1.107500
-1 1:0.910173 2:0.309278 3:-0.564718 4:0.017459 5:2.021875 6:0.257937 7:-1.366761 8:0.856492 9:-1.261795 10:-0.534540
-1 1:0.317725 2:-0.039158 3:0.450046 4:-1.267062 5:-0.586421 6:-0.717863 7:-0.446207 8:0.413015 9:0.013125 10:-0.546371
-1 1:0.801907 2:0.138435 3:-0.070180 4:-0.612674 5:0.525429 6:1.651158 7:-1.086945 8:1.239930 9:0.304693 10:-0.483115
-1 1:0.141614 2:1.038078 3:-0.563612 4:-0.280808 5:1.499612 6:0.972825 7:-0.806288 8:1.657379 9:1.565373 10:0.020692
-1 1:-2.360460 2:-0.174554 3:2.028419 4:-1.866141 5:0.664812 6:0.328463 7:0.130191 8:-1.798334 9:-0.748712 10:1.746459
-1 1:-0.695330 2:-0.586705 3:0.017672 4:-1.007726 5:0.559961 6:1.061267 7:0.019485 8:-1.007027 9:2.201621 10:-0.669190
-1 1:0.246306 2:0.175848 3:-1.880755 4:0.733597 5:-0.673299 6:-0.098326 7:-0.590493 8:1.579845 9:0.961739 10:-0.803237
-1 1:-0.709431 2:-0.286116 3:0.932760 4:0.566316 5:-0.856189 6:-1.785119 7:-1.350194 8:0.652982 9:-0.040351 10:-0.916838
-1 1:-0.609745 2:0.758792 3:-0.382801 4:0.776154 5:0.618834 6:0.944198 7:-1.826598 8:0.212265 9:1.155980 10:-0.228743
-1 1:0.213415 2:1.224105 3:0.859076 4:0.260023 5:-0.638690 6:0.321783 7:0.634854 8:0.361895 9:-0.609892 10:-0.036306
-1 1:0.463311 2:0.099200 3:0.821282 4:1.481537 5:0.937422 6:0.349110 7:-0.957111 8:0.369000 9:0.019807 10:-1.450268
-1 1:-0.678819 2:0.734945 3:-0.407736 4:-0.614137 5:1.097884 6:-0.915860 7:1.017337 8:0.169926 9:0.816760 10:0.195502
-1 1:1.059734 2:0.044176 3:1.137958 4:-1.007224 5:-0.953872 6:-1.064798 7:1.303203 8:0.378464 9:1.264108 10:0.960336
-1 1:0.323411 2:-0.081002 3:-1.656760 4:-0.515627 5:-0.441344 6:-0.219596 7:1.065115 8:1.032675 9:-0.923424 10:0.916619
-1 1:1.612652 2:-0.778698 3:1.095171 4:-0.697333 5:-0.138594 6:-0.613500 7:-0.035858 8:1.364492 9:1.122835 10:0.414435
-1 1:0.230387 2:-0.482734 3:-2.076002 4:0.260460 5:0.572762 6:1.239820 7:2.219230 8:0.159688 9:-0.443372 10:0.508696
-1 1:0.310294 2:-0.106853 3:-1.353312 4:0.629369 5:-1.080344 6:-0.709475 7:-1.170308 8:1.222271 9:-2.251202 10:1.107091
-1 1:-0.544278 2:-0.340102 3:1.376706 4:-1.788039 5:0.086667 6:0.599805 7:0.639230 8:-0.106408 9:0.819682 10:0.626322
-1 1:0.033491 2:-0.435268 3:-0.496465 4:0.305071 5:0.131765 6:-0.376655 7:-0.658051 8:1.571513 9:0.233009 10:-1.115421
-1 1:0.519501 2:-0.705821 3:0.765283 4:-0.853852 5:1.502604 6:1.372956 7:1.658205 8:0.680712 9:0.036620 10:-0.290761
-1 1:-0.418784 2:0.535394 3:0.013324 4:1.234869 5:-0.353345 6:0.045216 7:-1.210218 8:-2.242781 9:-0.116987 10:-0.260981
-1 1:0.072747 2:-0.536502 3:0.879057 4:1.143426 5:-1.694393 6:0.088418 7:-1.266122 8:-0.501967 9:-0.686266 10:0.114842
-1 1:0.714873 2:-0.781501 3:-0.810112 4:-1.975083 5:2.020226 6:-1.300010 7:-0.730899 8:0.878223 9:-1.429311 10:1.074640
-1 1:1.132721 2:-0.320060 3:0.401824 4:0.592240 5:-0.077466 6:0.665158 7:0.169097 8:0.574172 9:-1.012453 10:1.068326
-1 1:2.065745 2:-1.042751 3:0.835061 4:-1.004382 5:0.713126 6:-0.671076 7:-0.734949 8:-0.904363 9:-0.839297 10:0.493396
-1 1:0.977870 2:0.250664 3:1.582392 4:0.737570 5:0.782324 6:-0.284893 7:-0.150015 8:-0.118750 9:0.705198 10:0.064065
-1 1:-0.264717 2:-0.998161 3:-1.061908 4:-0.824437 5:1.905297 6:-0.316743 7:0.813964 8:-0.872325 9:1.081072 10:0.653393
-1 1:-0.246500 2:-0.595752 3:0.355023 4:0.184347 5:1.218179 6:-1.836511 7:1.569270 8:-0.178312 9:0.527948 10:-1.146599
-1 1:0.558029 2:-1.215157 3:1.349581 4:-1.945730 5:1.708330 6:1.306658 7:-0.249990 8:0.828370 9:-1.681479 10:-0.722130
-1 1:0.316325 2:-1.444745 3:1.527427 4:0.074884 5:-0.289288 6:1.285657 7:1.160893 8:-0.599879 9:-0.755203 10:2.541848
-1 1:-0.962782 2:-2.985284 3:-0.730545 4:-0.762243 5:-0.252708 6:-1.193253 7:1.755833 8:1.570268 9:-2.170839 10:-1.534754
-1 1:0.153168 2:1.379710 3:-1.097232 4:-1.108028 5:-0.632762 6:-0.227132 7:0.030760 8:-1.921431 9:0.203964 10:-1.047519
-1 1:3.066153 2:0.720893 3:1.013423 4:1.068955 5:1.231477 6:-0.884587 7:-0.758304 8:-0.618600 9:-2.690124 10:0.213102
-1 1:-2.260325 2:-1.928636 3:0.737477 4:-0.160457 5:0.489970 6:0.393193 7:0.334910 8:-0.135511 9:0.957952 10:-0.108089
-1 1:0.741939 2:0.683063 3:0.803392 4:1.283210 5:0.566438 6:-0.050400 7:-2.107134 8:-1.061352 9:-1.252772 10:0.840742
-1 1:-0.460527 2:0.566399 3:-0.173886 4:2.459788 5:1.212069 6:-1.481356 7:0.030864 8:-0.090458 9:0.783214 10:1.963589
-1 1:-0.218145 2:1.449519 3:-0.632961 4:-0.437414 5:0.612340 6:-0.896159 7:0.669280 8:-1.275243 9:0.496040 10:0.439978
-1 1:0.674096 2:1.265913 3:1.829078 4:1.741524 5:1.031647 6:-0.198277 7:-1.201735 8:-2.066908 9:0.028839 10:-0.831728
-1 1:-1.111001 2:-0.817046 3:2.142430 4:-1.470905 5:-1.289312 6:-0.732908 7:-0.739049 8:-0.105270 9:0.850183 10:0.845051
-1 1:1.274993 2:1.376296 3:-0.140266 4:-2.598170 5:-0.172061 6:1.063687 7:-0.032389 8:1.553292 9:-0.425220 10:0.089769
-1 1:1.195334 2:0.835492 3:-0.241446 4:-2.590565 5:-0.385373 6:0.982753 7:1.129347 8:-1.656795 9:0.856953 10:2.194781
-1 1:-0.674923 2:-0.328364 3:-1.339807 4:-0.707996 5:0.272885 6:-0.364022 7:0.740182 8:-0.013960 9:0.732472 10:0.367748
-1 1:0.071345 2:-0.638975 3:-0.591233 4:-2.028959 5:-0.844893 6:-0.514478 7:-0.655002 8:-0.364181 9:0.310209 10:0.156389
-1 1:0.023210 2:0.950241 3:0.006675 4:-0.163123 5:-0.553522 6:-1.246351 7:-0.435146 8:-0.481492 9:-0.158726 10:-0.111496
-1 1:-0.008284 2:-0.285018 3:-1.955155 4:1.419673 5:-0.838312 6:1.555548 7:-0.294539 8:0.208126 9:-1.359738 10:0.002026
-1 1:3.648291 2:-0.704458 3:-0.447226 4:-1.185592 5:3.391151 6:-0.378082 7:0.432036 8:1.654433 9:-0.480544 10:-0.898943
-1 1:-1.431505 2:-0.151905 3:0.509751 4:-0.881824 5:-0.957833 6:0.256005 7:-0.677168 8:0.434099 9:-0.468049 10:0.037447
-1 1:0.055641 2:-0.437590 3:-1.015855 4:-0.276152 5:-1.261946 6:1.684664 7:-0.500259 8:0.044296 9:-0.085967 10:1.036520
-1 1:0.035719 2:2.359365 3:0.936802 4:-0.100779 5:-1.344571 6:-2.187570 7:0.848232 8:1.270594 9:-0.490526 10:0.056605
-1 1:-0.609118 2:1.541264 3:-0.194151 4:0.867474 5:0.228473 6:0.066274 7:-1.378857 8:-0.538675 9:-0.007266 10:-0.626960
-1 1:1.906342 2:0.388256 3:-0.215993 4:0.730782 5:0.716801 6:-0.989127 7:-0.427111 8:-0.219074 9:-1.712807 10:-0.611683
-1 1:-0.305223 2:2.265973 3:-1.248173 4:0.059730 5:-0.083265 6:1.943562 7:-0.032636 8:0.077698 9:-0.552835 10:0.976559
-1 1:-0.459388 2:-1.348550 3:0.300167 4:-1.860646 5:0.696043 6:-0.458125 7:-1.609911 8:0.726864 9:1.446173 10:-0.801617
-1 1:0.667384 2:1.084736 3:-1.059227 4:0.903132 5:0.868642 6:-0.158070 7:-0.273494 8:-1.775190 9:-0.707222 10:0.192276
-1 1:-0.131757 2:-1.695969 3:0.665102 4:-0.725600 5:-0.278747 6:0.620399 7:1.866067 8:-0.308172 9:-2.013999 10:0.631106
-1 1:-0.240057 2:-0.616435 3:-0.220004 4:-1.220306 5:1.536005 6:-0.001843 7:-1.235847 8:0.634712 9:-1.323351 10:-0.367416
-1 1:1.277141 2:-0.594072 3:0.355862 4:-0.192077 5:-0.838707 6:-1.218881 7:-2.548512 8:-0.544014 9:-0.724781 10:0.219108
-1 1:-1.064493 2:0.820994 3:-1.450818 4:0.264236 5:-0.017526 6:-0.651038 7:0.750555 8:0.803333 9:1.696422 10:0.165027
-1 1:-0.069866 2:-0.446330 3:0.460598 4:-0.201487 5:1.279064 6:-0.490497 7:-1.553196 8:-0.286210 9:-0.682160 10:0.592358
-1 1:-0.116204 2:-0.648818 3:0.681462 4:0.730331 5:0.099235 6:1.597274 7:0.462297 8:-1.839030 9:-1.070038 10:-0.155179
-1 1:-1.865895 2:-0.973282 3:0.812527 4:0.067110 5:0.551694 6:0.635423 7:0.652951 8:0.547596 9:-0.713774 10:0.219367
-1 1:1.341909 2:0.832001 3:0.752688 4:-0.346134 5:0.266111 6:-0.022698 7:-0.840902 8:-0.866982 9:-0.195187 10:0.680941
-1 1:0.498480 2:-0.804832 3:-0.083453 4:-0.048987 5:-0.405098 6:0.506433 7:0.015070 8:-0.040077 9:-2.057573 10:1.339931
-1 1:-1.970650 2:1.148011 3:2.250801 4:0.268304 5:0.105023 6:1.939845 7:1.635358 8:-0.256382 9:-0.938661 10:-1.490840
-1 1:0.210057 2:0.675984 3:0.481338 4:1.344581 5:1.312973 6:-0.232780 7:-1.334410 8:-1.731830 9:0.344126 10:0.994120
-1 1:-0.042796 2:0.055583 3:1.965738 4:-0.106873 5:0.538162 6:0.921633 7:-0.211072 8:-1.575105 9:-0.544758 10:-0.429052
-1 1:-0.857614 2:-0.667814 3:1.556855 4:0.111530 5:-0.674212 6:-1.317349 7:-1.278003 8:-1.245578 9:-1.171358 10:0.917220
-1 1:0.539681 2:-0.959234 3:-1.487255 4:-0.700674 5:-0.863579 6:0.180348 7:-1.192814 8:0.027932 9:-1.267294 10:-1.792973
-1 1:-0.154497 2:0.612469 3:-0.672153 4:0.950984 5:-0.347271 6:0.266618 7:0.625718 8:-1.039269 9:0.280283 10:-0.590336
-1 1:0.188476 2:0.049261 3:0.175924 4:1.114981 5:-0.518620 6:0.411873 7:0.356083 8:0.856825 9:-0.290325 10:-0.074564
-1 1:-1.880667 2:1.395605 3:-0.398046 4:-0.347264 5:-0.103316 6:-0.047585 7:0.976227 8:1.576634 9:0.935661 10:-0.871119
-1 1:-1.002628 2:1.601663 3:0.484268 4:1.024646 5:-1.016747 6:0.084849 7:0.801628 8:-1.094506 9:-1.581411 10:1.110601
-1 1:-0.680691 2:-1.059393 3:-0.291508 4:0.889949 5:0.498902 6:-0.528838 7:0.440397 8:-1.487461 9:0.382700 10:1.662242
-1 1:-0.377884 2:-0.955920 3:-0.161879 4:1.398500 5:-0.396175 6:-0.886142 7:-0.067408 8:-0.333596 9:1.542068 10:1.371502
-1 1:-0.732820 2:0.217373 3:-0.392769 4:1.734903 5:0.477281 6:-0.382869 7:0.889245 8:-0.392724 9:1.855984 10:0.078280
-1 1:-0.093548 2:0.302028 3:-1.178375 4:-0.826054 5:0.391649 6:-1.167160 7:-0.124237 8:0.441462 9:-0.159511 10:-0.645078
-1 1:-0.179488 2:0.420420 3:-0.247906 4:1.717341 5:0.901656 6:-0.570658 7:0.251126 8:0.985620 9:0.653045 10:-0.506317
-1 1:0.016979 2:1.021519 3:0.702133 4:-1.496559 5:-2.935755 6:-2.066227 7:3.353646 8:-0.277850 9:-0.300284 10:-0.201622
-1 1:0.037207 2:-0.505111 3:0.913630 4:1.437104 5:-0.868500 6:0.150134 7:1.005915 8:0.917662 9:-0.937523 10:2.102968
-1 1:-0.328245 2:1.630778 3:-0.034484 4:-0.460197 5:-0.363452 6:1.837423 7:0.613937 8:0.699958 9:-1.098956 10:-0.700912
-1 1:-0.414281 2:-0.308848 3:-0.065439 4:-0.406764 5:1.456469 6:1.206599 7:-0.165149 8:0.058379 9:-0.154581 10:-0.262794
-1 1:0.500296 2:0.685661 3:-2.059552 4:-1.072859 5:0.570955 6:1.142056 7:-1.929231 8:0.897511 9:0.228999 10:-0.853157
-1 1:1.119307 2:0.418376 3:-0.052235 4:-0.027806 5:-0.166487 6:-0.289240 7:-0.333937 8:0.556972 9:-1.475783 10:0.613548
-1 1:0.078755 2:0.248893 3:1.661817 4:0.070316 5:-0.656818 6:0.503510 7:-1.241645 8:0.814006 9:-0.250492 10:0.197861
-1 1:0.015342 2:-2.426815 3:0.566742 4:0.103406 5:-0.202359 6:-0.160621 7:-1.992397 8:-0.690833 9:1.985205 10:-0.508579
-1 1:-0.515276 2:2.585757 3:-1.091891 4:0.642840 5:-0.133445 6:1.131668 7:0.498616 8:0.943940 9:0.988022 10:-0.399240
-1 1:-0.728896 2:1.652827 3:0.310477 4:-0.627592 5:1.553144 6:-0.042019 7:-2.088490 8:-1.650181 9:-0.094493 10:0.275227
-1 1:-1.129774 2:0.504690 3:0.309805 4:1.619610 5:0.289343 6:0.505286 7:0.044242 8:0.486953 9:-0.082052 10:-0.779514
-1 1:0.011201 2:0.133105 3:-0.587439 4:1.662401 5:-0.150184 6:0.777160 7:-1.004543 8:-1.396295 9:1.577446 10:-0.300068
-1 1:0.435968 2:-0.082603 3:0.092249 4:1.632464 5:1.025656 6:0.384548 7:-1.948131 8:-0.676492 9:-1.198148 10:-0.125655
-1 1:1.559661 2:1.017664 3:0.374497 4:-0.729074 5:-0.772395 6:0.982942 7:-0.306069 8:0.970751 9:1.115905 10:0.754350
-1 1:0.747088 2:1.379420 3:-1.120758 4:-0.280383 5:-1.008629 6:-0.406411 7:-2.396063 8:-0.935253 9:-0.668497 10:0.532242
-1 1:0.895246 2:-0.992516 3:1.203364 4:1.256418 5:-0.598657 6:0.713228 7:-0.390583 8:-1.404802 9:1.416950 10:0.992979
-1 1:-0.735192 2:0.249771 3:2.146929 4:-1.343548 5:-0.102685 6:-0.544946 7:-1.854021 8:-1.942991 9:0.198241 10:1.193564
-1 1:0.906194 2:0.014764 3:0.713064 4:-0.069111 5:1.057590 6:-1.893121 7:-0.289084 8:0.507621 9:0.434057 10:-0.286005
-1 1:-0.443416 2:0.959813 3:-0.234892 4:-0.321506 5:1.192817 6:0.073231 7:-1.268028 8:1.604815 9:-0.564212 10:-0.158328
-1 1:0.891192 2:-0.949567 3:1.705806 4:0.512981 5:1.046694 6:1.327470 7:2.580488 8:-0.989843 9:0.497206 10:0.753512
-1 1:-0.619031 2:1.261471 3:0.963432 4:-0.976767 5:0.006888 6:-1.959051 7:-1.094700 8:0.390440 9:0.427663 10:-0.718578
-1 1:-2.272743 2:0.961345 3:1.545345 4:1.544215 5:0.764668 6:0.319409 7:-0.564725 8:-1.337352 9:-0.644053 10:2.182119
-1 1:0.631274 2:0.202936 3:0.167101 4:-0.130414 5:1.372508 6:-1.398968 7:0.837237 8:1.203118 9:0.131747 10:0.018787
-1 1:0.213410 2:0.209812 3:0.740098 4:-0.194946 5:1.434972 6:-0.701519 7:0.591835 8:-1.921999 9:-0.642148 10:-0.394159
-1 1:-0.299381 2:-0.533079 3:-1.324538 4:0.591497 5:-0.950936 6:2.457720 7:0.420367 8:-0.321065 9:0.538688 10:1.136458
-1 1:0.535112 2:-1.084177 3:0.706742 4:0.257669 5:-2.187756 6:-1.777458 7:0.210589 8:1.265073 9:-1.037909 10:-1.055506
-1 1:1.060039 2:1.035911 3:-0.305145 4:-1.900514 5:-1.548030 6:-0.140765 7:-0.502805 8:-0.566174 9:0.676523 10:-1.607942
-1 1:-0.481008 2:-0.148182 3:-0.461009 4:0.462312 5:0.790054 6:-0.406809 7:0.917195 8:1.612468 9:0.650697 10:1.132167
-1 1:-0.008919 2:1.026493 3:-1.130196 4:1.474131 5:0.904340 6:-0.453294 7:0.984439 8:-1.524829 9:0.697242 10:0.793955
-1 1:1.880190 2:0.056665 3:0.831519 4:-0.208087 5:-1.194488 6:0.728339 7:-0.452497 8:-2.228845 9:0.119441 10:-1.455074
-1 1:0.523618 2:0.331411 3:0.652747 4:-0.019693 5:-0.598697 6:0.261295 7:0.007061 8:0.192400 9:-1.140840 10:-0.009741
-1 1:0.335490 2:-0.191067 3:-0.831511 4:-3.312346 5:-0.942102 6:2.888675 7:0.980264 8:-0.524234 9:0.185431 10:1.632414
-1 1:0.523185 2:-0.319746 3:-1.109141 4:0.219532 5:-1.863013 6:-0.477396 7:0.376393 8:-0.275151 9:1.305804 10:-1.860114
-1 1:0.824344 2:-0.781211 3:1.084300 4:0.758168 5:1.221305 6:-0.652770 7:-0.924749 8:-0.785824 9:0.058249 10:0.329499
-1 1:-1.175938 2:-1.690868 3:1.112312 4:-0.910382 5:0.217639 6:-0.787209 7:1.438716 8:1.293390 9:-0.332191 10:-0.945079
-1 1:1.780450 2:1.222308 3:0.802567 4:-0.205101 5:0.751760 6:-0.515993 7:-0.388750 8:1.641850 9:-0.595058 10:0.888633
-1 1:0.748362 2:0.242992 3:0.001712 4:-0.851855 5:-1.607871 6:0.362377 7:-0.579229 8:0.225836 9:-0.748650 10:-0.106536
-1 1:0.195384 2:0.254749 3:1.006473 4:-0.766893 5:1.294863 6:-1.017575 7:0.761936 8:1.123423 9:-0.167798 10:-0.456553
-1 1:1.262998 2:-0.764393 3:0.315545 4:0.153437 5:-0.197406 6:-0.434666 7:-0.326931 8:0.148384 9:0.148399 10:-1.207108
-1 1:-0.386224 2:-0.703626 3:0.586245 4:1.272939 5:-1.398406 6:-1.992307 7:0.787283 8:-0.250200 9:1.865000 10:1.841527
-1 1:-1.469075 2:-0.008875 3:1.708029 4:0.092822 5:-0.576171 6:-0.536276 7:1.602378 8:-0.643385 9:0.768401 10:0.199198
-1 1:1.346879 2:-1.127681 3:-0.362059 4:-0.374764 5:1.262599 6:-0.420807 7:0.200077 8:0.987221 9:0.060676 10:-0.103335
-1 1:-0.279789 2:0.454675 3:-1.096073 4:-0.035058 5:0.829231 6:-1.260997 7:0.670059 8:-0.213979 9:-1.441014 10:0.369493
-1 1:0.357421 2:-1.318957 3:-0.580553 4:0.823100 5:-0.101348 6:-0.021955 7:1.350801 8:1.017542 9:0.650531 10:0.079601
-1 1:-1.120875 2:0.331799 3:1.636480 4:0.392377 5:0.921111 6:-0.774921 7:-0.188791 8:0.978989 9:-1.513556 10:-0.487260
-1 1:-0.929939 2:0.915113 3:0.482344 4:0.854825 5:0.786629 6:-0.534197 7:0.195428 8:1.248911 9:-0.095336 10:1.144779
-1 1:0.799858 2:0.298833 3:0.919024 4:-0.122367 5:0.701500 6:1.254404 7:-0.923648 8:-0.827649 9:-0.906433 10:-0.966884
-1 1:-0.481108 2:1.263222 3:0.785522 4:-1.042385 5:-2.359471 6:0.138124 7:1.517867 8:-1.695854 9:0.285876 10:-0.429019
-1 1:1.408451 2:-1.134732 3:0.812841 4:0.459895 5:1.223657 6:-0.460172 7:-0.942276 8:-0.333235 9:-0.258189 10:-0.621855
-1 1:1.222497 2:0.172829 3:0.981182 4:-0.682693 5:-1.809481 6:-0.368280 7:-2.510203 8:0.288557 9:1.513842 10:-0.995114
-1 1:0.388959 2:0.615144 3:-2.385901 4:-0.799937 5:-1.694123 6:1.022244 7:1.670601 8:-0.487323 9:0.299194 10:0.411494
-1 1:-1.416064 2:-1.443855 3:0.753605 4:-1.381814 5:0.792097 6:1.406140 7:-0.677188 8:-1.678966 9:0.546781 10:-2.792174
-1 1:-0.813414 2:-0.847641 3:-0.883011 4:0.578228 5:0.715141 6:-0.838434 7:-0.026014 8:-0.079947 9:-1.019444 10:-0.988547
-1 1:0.624484 2:-1.018675 3:-0.540835 4:0.642656 5:-1.045848 6:0.256834 7:-0.428473 8:-1.006460 9:0.079132 10:-0.829038
-1 1:-0.196753 2:-0.081996 3:-2.015458 4:-0.597980 5:1.049005 6:-0.368872 7:0.412241 8:-1.184471 9:-0.392947 10:0.288589
-1 1:-2.674627 2:1.694667 3:-0.253979 4:-0.482321 5:-0.454660 6:-1.465262 7:-1.046891 8:1.167797 9:1.255727 10:0.621994
-1 1:0.999747 2:0.581805 3:-0.917833 4:0.474246 5:0.686850 6:-0.134226 7:0.311543 8:1.851359 9:0.572831 10:-0.155312
-1 1:-2.545021 2:-0.353579 3:1.755857 4:-1.035194 5:0.706529 6:-0.424682 7:-0.299834 8:-1.412912 9:0.983326 10:-0.143434
-1 1:0.428800 2:-0.520646 3:-0.201378 4:0.572745 5:-1.314006 6:0.722259 7:0.320939 8:0.019568 9:0.067561 10:-0.620730
-1 1:1.297216 2:0.002364 3:-0.286635 4:0.013887 5:-1.943561 6:-0.442918 7:-0.741809 8:-0.313088 9:-1.613654 10:-1.938038
-1 1:-1.464077 2:-2.455844 3:-0.485414 4:1.436007 5:0.438467 6:0.848416 7:-0.682208 8:-0.539278 9:2.041854 10:1.100618
-1 1:-0.577602 2:0.468088 3:1.005036 4:-0.317674 5:-2.020373 6:-0.673751 7:-0.298291 8:0.711419 9:-1.630657 10:2.123942
-1 1:1.558772 2:-0.428317 3:-0.053104 4:0.528488 5:0.130013 6:-0.364962 7:0.291531 8:-1.273568 9:-0.080557 10:-0.288673
-1 1:-2.050818 2:0.778104 3:2.158859 4:-1.237701 5:0.674478 6:-1.071103 7:-0.077089 8:1.644967 9:-1.643733 10:-0.405520
-1 1:-0.017346 2:-0.273551 3:-1.601078 4:0.311067 5:-0.624236 6:1.895883 7:0.303006 8:-1.139388 9:0.486666 10:1.353832
-1 1:-0.537741 2:0.701326 3:0.212305 4:0.312677 5:-0.975046 6:1.007043 7:-1.905663 8:0.146681 9:0.036370 10:-0.080394
-1 1:0.357798 2:-0.686895 3:1.028333 4:0.085482 5:0.420654 6:2.973483 7:0.248443 8:-0.451671 9:0.416771 10:0.351678
-1 1:-1.784349 2:0.639865 3:0.018984 4:0.450351 5:0.634933 6:0.692680 7:-1.416537 8:-0.097169 9:-0.555125 10:-1.197459
-1 1:1.274153 2:-1.178173 3:0.044562 4:-0.992239 5:0.498708 6:-0.292641 7:0.972450 8:1.842435 9:0.400646 10:-0.435178
-1 1:0.366159 2:-1.202293 3:-1.759508 4:1.793101 5:-1.451741 6:-0.376765 7:0.480835 8:2.206980 9:-1.469541 10:1.032502
-1 1:-0.357380 2:-1.637162 3:0.082777 4:-0.210757 5:-0.646935 6:0.707492 7:0.849794 8:0.717060 9:0.516648 10:0.365062
-1 1:0.067459 2:-0.225431 3:-0.245019 4:0.157935 5:0.406361 6:-0.687903 7:-1.935113 8:-0.890427 9:0.817664 10:-0.948834
-1 1:0.193805 2:-0.011018 3:0.045085 4:0.396557 5:-1.349678 6:0.516163 7:0.591713 8:-0.329611 9:2.580863 10:0.031950
-1 1:-2.041550 2:-0.230263 3:0.770746 4:-0.925476 5:1.407882 6:0.257613 7:-0.054681 8:-0.258798 9:-1.290503 10:-1.014848
-1 1:0.321004 2:-0.052416 3:-0.373644 4:-0.446458 5:-0.914745 6:1.481597 7:0.155278 8:1.075060 9:-0.101176 10:0.652663
-1 1:-0.796842 2:1.784455 3:-0.885037 4:-0.293378 5:-0.388678 6:0.772863 7:-0.268158 8:-1.410134 9:-0.973031 10:-0.564954
-1 1:0.526021 2:-1.219020 3:-0.866556 4:-0.106724 5:0.639003 6:-0.046687 7:0.553986 8:0.892895 9:-0.377768 10:-0.775693
-1 1:1.071232 2:-0.391855 3:-0.351965 4:0.624124 5:-0.322050 6:-1.446515 7:-0.944921 8:0.237060 9:1.084760 10:0.073454
-1 1:-1.816482 2:-0.074066 3:1.988530 4:-0.922375 5:-1.595399 6:-0.744196 7:1.070561 8:0.205888 9:-0.388036 10:0.468470
-1 1:-0.212745 2:0.213867 3:0.158914 4:-0.440161 5:0.631343 6:-0.440687 7:0.577746 8:-0.737428 9:-0.162452 10:-1.057566
-1 1:-2.125675 2:-0.170750 3:-1.434944 4:0.264094 5:-0.451586 6:0.376857 7:-0.433567 8:0.852257 9:0.778219 10:-0.172643
-1 1:-0.859005 2:-1.055029 3:-2.244226 4:0.358635 5:0.330360 6:-0.799554 7:-0.196348 8:0.306765 9:0.360999 10:-0.222406
-1 1:0.514739 2:-0.439951 3:-0.091408 4:-0.156378 5:-1.981224 6:-1.719176 7:1.410080 8:-1.611547 9:0.659553 10:-0.620930
-1 1:-1.259358 2:-0.124306 3:0.177943 4:0.423354 5:1.298750 6:0.048394 7:-0.198845 8:1.610883 9:-1.217481 10:0.399537
-1 1:-0.160547 2:-1.608189 3:-0.702362 4:-0.508029 5:0.528298 6:-1.546432 7:0.716858 8:0.512183 9:-2.195937 10:-0.840460
-1 1:0.801513 2:0.017845 3:-0.103507 4:-0.911142 5:0.342494 6:0.150694 7:-0.546046 8:0.039140 9:-0.728453 10:0.555200
-1 1:-0.331236 2:0.587203 3:1.308773 4:0.086512 5:0.396261 6:-0.483893 7:-0.880690 8:0.163172 9:0.122890 10:1.328609
-1 1:-0.812448 2:-0.954280 3:0.356454 4:-0.690599 5:-0.531973 6:-0.940737 7:0.199839 8:-0.136372 9:1.161345 10:1.431209
-1 1:-0.013882 2:-0.310654 3:0.130600 4:-0.187578 5:-0.172247 6:0.173768 7:-0.696765 8:1.038638 9:-1.076506 10:0.088494
-1 1:1.055001 2:0.134770 3:-0.528618 4:-0.175258 5:-1.314507 6:2.901889 7:-0.050444 8:-1.280107 9:-1.383947 10:0.557392
-1 1:0.151367 2:0.849537 3:-0.384718 4:-0.587603 5:0.927937 6:0.679429 7:0.955441 8:1.136915 9:0.042979 10:-0.262001
-1 1:-0.874490 2:-0.945500 3:-0.377625 4:-0.484228 5:-0.297275 6:-0.914549 7:2.089280 8:0.783489 9:0.738923 10:-0.294289
-1 1:-1.293724 2:-0.063135 3:0.211885 4:-1.594243 5:0.352801 6:-0.113461 7:0.490892 8:-0.327706 9:-1.223376 10:0.403594
-1 1:1.416910 2:-0.072146 3:-0.373382 4:0.264413 5:-0.546788 6:0.608859 7:-1.991556 8:-0.890343 9:-1.705888 10:1.154783
-1 1:-1.295085 2:-0.500061 3:-0.092899 4:-0.747174 5:-0.293461 6:-0.362439 7:-0.575064 8:0.456473 9:-1.022652 10:-0.313480
-1 1:-0.466895 2:1.155080 3:0.304179 4:-1.220353 5:0.555533 6:0.783473 7:0.176910 8:-0.586912 9:-0.243723 10:-0.362936
-1 1:1.206921 2:0.158493 3:2.796671 4:0.427218 5:0.435586 6:0.866806 7:0.189350 8:0.098494 9:-0.598258 10:1.802126
-1 1:0.788242 2:0.464913 3:0.850349 4:1.782892 5:-0.673352 6:0.791297 7:1.503958 8:1.085146 9:-0.586492 10:-1.402742
-1 1:-2.098597 2:1.078189 3:0.286731 4:-0.553775 5:-0.149811 6:-0.064864 7:-0.910958 8:-1.861130 9:-1.478479 10:-1.128696
-1 1:2.071125 2:-1.947332 3:-1.173406 4:0.422876 5:-0.203436 6:0.331563 7:-0.257154 8:0.183226 9:-0.289562 10:-0.579326
-1 1:-1.269457 2:0.705605 3:0.614946 4:0.315837 5:-0.753232 6:-0.749563 7:0.029800 8:1.190087 9:0.376435 10:1.244433
-1 1:0.600273 2:-0.357323 3:-0.879278 4:-0.180657 5:0.558443 6:0.375767 7:0.081628 8:0.808700 9:-1.010242 10:-2.925420
-1 1:0.087653 2:-0.187033 3:-2.035216 4:-0.786222 5:-1.152785 6:-2.177425 7:0.101736 8:1.000225 9:-0.179712 10:0.921238
-1 1:-0.010011 2:-0.294932 3:0.783125 4:1.398359 5:0.623757 6:0.708250 7:2.145441 8:0.371095 9:-0.429429 10:0.550251
-1 1:-1.471396 2:0.747579 3:0.693412 4:-0.770674 5:-1.066889 6:0.939774 7:0.089092 8:0.527904 9:-1.558800 10:-1.554145
-1 1:0.440044 2:-1.313942 3:0.858289 4:-0.796893 5:-1.445303 6:-0.135824 7:0.748415 8:-0.101596 9:1.152639 10:2.539735
-1 1:-1.219192 2:-0.408526 3:1.335529 4:-1.317735 5:-1.776958 6:-0.035616 7:0.572469 8:-0.503338 9:1.901501 10:-1.388108
-1 1:-1.221613 2:0.974769 3:2.102357 4:0.290504 5:-0.602068 6:-1.446285 7:-0.047675 8:1.233529 9:2.967056 10:0.875806
-1 1:0.738331 2:-1.609736 3:1.351697 4:0.409565 5:-0.542966 6:-0.045343 7:1.524140 8:1.125346 9:-0.773431 10:0.648072
-1 1:-0.592692 2:-0.099937 3:0.377197 4:1.194143 5:-1.359280 6:0.322198 7:0.891207 8:-1.803322 9:0.202926 10:-1.668508
-1 1:-1.804066 2:-0.170890 3:-0.230368 4:1.253582 5:-0.039845 6:-0.890031 7:0.370169 8:0.983349 9:1.486134 10:-0.215832
-1 1:0.943917 2:0.986780 3:-0.212229 4:0.455777 5:1.655676 6:-0.309953 7:-0.761109 8:0.100103 9:0.192372 10:-0.180010
-1 1:-0.110862 2:0.136028 3:0.229115 4:0.062753 5:-0.806698 6:-3.866799 7:-1.621554 8:1.089795 9:-0.846810 10:1.080399
-1 1:-0.707166 2:1.194242 3:-2.490016 4:-0.805002 5:0.935083 6:-0.173626 7:-2.594186 8:0.630544 9:0.870858 10:0.714247
-1 1:-0.233427 2:-0.188340 3:1.111780 4:-0.235892 5:1.071322 6:1.308500 7:-1.566017 8:-1.834690 9:-0.799062 10:-0.324728
-1 1:0.618510 2:-0.460968 3:1.646693 4:-0.316199 5:-0.694181 6:-0.282378 7:0.032513 8:-0.985311 9:-0.434718 10:-0.184170
-1 1:0.537298 2:-1.062532 3:1.130073 4:0.393064 5:-0.091918 6:-0.480798 7:1.199191 8:-1.539934 9:0.488471 10:-0.132648
-1 1:-0.830590 2:-0.510261 3:-1.053912 4:0.940691 5:-0.591843 6:-2.041889 7:-1.541784 8:-0.634154 9:1.110099 10:-0.376859
-1 1:1.417967 2:0.209046 3:0.497392 4:-0.768248 5:0.012749 6:1.351643 7:-0.829413 8:-2.123349 9:0.213159 10:-0.486037
-1 1:0.039535 2:-2.847169 3:-1.885726 4:-1.447705 5:-0.351905 6:0.538765 7:-0.339751 8:-0.010869 9:-0.106834 10:1.079053
-1 1:-0.426801 2:1.373542 3:-1.030181 4:0.200903 5:-0.868622 6:-0.226443 7:-0.387322 8:0.090044 9:1.287594 10:0.299192
-1 1:0.404157 2:0.974782 3:-2.133489 4:1.776967 5:-0.579004 6:-0.616664 7:-0.953024 8:0.524546 9:-0.287434 10:-1.103872
-1 1:-0.101057 2:0.332093 3:-0.253425 4:1.979007 5:-1.194977 6:0.307485 7:0.358201 8:-0.141295 9:0.406118 10:0.835199
-1 1:0.713466 2:1.161674 3:-2.162034 4:1.632309 5:-0.940102 6:1.094744 7:0.667907 8:0.255697 9:0.399832 10:0.835196
-1 1:-0.798569 2:1.079604 3:1.455934 4:-2.335649 5:-1.848980 6:-0.089344 7:-0.938057 8:-0.563722 9:-1.195507 10:-0.664886
-1 1:-0.266784 2:0.892958 3:-0.457745 4:0.614765 5:0.031396 6:0.134229 7:0.084815 8:-0.913578 9:-0.217849 10:0.119759
-1 1:1.736462 2:-0.592539 3:-2.992371 4:-0.101725 5:0.212893 6:-0.892333 7:0.300401 8:-1.491985 9:-0.734295 10:0.917020
-1 1:1.087442 2:1.439695 3:-1.988558 4:-1.098301 5:0.352457 6:0.198889 7:0.124633 8:0.258023 9:-0.075327 10:-0.605020
-1 1:-2.023130 2:0.002826 3:-0.023653 4:0.287109 5:-1.282973 6:-0.914423 7:0.794541 8:0.820343 9:-0.261743 10:-0.722332
-1 1:-0.157946 2:-0.499609 3:0.991219 4:-0.155827 5:-0.724604 6:-1.138898 7:-0.635138 8:0.330869 9:0.521132 10:0.862527
-1 1:-0.714272 2:-0.360871 3:0.704934 4:-1.265382 5:1.360199 6:-0.304204 7:-0.200533 8:0.093452 9:-0.678332 10:-0.061961
-1 1:-0.934515 2:2.443860 3:0.741876 4:1.331333 5:-0.212725 6:1.580472 7:0.715923 8:-0.592787 9:0.370368 10:0.543226
-1 1:-1.003661 2:1.735646 3:-0.231833 4:-0.262676 5:-0.787928 6:0.314371 7:0.387763 8:0.862487 9:0.743265 10:-1.325478
-1 1:-0.401986 2:0.926211 3:-0.059732 4:-0.644498 5:-0.190239 6:1.409529 7:-0.294632 8:1.099677 9:-0.978886 10:-1.000706
-1 1:-0.437820 2:-1.311019 3:0.494768 4:-0.136022 5:-1.011268 6:-0.298269 7:-0.525333 8:-0.118400 9:0.363293 10:-1.152966
-1 1:0.698936 2:1.280325 3:0.504449 4:-0.795500 5:-0.636051 6:1.283542 7:1.666226 8:0.605345 9:0.053156 10:-0.140741
-1 1:-0.000068 2:1.312291 3:0.077838 4:0.530357 5:-0.771035 6:-0.752242 7:-2.943619 8:0.700314 9:0.149557 10:-0.866207
-1 1:0.297354 2:-0.011356 3:0.363147 4:-0.104148 5:0.943138 6:-0.126296 7:0.003750 8:-0.630466 9:1.630169 10:-0.065756
-1 1:0.457563 2:0.484660 3:-0.190463 4:0.396797 5:0.472144 6:1.198914 7:-1.460244 8:-1.085732 9:1.076734 10:0.335807
-1 1:0.297629 2:-0.226602 3:0.183111 4:0.228674 5:-0.017691 6:-0.810391 7:0.320991 8:-0.718924 9:-0.879759 10:1.775376
-1 1:-0.309631 2:-0.231370 3:0.114110 4:-1.817594 5:1.697565 6:0.667269 7:0.887437 8:0.320361 9:0.213680 10:1.234966
-1 1:1.411911 2:-2.057147 3:-0.293124 4:-0.112219 5:-0.512519 6:-0.391934 7:-0.094323 8:0.804488 9:0.922677 10:1.668977
-1 1:-0.801439 2:0.813894 3:1.074672 4:0.932011 5:1.087415 6:-1.109377 7:-0.425747 8:-1.251691 9:-0.505892 10:0.076050
-1 1:0.569007 2:0.796839 3:-0.458577 4:0.960254 5:0.034591 6:0.622311 7:-1.661337 8:-1.481899 9:2.337829 10:-0.506756
-1 1:0.236417 2:-1.309721 3:-0.887081 4:-1.311688 5:0.097320 6:-1.587636 7:-1.281119 8:0.089033 9:1.046819 10:1.131601
-1 1:-0.263808 2:0.383045 3:-0.458900 4:-0.681325 5:1.069622 6:-0.921837 7:0.720460 8:1.851455 9:0.516904 10:0.260631
-1 1:-0.087097 2:-0.750813 3:-0.653186 4:-0.556957 5:1.474368 6:-0.837457 7:-1.408101 8:0.356420 9:-0.063338 10:-0.714074
-1 1:1.532155 2:1.775327 3:-2.271206 4:0.031049 5:-1.047599 6:-0.367764 7:0.178576 8:-1.600349 9:0.405125 10:-1.402474
-1 1:-0.320373 2:1.238280 3:0.830955 4:-0.921639 5:-0.199296 6:0.945882 7:-0.098881 8:-0.687427 9:-0.290639 10:-0.386242
-1 1:-2.288059 2:-0.165069 3:-0.846493 4:0.683331 5:-0.451829 6:-1.181101 7:-0.351628 8:0.169379 9:-1.481449 10:-0.593966
-1 1:-1.574783 2:0.063393 3:-0.740699 4:-0.369407 5:-1.946595 6:-0.806295 7:0.841303 8:0.940099 9:1.232916 10:-1.335873
-1 1:-0.428271 2:0.372063 3:-0.734507 4:-1.432505 5:-0.831682 6:-0.097765 7:-0.003623 8:-0.117604 9:-0.411229 10:-1.612659
-1 1:-0.862336 2:-1.638660 3:0.557471 4:0.902011 5:-1.107438 6:1.373847 7:-0.754100 8:-0.185205 9:0.780501 10:-1.356935
-1 1:-0.213043 2:0.900594 3:-0.467384 4:-0.419124 5:1.454627 6:-0.491880 7:1.045208 8:-1.197751 9:0.864870 10:0.133351
-1 1:0.184335 2:0.936919 3:1.549229 4:-1.346841 5:-1.604900 6:0.272914 7:0.606850 8:0.032644 9:-0.554713 10:0.121903
-1 1:-0.646506 2:0.698316 3:0.515599 4:1.144727 5:-0.019660 6:-0.107370 7:0.724021 8:0.792293 9:1.425566 10:-0.112293
-1 1:0.869868 2:1.250823 3:1.243698 4:-1.906099 5:0.063477 6:0.043074 7:1.129757 8:0.265011 9:-0.512341 10:0.857149
-1 1:1.778200 2:1.011001 3:-0.512600 4:0.037059 5:0.972764 6:-0.430530 7:-1.705818 8:-0.919203 9:1.291325 10:-0.787337
-1 1:-0.842287 2:-0.158735 3:1.282066 4:-1.421205 5:-0.227857 6:1.107173 7:-0.830672 8:0.019351 9:-0.878052 10:-0.435093
-1 1:-0.336554 2:0.612056 3:-1.165517 4:-0.260539 5:0.968931 6:-0.866343 7:-1.238766 8:0.886157 9:0.664782 10:1.150652
-1 1:-0.029089 2:0.375609 3:-1.332085 4:-0.176592 5:0.200126 6:-0.852554 7:2.541351 8:-0.353679 9:0.923285 10:-0.428078
-1 1:0.937214 2:0.170941 3:-1.332498 4:-0.657317 5:1.048580 6:0.445817 7:-1.028706 8:-2.428171 9:-0.338425 10:0.298577
-1 1:-0.268137 2:0.328533 3:0.594530 4:0.095825 5:-0.618768 6:-0.938144 7:0.650134 8:-0.889844 9:-0.835567 10:-0.898695
-1 1:0.480488 2:-0.281791 3:1.032793 4:1.088714 5:-1.143667 6:-1.164722 7:1.809763 8:-0.460867 9:-0.102408 10:0.931538
-1 1:0.788129 2:-1.031742 3:-1.543659 4:0.452436 5:-1.904730 6:0.852825 7:0.504939 8:0.333041 9:-0.746745 10:0.138183
-1 1:0.792996 2:0.847796 3:-1.322669 4:0.626240 5:0.446154 6:0.861827 7:-2.047798 8:-0.424097 9:-0.298311 10:0.052587
-1 1:-1.252582 2:0.424013 3:-0.465632 4:-2.271765 5:1.102554 6:-1.327063 7:-0.492441 8:0.988554 9:-1.556880 10:0.149420
-1 1:0.950301 2:0.306657 3:-0.078180 4:1.833621 5:-0.041252 6:-0.710350 7:-0.066638 8:-0.967090 9:0.418544 10:0.031009
-1 1:-0.116758 2:2.824881 3:0.416309 4:-0.169690 5:0.163377 6:-0.530573 7:0.235033 8:2.119183 9:0.320138 10:0.992363
-1 1:1.084396 2:0.294622 3:0.658464 4:-0.547007 5:-0.145292 6:0.086822 7:1.301992 8:2.155126 9:0.642342 10:0.771712
-1 1:1.347153 2:0.726193 3:-0.587570 4:1.673595 5:0.642709 6:2.026462 7:-0.035857 8:1.273738 9:2.332262 10:-0.605133
-1 1:0.604209 2:1.667568 3:0.338413 4:0.460444 5:-1.104223 6:0.612783 7:-0.950352 8:0.388039 9:0.689146 10:-0.531676
-1 1:-0.115739 2:-0.400027 3:-1.401643 4:1.049429 5:0.397977 6:-0.549656 7:-1.367117 8:1.587791 9:-0.310621 10:1.192680
-1 1:0.152201 2:0.296770 3:0.566968 4:2.971069 5:1.000282 6:-0.146823 7:-0.576367 8:0.529758 9:0.864621 10:0.785277
-1 1:0.435992 2:2.736771 3:-0.575884 4:-0.528554 5:-0.720527 6:-0.979866 7:0.703975 8:-0.874538 9:0.651843 10:0.885035
-1 1:-0.077328 2:-0.501844 3:0.331766 4:-2.152756 5:-1.413284 6:-0.404308 7:1.068141 8:0.077559 9:-0.097939 10:-0.795556
-1 1:-0.115143 2:1.052244 3:-0.699574 4:-0.098078 5:0.276466 6:0.618339 7:-0.208574 8:-2.112973 9:0.792883 10:-0.643834
-1 1:-0.025074 2:-1.197869 3:-0.972408 4:0.265339 5:0.279148 6:-0.089226 7:0.769068 8:0.040322 9:-0.161550 10:-2.085455
-1 1:0.000326 2:0.519715 3:0.906690 4:-0.205970 5:0.003198 6:-0.198530 7:0.912124 8:0.936998 9:1.108767 10:-1.150876
-1 1:-0.017493 2:-1.490825 3:-1.396343 4:1.479799 5:0.068486 6:0.348635 7:-0.760932 8:-1.300840 9:-1.104900 10:0.749719
-1 1:-0.826669 2:-0.159988 3:-0.088958 4:2.475012 5:-1.056535 6:0.857032 7:0.538786 8:0.191815 9:-0.599614 10:0.217414
-1 1:-0.261325 2:-2.241661 3:1.047901 4:-1.242799 5:1.485549 6:-1.081218 7:-0.528938 8:-1.857023 9:-0.932662 10:-1.256824
-1 1:0.843630 2:-2.209217 3:-0.403539 4:-0.564412 5:0.468284 6:-0.731531 7:0.402509 8:-1.550990 9:-1.341696 10:0.451497
-1 1:0.784885 2:-0.232178 3:-1.187641 4:-2.004605 5:0.024553 6:-0.568318 7:0.812308 8:-1.062215 9:-0.074292 10:1.825919
-1 1:-0.559639 2:-1.664584 3:-2.202080 4:-0.557886 5:-0.305176 6:0.204723 7:-1.372420 8:-1.659014 9:0.654773 10:-0.509219
-1 1:0.109511 2:0.672794 3:0.555012 4:1.145198 5:0.535120 6:-0.789817 7:-0.112251 8:0.363918 9:-0.210144 10:-0.374928
-1 1:-0.415059 2:-0.571197 3:0.109878 4:-0.185293 5:-0.131417 6:-0.794203 7:-0.884126 8:-0.716464 9:1.022450 10:-1.341410
-1 1:-0.024905 2:-1.030000 3:0.719367 4:-0.017471 5:2.228811 6:0.284061 7:-0.299498 8:-0.207300 9:0.016501 10:0.939305
-1 1:-1.556835 2:-0.741499 3:-0.583262 4:-0.364888 5:-1.413954 6:1.488691 7:-1.500084 8:-0.975689 9:0.204910 10:0.601225
-1 1:0.581113 2:0.114949 3:-1.653683 4:0.678868 5:0.680846 6:0.370487 7:0.064708 8:-0.869182 9:0.921608 10:-0.419846
-1 1:0.823619 2:-0.664055 3:-1.035165 4:-0.123586 5:1.497717 6:1.278458 7:0.026492 8:1.025482 9:1.557006 10:0.903351
-1 1:0.744112 2:0.168548 3:0.442169 4:-1.215491 5:-0.370657 6:1.339280 7:0.010584 8:-0.328305 9:0.120543 10:-0.479022
-1 1:0.063219 2:-0.693407 3:1.010170 4:0.974319 5:0.003203 6:-0.697554 7:0.747326 8:0.486701 9:1.092637 10:0.909961
-1 1:-1.008823 2:-0.166692 3:1.305986 4:-2.560962 5:-0.783358 6:-1.579032 7:-1.297255 8:-1.553390 9:-0.739420 10:-1.438416
-1 1:1.575384 2:0.746276 3:-1.212236 4:1.075098 5:1.063344 6:1.594729 7:-1.665944 8:-1.160042 9:-1.164359 10:-1.644977
-1 1:0.463560 2:1.111226 3:-1.843108 4:0.330859 5:-0.770428 6:-0.353519 7:0.476982 8:-0.616847 9:0.441150 10:0.648337
-1 1:1.523876 2:-1.289528 3:-0.145175 4:-1.191205 5:-0.028696 6:1.380360 7:-1.083702 8:0.987920 9:-0.048013 10:1.090263
-1 1:-0.487896 2:-1.842852 3:-0.545128 4:-0.655690 5:0.006331 6:-1.104290 7:1.401479 8:0.067178 9:-0.457960 10:0.683733
-1 1:-0.816116 2:0.732731 3:2.409102 4:-0.220467 5:-2.073310 6:-0.858210 7:-0.536627 8:0.438245 9:-0.707053 10:-1.165695
-1 1:-1.798125 2:1.157463 3:-0.340600 4:-0.762278 5:1.064116 6:-0.992761 7:-0.734540 8:0.050867 9:0.882480 10:-0.701939
-1 1:0.714978 2:-1.142646 3:-1.434093 4:0.793722 5:-1.352713 6:-0.270993 7:0.546262 8:0.774340 9:-0.748321 10:-0.098572
-1 1:-1.111964 2:-0.204180 3:-0.484993 4:0.432269 5:0.431762 6:0.299103 7:-0.203337 8:0.797601 9:0.491507 10:0.316126
-1 1:-0.312609 2:-0.551324 3:0.157889 4:-0.382042 5:-1.039655 6:0.678053 7:-2.211161 8:2.205047 9:-0.359008 10:1.334653
-1 1:-0.516141 2:1.973958 3:-1.633938 4:-0.327828 5:0.401822 6:-0.716137 7:0.772492 8:-0.078911 9:-1.723864 10:0.081049
-1 1:-1.276466 2:2.576556 3:1.706083 4:-0.430790 5:0.747954 6:-1.037743 7:1.002939 8:0.049732 9:0.481880 10:-1.024877
-1 1:0.034900 2:-0.656527 3:-2.468907 4:1.405721 5:-0.385559 6:0.643345 7:1.004597 8:-0.066902 9:0.474549 10:0.016151
-1 1:-0.405307 2:-0.120137 3:0.010086 4:-0.654325 5:-1.855215 6:-0.569880 7:-1.747058 8:0.744841 9:-1.841733 10:1.444814
-1 1:-1.633381 2:-0.740538 3:0.059662 4:-2.126395 5:-0.018269 6:-0.643918 7:-1.317728 8:0.858357 9:-0.957175 10:0.987512
-1 1:0.264153 2:-0.429226 3:0.614364 4:0.677975 5:0.504867 6:-1.554881 7:1.194926 8:0.084353 9:-0.259302 10:1.230777
-1 1:-0.103351 2:1.647655 3:2.200863 4:0.855299 5:0.441781 6:-1.528847 7:0.651277 8:0.210453 9:2.797896 10:-0.148795
-1 1:0.619396 2:-0.151763 3:-0.722337 4:-0.880358 5:1.360390 6:-1.474357 7:-1.530296 8:0.175977 9:1.227275 10:0.717155
-1 1:-0.294031 2:0.084980 3:0.685871 4:2.020366 5:-0.216862 6:1.373078 7:0.361940 8:-1.147275 9:-0.581631 10:0.334525
-1 1:-0.061374 2:-0.527399 3:1.445459 4:0.395499 5:1.545810 6:-0.268418 7:-0.122582 8:1.080946 9:-1.392441 10:0.932786
-1 1:-1.698743 2:0.728119 3:-0.898680 4:-1.126088 5:-0.219465 6:-0.400895 7:-1.152967 8:-0.791343 9:0.180194 10:0.762048
-1 1:-0.242707 2:-0.266055 3:-0.840443 4:-0.159056 5:0.370333 6:-0.627834 7:1.492805 8:1.589974 9:-0.747461 10:1.522965
-1 1:-0.150467 2:-0.440648 3:0.522073 4:-0.129979 5:0.409294 6:-0.651193 7:-0.658411 8:1.121169 9:-0.114684 10:0.652118
-1 1:-1.246457 2:0.109965 3:-0.530208 4:-1.799027 5:2.320448 6:1.139862 7:1.046152 8:-0.286941 9:-0.157678 10:1.731561
-1 1:-1.074924 2:0.826602 3:0.935122 4:-0.145537 5:2.043749 6:1.027597 7:-1.857607 8:-0.237607 9:-0.241121 10:0.731321
-1 1:-1.005001 2:1.626133 3:-0.287269 4:-1.649634 5:-0.019653 6:-0.923934 7:0.173590 8:0.596533 9:1.517428 10:0.684071
-1 1:-0.960795 2:-0.383977 3:-0.964114 4:-0.225675 5:0.615793 6:-1.127479 7:1.583966 8:-0.043811 9:-0.010740 10:0.306452
-1 1:0.025577 2:1.283521 3:1.404454 4:-0.559983 5:-1.376354 6:-0.213576 7:-0.451677 8:-0.223801 9:-0.355826 10:-2.010337
-1 1:0.701328 2:0.127676 3:0.107503 4:1.145715 5:-0.264632 6:-2.235920 7:-0.407995 8:0.637246 9:-0.709560 10:0.784018
-1 1:-1.064794 2:-0.622789 3:-0.579013 4:2.354773 5:-1.669116 6:-1.138191 7:-1.920090 8:-0.722212 9:-0.321445 10:-1.913735
-1 1:-1.084237 2:-0.254089 3:0.210531 4:-1.078833 5:0.281459 6:0.058215 7:1.344309 8:1.087978 9:-0.664192 10:0.551012
-1 1:0.932569 2:0.514085 3:-1.264760 4:-1.139544 5:0.698301 6:-0.563445 7:0.184722 8:-1.068452 9:0.334617 10:-1.074897
-1 1:-1.553985 2:0.331159 3:0.751589 4:1.475249 5:1.563368 6:-0.200530 7:0.634745 8:-0.426926 9:0.571722 10:-0.365829
-1 1:-1.418542 2:-0.816904 3:-0.141569 4:-0.027785 5:-0.104253 6:-1.637837 7:-3.397993 8:1.226283 9:-0.297498 10:-0.373515
-1 1:0.395705 2:-0.275346 3:-0.901430 4:0.318892 5:-0.969865 6:0.142506 7:0.815678 8:-0.855473 9:-2.235423 10:-0.517807
-1 1:-1.325766 2:1.199075 3:-0.553140 4:0.126614 5:-0.224008 6:-1.021374 7:0.172676 8:0.554394 9:0.023508 10:-0.286899
-1 1:1.165704 2:-0.184411 3:0.763917 4:0.749506 5:-0.797530 6:-1.724367 7:-0.206834 8:-0.678115 9:-0.147585 10:0.309311
-1 1:0.363171 2:-0.261337 3:0.267656 4:2.274044 5:-1.536091 6:1.307203 7:2.206571 8:-0.414704 9:-0.752754 10:-1.434688
-1 1:-0.240097 2:2.897476 3:-0.033543 4:-0.332887 5:-0.278106 6:-1.762151 7:0.453406 8:-0.519049 9:0.210812 10:-0.307204
-1 1:0.191424 2:-1.510546 3:-1.245300 4:2.165275 5:-0.168590 6:0.399078 7:-0.755102 8:1.211133 9:-0.291678 10:-1.128659
-1 1:-0.048389 2:-1.138120 3:-0.981055 4:-0.144027 5:-0.837029 6:-0.484161 7:1.255752 8:-1.383621 9:-0.243221 10:1.145619
-1 1:-0.831805 2:-0.546621 3:1.574724 4:-0.279712 5:-0.495194 6:-0.957697 7:-0.909676 8:0.711712 9:-0.402171 10:-1.112145
-1 1:-0.533436 2:0.714644 3:0.168288 4:0.092100 5:-0.287723 6:1.142538 7:0.400523 8:-0.752431 9:-0.636308 10:-1.143444
-1 1:-0.289081 2:0.161294 3:0.165512 4:0.359326 5:-0.232800 6:-1.211798 7:0.542665 8:1.378792 9:0.451531 10:-0.518818
-1 1:1.126129 2:0.900457 3:0.164526 4:1.479288 5:1.228442 6:-0.226753 7:-0.837473 8:0.789136 9:0.704244 10:0.024661
-1 1:-0.469525 2:-0.448800 3:0.498067 4:0.516945 5:-0.109903 6:0.137858 7:0.899936 8:-1.694587 9:0.206517 10:-0.514877
-1 1:-1.294022 2:-0.495413 3:0.135424 4:0.679340 5:-1.788051 6:0.618770 7:1.354575 8:0.607252 9:-0.282867 10:1.868872
-1 1:-0.264945 2:-0.670536 3:1.660243 4:0.126526 5:0.215527 6:-0.555437 7:-0.060923 8:1.246033 9:-0.521860 10:0.162672
-1 1:1.053510 2:-1.136531 3:1.446542 4:-0.605523 5:1.054945 6:0.138418 7:-0.314017 8:-1.527111 9:-0.394722 10:-0.117880
-1 1:-1.256619 2:0.172544 3:0.063490 4:-0.255167 5:-0.213093 6:2.127687 7:-0.004780 8:-1.291421 9:-1.699611 10:-0.358332
-1 1:-0.207339 2:-0.204918 3:0.233908 4:0.038706 5:-0.614855 6:-0.508641 7:-1.303428 8:0.035230 9:-0.803625 10:-0.190359
-1 1:0.907172 2:-1.225065 3:-1.124450 4:0.072824 5:0.341783 6:-1.770487 7:-0.147832 8:1.929571 9:1.121721 10:-2.437144
-1 1:0.509530 2:0.625718 3:-0.406650 4:-1.089352 5:0.103894 6:0.665953 7:1.498698 8:-1.921886 9:-1.506147 10:-0.940805
-1 1:-1.843428 2:0.364141 3:-0.153532 4:-0.216776 5:-0.173821 6:0.623837 7:-0.695608 8:-0.329333 9:1.218833 10:1.468952
-1 1:0.131237 2:-0.607186 3:-0.670561 4:0.540998 5:0.372353 6:-0.356026 7:0.252145 8:-0.407079 9:0.814313 10:0.994087
-1 1:-1.297792 2:-0.630058 3:0.859235 4:0.768726 5:-0.568071 6:2.099083 7:-0.099945 8:-0.183972 9:0.875405 10:0.325874
-1 1:1.319906 2:-0.907021 3:-0.548251 4:-1.186665 5:0.404296 6:-1.573422 7:0.220894 8:0.404734 9:0.529471 10:-0.151835
-1 1:-0.292067 2:0.571510 3:-0.641526 4:0.180183 5:-0.814838 6:1.093652 7:0.308504 8:0.405525 9:0.688267 10:-0.177697
-1 1:-1.555720 2:0.668855 3:-1.486798 4:-0.440337 5:-0.012815 6:0.040710 7:1.599424 8:-0.569368 9:0.146931 10:0.195445
-1 1:1.939570 2:0.343852 3:0.564312 4:-0.571525 5:-0.323930 6:0.341584 7:0.347722 8:-2.121295 9:0.366008 10:-0.653067
-1 1:-2.065423 2:-0.811716 3:-0.013604 4:-0.437269 5:0.675910 6:-1.305428 7:0.982256 8:-0.279757 9:-0.178436 10:0.985006
-1 1:-1.810508 2:1.118391 3:-1.397715 4:-0.560017 5:1.172429 6:0.335234 7:0.056106 8:1.683097 9:0.732405 10:-2.333887
-1 1:0.967173 2:-0.676887 3:0.449752 4:0.486973 5:-0.014169 6:0.184906 7:-0.113074 8:-1.474299 9:-1.188115 10:-0.795590
-1 1:0.484344 2:-1.079663 3:0.408504 4:0.164288 5:0.362178 6:1.161468 7:-0.214478 8:-0.020264 9:-0.612761 10:0.217906
-1 1:-0.275374 2:0.545477 3:0.406174 4:-1.238721 5:0.453034 6:-0.554219 7:0.508086 8:-0.765947 9:-0.503429 10:1.282834
-1 1:-0.084189 2:0.619701 3:2.045913 4:1.781207 5:0.623232 6:0.970961 7:-1.300597 8:0.341221 9:-0.363981 10:1.205555
-1 1:-0.637273 2:1.210826 3:-0.144098 4:-0.509586 5:3.474660 6:0.876446 7:0.403450 8:-0.092253 9:0.205791 10:-1.526369
-1 1:-0.562507 2:1.040164 3:0.361369 4:1.264598 5:-0.010989 6:-0.338597 7:1.348925 8:-1.505443 9:0.502743 10:-0.494350
-1 1:-0.907097 2:0.295733 3:-0.473478 4:0.326548 5:-0.171171 6:2.228337 7:-0.905305 8:0.001651 9:-1.215670 10:0.393168
-1 1:-0.236776 2:1.383852 3:1.090419 4:-0.079227 5:0.388356 6:0.526981 7:-0.457030 8:-0.711712 9:0.263450 10:-1.063790
-1 1:0.885490 2:-0.764445 3:0.803145 4:-0.340057 5:1.634402 6:0.252449 7:1.409756 8:-1.379559 9:-1.154140 10:1.925136
-1 1:1.898089 2:-0.968092 3:0.702899 4:-0.628647 5:-0.534880 6:-1.006306 7:-1.201325 8:-1.739011 9:0.887470 10:0.342460
-1 1:1.991813 2:-0.092126 3:-0.500538 4:-0.694468 5:-1.102124 6:-0.850345 7:1.613179 8:-0.236848 9:-0.783689 10:-1.029750
-1 1:1.103186 2:1.434038 3:-0.548546 4:1.610336 5:3.189249 6:2.125684 7:-1.586826 8:0.211566 9:0.201704 10:1.461758
-1 1:1.026690 2:1.098044 3:1.018915 4:0.414962 5:-0.513420 6:-1.226192 7:0.382872 8:-1.047040 9:1.838329 10:-0.328013
-1 1:-0.301556 2:1.635235 3:1.481210 4:-0.796265 5:1.869380 6:0.561789 7:0.639840 8:0.104873 9:-0.247062 10:-0.818265
-1 1:-0.152605 2:-2.934035 3:-1.206287 4:1.015469 5:0.249455 6:0.810530 7:-0.402129 8:0.900576 9:-0.466839 10:-0.585137
-1 1:-0.157181 2:0.494084 3:-1.383698 4:0.217079 5:1.881956 6:-0.789480 7:-0.825698 8:-0.694386 9:-0.952052 10:-0.307065
-1 1:1.234207 2:0.105228 3:0.419561 4:-1.674831 5:-0.857652 6:-0.409793 7:-0.310385 8:-1.732545 9:0.081881 10:0.622626
-1 1:-0.519526 2:0.406314 3:-2.126191 4:0.153231 5:1.412197 6:-0.777416 7:0.609364 8:-1.040215 9:1.732124 10:-1.564699
-1 1:0.776748 2:-0.357563 3:0.824740 4:1.274905 5:-0.194621 6:-0.065963 7:0.962099 8:0.185543 9:0.729114 10:0.471166
-1 1:-0.332142 2:-0.488789 3:-0.476500 4:1.078474 5:-1.521297 6:1.874699 7:1.290366 8:1.166427 9:0.640523 10:0.304856
-1 1:0.530950 2:1.042445 3:-0.259459 4:-0.729739 5:-1.119988 6:-0.739397 7:-1.940854 8:-0.427466 9:0.789671 10:0.989755
-1 1:1.333795 2:1.525171 3:-0.382087 4:-0.384784 5:-0.392709 6:-2.613415 7:-1.817637 8:0.066413 9:-0.324521 10:2.572099
-1 1:-0.056079 2:-0.094635 3:0.230566 4:0.166801 5:0.641412 6:0.649823 7:0.325283 8:0.931357 9:0.673814 10:0.012338
-1 1:-1.492098 2:-1.161179 3:0.970842 4:-0.915731 5:0.729844 6:0.383567 7:0.144610 8:0.888021 9:-0.443190 10:0.053305
-1 1:-0.131004 2:0.936315 3:1.520419 4:0.137096 5:0.375760 6:0.739163 7:-0.859505 8:-1.171025 9:0.491890 10:-1.112887
-1 1:-0.546867 2:-0.501676 3:-0.672303 4:0.687414 5:-0.786599 6:0.471122 7:0.023753 8:-0.233110 9:1.351436 10:-1.556807
-1 1:1.856908 2:0.527230 3:-0.043786 4:-1.439694 5:1.080895 6:0.291217 7:-0.402855 8:-0.113379 9:1.050818 10:-0.622824
-1 1:1.122041 2:0.094320 3:-0.502958 4:0.835634 5:-0.527684 6:-1.273221 7:-0.117816 8:1.160619 9:-1.616245 10:-0.136944
-1 1:-1.484802 2:1.149257 3:1.148313 4:1.625224 5:-0.376254 6:0.405560 7:1.792640 8:0.831493 9:0.648330 10:-0.422222
-1 1:0.765898 2:0.222041 3:-0.679455 4:0.353556 5:-0.148830 6:-0.273476 7:-1.156070 8:0.685277 9:1.593905 10:1.243638
-1 1:0.372250 2:1.571575 3:0.859975 4:0.164050 5:0.089519 6:-2.137980 7:-0.458548 8:-1.127275 9:0.323161 10:-0.129784
-1 1:1.245116 2:-0.295097 3:-0.534771 4:0.464365 5:-1.679045 6:0.640937 7:1.948687 8:0.437698 9:-0.408796 10:2.066299
-1 1:-0.130808 2:-0.825679 3:-0.473058 4:-0.752327 5:-0.394383 6:-1.463514 7:0.413839 8:1.204823 9:0.533474 10:0.552926
-1 1:0.536098 2:-0.223475 3:-1.326187 4:0.419567 5:-0.698301 6:-0.596990 7:0.037095 8:-0.514114 9:0.288047 10:-0.309120
-1 1:0.803184 2:0.300959 3:-1.313731 4:0.427557 5:0.476683 6:-0.618375 7:0.177117 8:0.682148 9:-1.433558 10:-0.116951
-1 1:0.771225 2:1.281004 3:1.269953 4:1.329641 5:0.372175 6:0.404202 7:-0.075544 8:0.654885 9:1.012402 10:-0.646259
-1 1:0.939511 2:0.124936 3:0.481401 4:-0.621325 5:-1.937390 6:-0.559070 7:1.432010 8:-1.621128 9:1.073036 10:-0.718863
-1 1:-0.985549 2:0.110689 3:0.910940 4:1.166828 5:-0.810167 6:-0.316757 7:0.696498 8:0.102471 9:-1.835394 10:-0.078384
-1 1:-0.318217 2:0.536387 3:-1.450782 4:-0.611861 5:-0.218964 6:-0.676394 7:-0.317745 8:-1.179456 9:-1.043324 10:-0.215109
-1 1:-1.162754 2:1.170136 3:-2.038640 4:1.080338 5:-0.323829 6:-0.228879 7:0.534671 8:-0.435303 9:-1.030054 10:1.180754
-1 1:-0.658541 2:-1.072052 3:1.223430 4:-1.738061 5:1.386991 6:-1.053114 7:-1.907309 8:0.004643 9:-2.130217 10:0.436583
-1 1:1.174285 2:-0.727524 3:-0.652851 4:1.074762 5:-0.305348 6:-0.354620 7:1.262734 8:-1.274681 9:0.980989 10:-1.449974
-1 1:0.735406 2:-0.540438 3:-1.150894 4:-2.304692 5:-1.000087 6:0.345382 7:0.124023 8:-0.475827 9:0.010817 10:0.124628
-1 1:-0.536911 2:0.093389 3:-0.908277 4:-0.465523 5:0.304909 6:-0.586212 7:-0.792154 8:-1.107407 9:0.553111 10:0.123229
-1 1:-1.160077 2:1.658229 3:-1.018927 4:0.294134 5:0.451656 6:-0.768475 7:1.163912 8:-0.042496 9:0.725278 10:1.455963
-1 1:-0.358899 2:2.064641 3:0.320823 4:-0.411949 5:-0.105174 6:-1.118598 7:-1.494607 8:0.571972 9:-0.685985 10:-0.473091
-1 1:0.695924 2:-0.676700 3:0.564902 4:0.403490 5:-1.130934 6:0.540891 7:-0.223280 8:0.476168 9:0.548837 10:1.007895
-1 1:0.588981 2:0.091552 3:-0.803369 4:0.259866 5:1.870532 6:1.661542 7:-0.425408 8:-0.381360 9:1.302988 10:-0.688811
-1 1:-0.796611 2:1.223518 3:1.901988 4:1.590476 5:-0.353211 6:0.108920 7:0.561776 8:0.905848 9:-1.466199 10:-1.747988
-1 1:0.622728 2:-0.421351 3:-1.867361 4:-1.134751 5:-0.437369 6:-0.228092 7:-0.314278 8:0.897737 9:-0.203504 10:-0.525177
-1 1:0.310422 2:-1.633595 3:0.773257 4:1.699441 5:0.998589 6:-1.508496 7:0.344806 8:-1.281796 9:-0.702158 10:0.517911
-1 1:0.128572 2:0.470486 3:0.176410 4:0.750192 5:-0.836428 6:-0.528662 7:-1.142228 8:0.258756 9:-1.145784 10:-0.396588
-1 1:-0.489259 2:2.417426 3:1.202026 4:0.664654 5:0.415583 6:-0.431685 7:0.248244 8:-0.246614 9:0.124432 10:-0.161129
-1 1:1.553513 2:0.886412 3:0.471344 4:-0.531043 5:-2.020001 6:1.433655 7:-0.394058 8:-1.397612 9:0.731966 10:1.016592
-1 1:-0.364279 2:-0.346288 3:-0.119049 4:-1.012190 5:-0.288825 6:-0.374502 7:0.094838 8:0.063957 9:0.529011 10:-1.422803
-1 1:-0.456203 2:-1.139022 3:-0.574892 4:0.286089 5:-0.799165 6:-1.160062 7:-1.282339 8:0.726578 9:0.869702 10:-0.928052
-1 1:1.401244 2:0.294506 3:-0.670633 4:0.782414 5:-0.584298 6:-0.531266 7:-0.527841 8:-0.995106 9:-0.263125 10:-0.594796
-1 1:1.667261 2:-0.154626 3:-1.290402 4:1.319865 5:-0.859355 6:0.704891 7:1.486914 8:-1.021318 9:-1.028109 10:0.154695
-1 1:0.510245 2:-0.682299 3:0.731237 4:-0.678957 5:-0.731793 6:0.409352 7:-0.578432 8:-0.790681 9:-0.525543 10:-1.400103
-1 1:2.187923 2:-2.314533 3:0.745462 4:-0.435123 5:-0.414826 6:0.109943 7:-1.128163 8:-0.158064 9:0.041496 10:0.398718
-1 1:-2.199383 2:0.445039 3:0.578558 4:1.796813 5:-0.108069 6:-1.464795 7:-0.490100 8:2.418545 9:0.841975 10:0.086611
-1 1:-0.133509 2:0.531942 3:0.667448 4:0.046470 5:-0.328185 6:-1.626121 7:-0.039163 8:-0.477189 9:-1.572733 10:-0.078148
-1 1:-1.504661 2:0.228929 3:-0.373242 4:2.616373 5:0.564309 6:-0.393010 7:-0.078931 8:0.843702 9:-0.202506 10:0.820183
-1 1:0.475220 2:1.848968 3:0.350338 4:-2.620213 5:-1.271990 6:-0.596346 7:-0.390268 8:0.183445 9:0.576369 10:-1.097983
-1 1:-0.850615 2:-0.376215 3:-0.028154 4:0.754769 5:-0.764544 6:0.582760 7:-0.537180 8:0.075411 9:-0.070683 10:-1.406677
-1 1:-0.190184 2:-0.913673 3:-0.399598 4:-0.337162 5:2.046679 6:-1.934500 7:0.428673 8:-0.637749 9:0.027756 10:-0.606677
-1 1:1.120937 2:0.358574 3:-0.337740 4:-0.574480 5:0.655010 6:1.401694 7:-1.560942 8:0.673697 9:1.382470 10:0.283715
-1 1:-2.373205 2:-1.239573 3:0.464715 4:-2.835788 5:-0.810786 6:-0.344955 7:0.151738 8:-0.741949 9:1.260586 10:-0.417631
-1 1:1.746466 2:-0.540483 3:-1.128278 4:-0.171002 5:0.082370 6:0.283195 7:-0.073523 8:0.571062 9:-1.634620 10:0.393215
-1 1:0.138002 2:0.556514 3:-0.726776 4:1.598799 5:1.494548 6:0.862286 7:-0.520135 8:-0.348705 9:-0.075292 10:0.757030
-1 1:-1.300396 2:-0.761464 3:0.625775 4:0.783389 5:0.565291 6:1.344124 7:0.984523 8:-0.090656 9:0.064870 10:-1.595334
-1 1:-0.612643 2:-1.470250 3:0.590489 4:0.032993 5:0.615669 6:-2.329780 7:0.366372 8:0.519676 9:0.191178 10:-0.046602
-1 1:-0.383328 2:-0.431329 3:1.144196 4:0.746798 5:0.303461 6:-0.532525 7:-1.043671 8:1.848536 9:0.127987 10:0.081152
-1 1:0.158376 2:-0.100563 3:0.787837 4:-1.216405 5:-1.326177 6:1.088021 7:-0.900726 8:-1.413093 9:0.241360 10:-1.799773
-1 1:-0.215795 2:0.541472 3:0.250266 4:-0.968382 5:0.039362 6:-2.223593 7:0.640074 8:0.227591 9:-1.234381 10:0.743624
-1 1:-0.707445 2:-0.901339 3:0.004895 4:-0.927203 5:-0.106678 6:-0.575258 7:-1.860321 8:-1.996889 9:-0.653804 10:0.269136
-1 1:-0.214370 2:0.348867 3:-0.433875 4:0.893968 5:0.107552 6:0.229329 7:-1.916285 8:0.926499 9:0.696342 10:-0.627029
-1 1:0.123404 2:1.943422 3:-0.725667 4:0.324561 5:-0.077542 6:0.551644 7:0.044412 8:-2.257814 9:-1.415281 10:0.722589
-1 1:-1.467343 2:0.224333 3:-1.021617 4:-0.599368 5:-1.466994 6:-0.905941 7:0.271615 8:-2.345712 9:0.269932 10:-0.179152
-1 1:-1.441796 2:-0.045871 3:0.056633 4:0.164277 5:0.154463 6:0.859439 7:-0.195766 8:0.646420 9:-1.293508 10:0.316640
-1 1:0.321185 2:0.700411 3:1.766554 4:-0.998684 5:-0.285065 6:0.822081 7:0.973608 8:0.983964 9:-1.730261 10:-0.919339
-1 1:-0.208187 2:-0.146152 3:1.744938 4:0.073046 5:1.827355 6:0.412648 7:0.235487 8:-2.019304 9:-1.203163 10:-1.303031
-1 1:-0.382563 2:1.334922 3:-0.787903 4:0.131633 5:-1.163215 6:1.781997 7:-0.809173 8:1.412780 9:-0.135777 10:-0.774032
-1 1:0.831060 2:1.915297 3:0.237218 4:-0.285858 5:-1.111235 6:1.695134 7:0.803686 8:-0.590245 9:-0.410780 10:0.077464
-1 1:1.618421 2:3.113686 3:0.054387 4:-1.132991 5:-0.209430 6:-0.123416 7:0.988917 8:-1.234916 9:0.230665 10:2.000074
-1 1:-1.390113 2:0.362178 3:1.457416 4:-0.675253 5:1.572282 6:-0.446543 7:0.992686 8:0.977318 9:-1.125338 10:-1.206658
-1 1:0.146373 2:0.874492 3:-1.195193 4:0.210796 5:-0.354165 6:-1.831818 7:0.575909 8:0.237855 9:-0.826875 10:-0.397404
-1 1:-1.172684 2:0.236188 3:-0.971692 4:0.270447 5:0.066741 6:0.089852 7:-0.071985 8:-0.021323 9:-0.320261 10:0.447865
-1 1:-1.436466 2:-0.655088 3:1.298522 4:-0.105953 5:-0.588664 6:0.177479 7:-0.107853 8:1.864928 9:-1.383074 10:-0.738408
-1 1:0.760157 2:0.184101 3:-0.142886 4:1.396747 5:-0.718774 6:0.152665 7:0.513931 8:0.504043 9:-0.239604 10:0.103901
-1 1:0.435638 2:0.169129 3:-0.730905 4:-0.021192 5:-1.238999 6:-0.454815 7:0.543758 8:-0.275527 9:1.056392 10:-0.180977
-1 1:-2.156261 2:-1.455059 3:1.185703 4:0.197842 5:-1.207067 6:-0.065290 7:0.277574 8:0.067274 9:0.357486 10:-0.900054
-1 1:0.156240 2:1.388939 3:-0.198685 4:-0.923089 5:-1.282093 6:0.822712 7:-0.772106 8:0.151639 9:0.363848 10:0.556590
-1 1:-0.929533 2:-0.214030 3:-1.491073 4:1.100110 5:-0.262789 6:1.525471 7:0.409641 8:-1.152595 9:0.684718 10:0.625545
-1 1:2.243777 2:0.745719 3:0.436934 4:-0.846626 5:1.176733 6:-1.537610 7:1.220595 8:-0.213005 9:-1.544706 10:-0.890983
-1 1:-0.595671 2:1.324427 3:-1.667997 4:2.194461 5:0.103895 6:-0.074545 7:0.170944 8:1.831840 9:-1.004041 10:0.502613
-1 1:0.300179 2:-0.574802 3:-0.935869 4:-0.524904 5:-1.323265 6:0.706424 7:0.419463 8:0.983870 9:-1.388698 10:0.395451
-1 1:-1.053807 2:-0.456590 3:1.310990 4:0.065997 5:1.012374 6:0.534933 7:-0.710486 8:2.591650 9:0.604355 10:0.469003
-1 1:0.248022 2:-2.315723 3:-0.748321 4:-0.071702 5:-0.443143 6:0.546519 7:1.326022 8:0.115586 9:-0.075826 10:1.165660
-1 1:0.839571 2:0.508562 3:1.831622 4:-0.665169 5:-1.062479 6:-0.011934 7:-1.259055 8:-0.996256 9:0.970108 10:-1.905084
-1 1:0.748842 2:2.358529 3:-1.756792 4:0.408599 5:0.175084 6:1.568993 7:1.148915 8:0.066463 9:-1.129236 10:0.481178
-1 1:-1.011381 2:-1.234042 3:-0.416085 4:-1.561298 5:0.452932 6:0.635228 7:-0.468727 8:0.099451 9:-0.527308 10:-1.098681
-1 1:-0.556537 2:-0.052352 3:0.333282 4:-1.133230 5:1.590281 6:1.189463 7:1.232504 8:0.873276 9:0.877438 10:-0.249403
-1 1:0.142058 2:-0.806431 3:0.580361 4:1.315544 5:1.214138 6:0.837437 7:-0.612991 8:-1.376324 9:-0.383112 10:-0.195608
-1 1:-0.142851 2:-1.052455 3:-1.840055 4:-0.079232 5:0.839585 6:1.239055 7:0.847469 8:-0.529564 9:-0.591179 10:-0.457623
-1 1:0.472593 2:-0.036326 3:0.135191 4:0.519895 5:-1.467383 6:-0.054879 7:-1.780891 8:-0.170233 9:0.574248 10:-0.119297
-1 1:-1.196462 2:0.235501 3:-0.612466 4:2.090115 5:-0.225421 6:-0.507987 7:1.305897 8:0.156329 9:0.099033 10:-0.475323
-1 1:-0.441970 2:0.653462 3:-0.389073 4:-3.291129 5:-0.043014 6:-1.884164 7:1.263919 8:-0.607098 9:0.145948 10:0.802644
-1 1:-1.312584 2:0.656620 3:-0.771969 4:-0.291145 5:-0.334496 6:-1.266473 7:1.810895 8:-0.602056 9:-0.650463 10:-0.202830
-1 1:-0.626783 2:0.243073 3:-0.639162 4:0.373654 5:0.259570 6:1.451234 7:0.725005 8:0.613122 9:0.014069 10:-0.407780
-1 1:0.399053 2:-0.184946 3:-0.261192 4:0.348102 5:0.917076 6:2.367388 7:0.655180 8:-0.169605 9:-1.308833 10:0.308827
-1 1:-0.302364 2:1.200008 3:-1.007563 4:-0.762536 5:0.094151 6:2.084763 7:1.615578 8:1.401730 9:-0.191757 10:2.149697
-1 1:-0.151646 2:-0.278376 3:1.426396 4:0.426551 5:-0.092648 6:0.180478 7:0.893875 8:0.602874 9:-0.376689 10:-1.455072
-1 1:0.931712 2:-0.725469 3:1.099657 4:0.181883 5:1.199929 6:-0.658453 7:0.415223 8:-1.527023 9:-2.123922 10:-1.187261
-1 1:-0.798736 2:0.278024 3:1.708715 4:-0.195881 5:3.320671 6:0.415530 7:0.023297 8:0.480729 9:0.318388 10:-0.248664
-1 1:0.102099 2:1.542132 3:0.212158 4:-0.770780 5:1.089753 6:-0.813635 7:-1.593123 8:0.779948 9:-0.802414 10:-0.641652
-1 1:-0.157307 2:1.978248 3:-0.102603 4:-0.628385 5:-2.089054 6:0.904012 7:-1.396660 8:-0.246411 9:-1.314262 10:-0.880180
-1 1:-0.066538 2:0.622674 3:0.731475 4:2.699958 5:-0.970769 6:1.212044 7:0.147954 8:0.865252 9:0.311434 10:0.170990
-1 1:-0.477742 2:0.300437 3:0.334119 4:-0.461423 5:-1.777791 6:1.435741 7:1.155345 8:-0.045999 9:0.235980 10:1.044636
-1 1:1.226047 2:-0.706413 3:2.236142 4:0.629281 5:0.851015 6:0.154830 7:0.990173 8:-0.010213 9:-0.602989 10:-0.638140
-1 1:-1.072164 2:-3.092195 3:-0.196801 4:-1.095782 5:1.454608 6:-0.571580 7:0.477478 8:0.869282 9:-1.965913 10:-0.286585
-1 1:0.193281 2:2.019074 3:-0.822167 4:0.016005 5:-1.112435 6:0.882157 7:0.515533 8:0.869571 9:-0.670810 10:-0.792470
-1 1:-0.065481 2:-0.280500 3:0.444998 4:-0.369802 5:-1.804813 6:0.486784 7:-0.914833 8:0.234196 9:-0.619724 10:-0.207458
-1 1:0.062664 2:1.134231 3:0.663010 4:0.679715 5:1.474944 6:1.806834 7:-1.385308 8:-1.148036 9:-0.266685 10:-0.764275
-1 1:-0.410086 2:-0.139058 3:-0.731758 4:-0.725993 5:1.563656 6:-0.501228 7:0.003936 8:0.190207 9:-0.901472 10:-1.516862
-1 1:-0.113690 2:-0.571100 3:-0.181228 4:-1.117159 5:1.176835 6:0.834141 7:0.616508 8:-0.355345 9:0.447566 10:-0.094269
-1 1:-0.146036 2:-1.224485 3:0.083837 4:0.700230 5:0.512463 6:-0.341342 7:-0.741532 8:-0.215094 9:0.449180 10:-1.213714
-1 1:0.433212 2:1.177677 3:0.618167 4:1.549375 5:-0.316307 6:-1.382938 7:-0.148669 8:0.369627 9:-0.223849 10:0.672673
-1 1:-0.703354 2:1.458093 3:-0.446913 4:-1.156344 5:-0.213435 6:0.006939 7:-0.337191 8:-1.230564 9:-0.727513 10:-0.857185
-1 1:-0.259579 2:-0.431247 3:-0.694180 4:0.126520 5:0.955706 6:-0.080251 7:0.768485 8:-0.160977 9:0.958123 10:0.991588
-1 1:-0.414420 2:-0.898887 3:2.250030 4:0.537178 5:1.505013 6:-0.873058 7:-0.886297 8:1.599564 9:-0.318560 10:0.987088
-1 1:1.238389 2:0.533512 3:-0.601740 4:-0.763016 5:-1.573388 6:0.882316 7:2.291410 8:0.178604 9:1.416005 10:0.992410
-1 1:0.106109 2:0.130494 3:-0.934831 4:-0.725290 5:-0.216336 6:-2.676432 7:0.668909 8:1.942644 9:-0.435063 10:1.590289
-1 1:1.104417 2:-0.671428 3:0.875767 4:-0.644976 5:0.605469 6:-1.621921 7:0.743843 8:-0.419597 9:-1.427534 10:-0.266990
-1 1:0.089646 2:1.533935 3:-0.032863 4:0.448895 5:-0.629816 6:-0.042596 7:-1.179108 8:-0.604691 9:1.258124 10:-0.548154
-1 1:-3.057659 2:0.006699 3:-0.315741 4:0.137995 5:-0.323616 6:-0.754562 7:0.157738 8:-0.145950 9:0.984552 10:-1.150321
-1 1:-0.221969 2:-0.904877 3:-0.117019 4:-0.474822 5:0.562628 6:-0.604302 7:-0.092830 8:-1.208539 9:0.796839 10:0.521118
-1 1:-0.007658 2:-0.436054 3:-0.641975 4:0.860650 5:-0.440039 6:-0.164970 7:-0.074985 8:-1.477162 9:-2.615064 10:-2.157014
-1 1:1.284433 2:-2.642274 3:-0.025024 4:-1.256259 5:-1.013002 6:1.271485 7:-2.215013 8:-0.158925 9:1.218666 10:1.639990
-1 1:1.654788 2:-1.627741 3:0.804650 4:0.077146 5:-1.077116 6:-0.095140 7:-1.295869 8:-0.609589 9:-1.173035 10:-0.521053
-1 1:-0.641024 2:-0.212358 3:0.540823 4:-0.485444 5:-0.194133 6:-0.115386 7:-0.260878 8:-1.213214 9:1.154170 10:-0.586972
-1 1:-1.274563 2:0.846902 3:1.440473 4:1.016663 5:0.311856 6:-0.155936 7:0.029471 8:0.631694 9:-0.167033 10:1.304523
-1 1:-0.542211 2:1.288523 3:0.210262 4:-1.195568 5:1.104397 6:0.406603 7:1.122032 8:0.637038 9:-1.339779 10:-0.269379
-1 1:1.590483 2:-0.896024 3:-1.006309 4:0.800662 5:0.178079 6:0.245686 7:0.639898 8:-0.782983 9:-0.432889 10:-0.852433
-1 1:-1.114597 2:0.687537 3:-0.385474 4:1.664097 5:0.252748 6:0.997123 7:-0.107850 8:0.851091 9:0.423333 10:0.360663
-1 1:0.217623 2:0.803132 3:-0.483079 4:1.002274 5:1.260086 6:0.707446 7:-0.067720 8:-0.323417 9:-0.024531 10:0.162308
-1 1:-1.802632 2:-0.251628 3:-0.416991 4:-0.193695 5:-0.846426 6:-2.456982 7:-0.606814 8:-0.030981 9:1.947997 10:-1.434126
-1 1:-0.145288 2:1.472468 3:1.223011 4:-0.177779 5:1.198804 6:0.013240 7:1.037786 8:0.331905 9:0.480319 10:1.082215
-1 1:-0.542607 2:0.989641 3:0.231811 4:1.675365 5:-0.139028 6:-0.251703 7:1.038051 8:-1.008601 9:0.343483 10:0.885796
-1 1:0.578603 2:0.645949 3:-0.112593 4:-0.360417 5:-0.677215 6:-0.651959 7:0.634242 8:-1.561481 9:-0.072942 10:-1.349457
-1 1:-0.189414 2:-0.952340 3:0.784456 4:1.570421 5:-1.376275 6:-1.047330 7:0.744704 8:-0.955525 9:0.396186 10:0.313731
-1 1:-1.535514 2:1.655564 3:0.880137 4:-0.630533 5:-1.082138 6:-1.679878 7:-0.439122 8:-1.548821 9:-1.635859 10:-0.821029
-1 1:-1.388872 2:1.187471 3:-1.234101 4:0.202664 5:0.084767 6:0.192721 7:0.354100 8:0.003620 9:1.015907 10:0.125300
-1 1:-0.865890 2:-0.880295 3:0.641661 4:1.273379 5:-0.191002 6:0.703967 7:-1.110480 8:0.575791 9:-0.008066 10:0.351068
-1 1:0.961551 2:0.391779 3:-2.010941 4:2.045719 5:2.189558 6:0.150020 7:0.170640 8:-1.661982 9:1.712269 10:1.073773
-1 1:-1.340134 2:-0.148537 3:0.086233 4:-0.219527 5:-0.759756 6:0.635964 7:-0.527461 8:0.392737 9:-0.760138 10:-1.209204
-1 1:-0.760560 2:0.988972 3:0.981283 4:-0.772401 5:0.109344 6:-0.112230 7:-2.173077 8:-1.568013 9:-1.141264 10:-0.262926
-1 1:0.851124 2:-1.681784 3:0.169668 4:-0.156591 5:-0.532773 6:-0.232170 7:0.816230 8:-1.068131 9:0.369926 10:0.688118
-1 1:0.798887 2:-0.420608 3:0.477203 4:-0.224080 5:-1.928512 6:1.537996 7:1.284866 8:1.051135 9:1.902237 10:0.032116
-1 1:0.487480 2:0.605502 3:0.940191 4:-2.144581 5:-1.717850 6:0.737295 7:2.158592 8:0.312391 9:-0.872324 10:-0.347490
-1 1:0.531803 2:-0.353016 3:0.695860 4:0.271878 5:-0.014581 6:-1.483835 7:0.189187 8:-0.327256 9:-2.007163 10:-0.320235
-1 1:1.463747 2:-1.617351 3:2.980490 4:2.321309 5:-0.321229 6:-1.513174 7:-0.876773 8:-1.523176 9:-0.675769 10:0.081847
-1 1:0.428892 2:-0.702955 3:-0.728406 4:-0.054266 5:-0.129273 6:1.354462 7:-0.069753 8:1.962345 9:-0.068784 10:-0.322696
-1 1:1.013836 2:-1.163753 3:-2.541494 4:0.853049 5:-2.354239 6:-1.780354 7:0.282688 8:-0.166049 9:-0.884839 10:-0.261457
-1 1:0.294141 2:-0.703311 3:-0.405866 4:-1.201388 5:0.448603 6:-0.075230 7:-0.176324 8:1.012348 9:-0.100370 10:0.157001
-1 1:0.341827 2:-2.010297 3:1.125971 4:1.572162 5:-0.670568 6:0.036307 7:-0.253128 8:1.437562 9:-0.370360 10:-0.293645
-1 1:0.764541 2:-0.536834 3:0.912947 4:-0.570663 5:-1.235529 6:0.700536 7:0.018824 8:1.061822 9:1.182361 10:0.745179
-1 1:-0.609396 2:-0.837241 3:-0.324261 4:-0.691844 5:-0.086906 6:1.700236 7:1.300498 8:0.364672 9:1.355878 10:0.200917
-1 1:1.140245 2:1.096099 3:-0.694819 4:2.566879 5:-1.319419 6:-1.001013 7:1.620444 8:-0.550461 9:0.124001 10:0.426506
-1 1:-0.945979 2:-0.884640 3:-0.843839 4:1.054352 5:-0.298473 6:0.445228 7:-0.542196 8:-0.630409 9:-1.163945 10:-0.601542
-1 1:0.254280 2:0.541883 3:-0.406182 4:1.877670 5:-0.884478 6:-0.583675 7:-0.143198 8:-1.435303 9:-1.446744 10:-1.436482
-1 1:1.112466 2:1.209109 3:-0.424888 4:0.134861 5:-1.072348 6:1.294220 7:-0.414908 8:-0.444302 9:-2.044480 10:-1.674526
-1 1:0.764139 2:1.575783 3:0.544241 4:2.389851 5:-0.127921 6:-0.667441 7:-1.538505 8:2.345823 9:0.553285 10:-1.260897
-1 1:1.344605 2:-1.487332 3:-1.072215 4:-0.947985 5:-1.313854 6:-1.024156 7:1.201403 8:-2.087890 9:-0.146208 10:0.684621
-1 1:0.045863 2:0.486594 3:-0.123498 4:-0.231227 5:-1.138920 6:-0.096111 7:-0.311531 8:2.178594 9:0.098571 10:0.751168
-1 1:-1.110970 2:0.397713 3:-0.431506 4:-2.173637 5:-0.003953 6:-1.077638 7:-2.427272 8:0.500867 9:-0.703864 10:-0.840212
-1 1:-1.000623 2:-0.838439 3:-2.424217 4:-0.476877 5:-0.084551 6:-0.783925 7:0.944029 8:-0.083028 9:1.158656 10:-0.150981
-1 1:-0.389951 2:1.163630 3:-0.970164 4:1.622939 5:-0.638980 6:-2.168755 7:-0.123362 8:-0.122959 9:3.287196 10:-0.530112
-1 1:-0.978282 2:0.083950 3:0.660814 4:-0.976765 5:0.331814 6:-0.625390 7:3.399019 8:-0.123034 9:-0.397460 10:2.465266
-1 1:0.305643 2:1.123650 3:0.355798 4:2.302837 5:0.606938 6:-0.333643 7:-1.689257 8:1.015079 9:0.001390 10:0.326436
-1 1:1.465650 2:-0.932456 3:-2.014916 4:-0.283597 5:0.149261 6:-0.925949 7:-1.124237 8:1.091073 9:-1.068727 10:0.245976
-1 1:-0.758375 2:0.246567 3:-0.325185 4:1.776566 5:-0.108476 6:-1.422441 7:-0.272651 8:-0.773883 9:0.479434 10:-0.187554
-1 1:-0.528924 2:0.359128 3:0.502766 4:1.689972 5:0.037420 6:0.939672 7:-1.307505 8:0.619368 9:-0.320741 10:-0.271763
-1 1:-0.004650 2:0.130433 3:-0.098234 4:0.827664 5:1.330197 6:-0.062524 7:-0.240463 8:-0.287067 9:-0.831560 10:2.293017
-1 1:0.978744 2:0.233605 3:-1.045851 4:-0.550666 5:2.285590 6:-3.096970 7:1.580089 8:-0.469978 9:1.553252 10:-0.557481
-1 1:-0.374735 2:0.501152 3:0.142248 4:-0.359112 5:0.463746 6:-0.010181 7:0.737617 8:-0.585745 9:0.414475 10:1.341173
-1 1:-0.402936 2:0.551941 3:-0.803132 4:-1.020511 5:1.409627 6:-0.229095 7:0.413459 8:-0.107930 9:0.607040 10:0.627782
-1 1:0.044113 2:0.481372 3:-0.858253 4:1.644045 5:1.062954 6:-0.589430 7:0.335642 8:0.212305 9:-0.110935 10:1.211440
-1 1:-0.115725 2:-0.859794 3:-0.860827 4:-0.802422 5:1.018026 6:1.419606 7:-1.988008 8:0.673587 9:-1.154146 10:-0.562424
-1 1:0.137213 2:-1.146246 3:-1.920244 4:-2.343161 5:2.648933 6:-0.157115 7:0.907122 8:-0.254917 9:0.622065 10:-0.678668
-1 1:0.695846 2:0.111109 3:0.111852 4:1.418431 5:-0.258245 6:-1.091693 7:0.354462 8:-0.662568 9:0.520671 10:0.041917
-1 1:1.116275 2:1.204306 3:0.120623 4:-0.873030 5:-1.043540 6:1.084444 7:0.456797 8:-0.063158 9:0.804239 10:-0.367246
-1 1:-1.486415 2:-0.574392 3:-1.366410 4:0.152417 5:-0.909389 6:-0.899766 7:1.250702 8:-0.787826 9:-0.454029 10:-0.345954
-1 1:0.639306 2:-1.108905 3:0.044349 4:-0.216726 5:-1.580925 6:-0.249187 7:-0.663846 8:-2.619582 9:-0.347211 10:-1.175951
-1 1:1.213210 2:0.124632 3:-0.377310 4:-2.243988 5:0.082522 6:1.066902 7:-0.095604 8:-2.046912 9:0.440767 10:-0.727886
-1 1:-0.891369 2:1.181855 3:0.572258 4:0.459194 5:-1.376620 6:-0.028465 7:-0.367892 8:0.955005 9:-1.097386 10:0.771471
-1 1:0.444647 2:0.265246 3:-0.537437 4:0.355294 5:0.684437 6:1.235701 7:-0.174436 8:-2.248933 9:-0.774114 10:1.507924
-1 1:-0.409901 2:0.714350 3:0.010021 4:1.122054 5:-0.103510 6:1.528126 7:-0.007265 8:0.083865 9:0.559393 10:-1.652529
-1 1:1.891721 2:1.050699 3:1.041343 4:-0.101106 5:0.542569 6:1.508973 7:-1.129985 8:1.018338 9:0.934222 10:-2.063263
-1 1:-0.539172 2:-1.007925 3:1.315313 4:0.082561 5:0.364541 6:-0.381838 7:0.744543 8:1.330552 9:-0.778381 10:1.172104
-1 1:0.909885 2:-0.015402 3:-0.746513 4:-1.749716 5:0.103961 6:-0.766011 7:-1.436156 8:-0.913608 9:0.686730 10:-0.899831
-1 1:1.146503 2:-0.841891 3:-0.954010 4:-1.324507 5:0.815985 6:1.548377 7:-1.051203 8:-0.585466 9:0.205314 10:-0.880906
-1 1:0.713173 2:0.311930 3:0.649468 4:0.560973 5:-0.954659 6:0.708283 7:-1.017764 8:-1.043944 9:0.457751 10:0.865102
-1 1:0.178561 2:-2.011338 3:0.669020 4:1.068278 5:-0.555258 6:-0.443051 7:0.013839 8:1.195827 9:-1.084589 10:-0.670496
-1 1:-1.262919 2:0.879565 3:-1.121870 4:1.093574 5:-0.946606 6:-0.614726 7:0.452981 8:-1.516645 9:1.580364 10:-0.035721
-1 1:1.287364 2:1.006818 3:1.036820 4:-0.264771 5:1.647913 6:0.330345 7:-0.323278 8:-0.542458 9:1.252343 10:-0.716068
-1 1:-0.291092 2:1.578426 3:0.965788 4:0.714595 5:-0.283275 6:1.076732 7:-0.844726 8:0.444305 9:1.363152 10:-0.508865
-1 1:-2.344453 2:1.657460 3:2.369400 4:-0.147897 5:0.435924 6:0.772067 7:-1.117365 8:0.488497 9:-0.372111 10:-1.036637
-1 1:0.675575 2:-2.618048 3:-0.793911 4:-0.842929 5:-1.673479 6:-0.145988 7:-1.445107 8:1.136681 9:-1.045602 10:1.042430
-1 1:-0.207130 2:0.367535 3:0.838863 4:-1.121476 5:-1.571558 6:0.356046 7:-1.336012 8:0.315013 9:-1.530801 10:-0.398013
-1 1:0.183284 2:-0.980372 3:0.736807 4:-0.599317 5:-1.380004 6:-1.986413 7:1.168083 8:-1.282856 9:-2.251806 10:-0.598499
-1 1:-0.423380 2:-2.176057 3:1.108326 4:0.843031 5:0.272705 6:1.258554 7:0.357747 8:-1.658139 9:0.967263 10:-0.916562
-1 1:0.026550 2:1.048781 3:-1.149190 4:1.228513 5:0.580399 6:0.025761 7:-0.082981 8:0.765890 9:0.699120 10:1.043938
-1 1:-0.303626 2:-2.503029 3:0.190356 4:0.570136 5:0.855248 6:1.015068 7:2.031248 8:-0.497925 9:0.768388 10:-0.321665
-1 1:0.744985 2:0.402275 3:0.673971 4:-2.914586 5:0.502934 6:-0.517997 7:0.653455 8:0.414244 9:-0.942725 10:-0.087530
-1 1:1.571261 2:0.418647 3:0.476194 4:-0.729307 5:-0.760615 6:-0.554940 7:0.491377 8:-0.911146 9:0.848637 10:0.297231
-1 1:-0.440580 2:2.248435 3:0.323973 4:-0.762095 5:2.482560 6:-0.023147 7:-2.124460 8:-0.757774 9:0.416577 10:-0.577737
-1 1:2.177992 2:-0.209467 3:-0.810077 4:0.298476 5:0.271684 6:0.224073 7:0.367707 8:-0.276431 9:0.061166 10:-0.989406
-1 1:0.558413 2:1.184545 3:-0.618114 4:0.390827 5:0.302458 6:0.268521 7:-0.246258 8:0.733813 9:1.591465 10:1.465945
-1 1:-1.498092 2:0.510750 3:-0.315285 4:-1.381677 5:1.096339 6:-0.089503 7:-0.675731 8:-1.250891 9:0.365639 10:0.214786
-1 1:0.571303 2:0.215250 3:-0.382126 4:1.153794 5:0.519978 6:-1.321077 7:-0.276074 8:1.181124 9:1.277373 10:0.299490
-1 1:-0.564265 2:-0.061497 3:-1.009009 4:0.351208 5:0.206451 6:0.665620 7:1.733829 8:-1.165271 9:-1.808888 10:0.910483
-1 1:1.823270 2:0.688688 3:0.646610 4:-0.270046 5:-0.351609 6:0.403874 7:1.138352 8:1.202578 9:2.201334 10:0.460568
-1 1:-0.544291 2:-1.245906 3:-1.744015 4:-2.249702 5:-0.267670 6:0.218040 7:0.210500 8:1.456432 9:-0.367836 10:-1.836730
-1 1:-2.502946 2:-0.692445 3:0.660334 4:0.377387 5:-0.515678 6:0.428735 7:1.490865 8:2.698304 9:-0.539395 10:0.095820
-1 1:-0.140383 2:0.221488 3:1.409676 4:-0.578128 5:1.095538 6:-1.814483 7:1.345364 8:1.004356 9:-1.543634 10:0.270392
-1 1:-0.225740 2:0.627090 3:0.327887 4:1.379900 5:0.732514 6:0.365030 7:0.046872 8:0.047267 9:-2.362076 10:1.054182
-1 1:0.446384 2:-1.482571 3:-0.528281 4:-1.037392 5:0.122057 6:0.359614 7:0.256922 8:1.601261 9:-1.446099 10:0.313808
-1 1:0.757397 2:1.126375 3:0.596799 4:0.651447 5:2.120617 6:-0.772843 7:-1.537626 8:-2.039881 9:-1.633761 10:-0.209473
-1 1:-0.138465 2:-0.469999 3:2.223765 4:-1.236691 5:0.946791 6:1.164450 7:1.532728 8:0.282755 9:0.220141 10:-0.117016
-1 1:0.203874 2:-0.379168 3:-0.681535 4:-0.588131 5:1.299730 6:1.042314 7:0.097787 8:-0.531634 9:-0.577398 10:0.425991
-1 1:-0.514497 2:-0.962463 3:0.805136 4:0.841388 5:-2.905222 6:0.018945 7:1.594144 8:0.121759 9:0.703548 10:-1.261353
-1 1:0.298433 2:-0.127457 3:0.465291 4:-0.434056 5:-0.906420 6:0.387383 7:1.241698 8:0.032662 9:0.002765 10:-0.824332
-1 1:1.074798 2:-0.634944 3:-1.125513 4:1.559412 5:1.243662 6:1.063280 7:-2.231987 8:1.168246 9:-1.682571 10:-0.374678
-1 1:0.349521 2:-1.086567 3:0.736907 4:-0.533678 5:-0.672720 6:0.046422 7:1.784341 8:-0.568827 9:-1.300350 10:0.060361
-1 1:-1.185300 2:0.828788 3:-0.039160 4:1.053950 5:0.834915 6:-0.515963 7:1.635910 8:1.358908 9:0.507643 10:0.580284
-1 1:2.344834 2:1.957829 3:0.288494 4:-1.906870 5:1.759741 6:1.604444 7:-1.474581 8:0.189290 9:-0.408378 10:-0.205149
-1 1:2.166899 2:0.754109 3:-1.124839 4:-1.733308 5:0.573777 6:-0.178263 7:0.780041 8:-1.315751 9:0.602283 10:0.536522
-1 1:1.377611 2:1.391527 3:1.509902 4:-0.725596 5:1.723295 6:-1.433812 7:-0.656964 8:-1.416108 9:-0.102332 10:1.073528
-1 1:0.184585 2:-0.142509 3:-2.851785 4:1.511545 5:-0.349780 6:1.203777 7:-0.129478 8:0.670352 9:-0.666556 10:0.073740
-1 1:-0.396905 2:-0.351605 3:-0.968351 4:0.415939 5:-0.114949 6:0.275910 7:-0.603617 8:-2.272035 9:0.972104 10:-2.386569
-1 1:-2.249176 2:-0.308331 3:-0.273678 4:0.652175 5:0.058708 6:-0.763087 7:0.795321 8:-1.185846 9:0.602827 10:0.605332
-1 1:-2.429837 2:-0.210413 3:-0.732074 4:-1.268004 5:1.381995 6:-0.261012 7:0.418616 8:-1.007443 9:-2.429699 10:-1.430069
-1 1:1.530251 2:0.181608 3:2.541291 4:0.517608 5:1.406066 6:-0.220367 7:-0.790678 8:-0.134497 9:-0.077737 10:1.987061
-1 1:-0.547340 2:0.353320 3:1.080124 4:0.066425 5:1.505560 6:-0.772649 7:0.811302 8:0.777472 9:-0.614903 10:0.296246
-1 1:-1.194493 2:0.995254 3:-1.068771 4:-0.192651 5:-2.044984 6:0.133560 7:-0.155001 8:-0.185697 9:-0.659686 10:0.375591
-1 1:-0.345991 2:-1.027731 3:0.033417 4:0.002857 5:0.095981 6:0.226809 7:0.096441 8:-0.596928 9:0.317910 10:-0.299753
-1 1:-0.361052 2:2.089640 3:-1.642402 4:-1.503019 5:-0.142294 6:-1.092512 7:0.384991 8:-0.174543 9:-0.591965 10:0.487271
-1 1:1.401579 2:-1.030838 3:-1.030521 4:-0.444665 5:1.145093 6:-0.916355 7:-0.004557 8:-0.065049 9:-0.686361 10:0.645779
-1 1:1.581999 2:-0.246844 3:0.444524 4:1.147891 5:1.508141 6:2.056598 7:0.133944 8:-0.388229 9:0.543873 10:0.697367
-1 1:-1.335889 2:0.809492 3:-1.292203 4:-1.146653 5:-0.195481 6:-1.119092 7:0.299640 8:-0.346424 9:1.368969 10:0.403921
-1 1:0.375767 2:1.218266 3:-1.221310 4:1.528623 5:0.465680 6:-0.595040 7:-0.357011 8:1.229559 9:0.592692 10:1.253753
-1 1:-0.146881 2:1.519218 3:0.336418 4:-1.251702 5:-0.209009 6:-2.021244 7:0.379318 8:-1.259986 9:-0.385251 10:0.347463
-1 1:-0.657514 2:-0.927554 3:1.940447 4:-0.273619 5:0.026822 6:-0.221158 7:-0.193889 8:1.126420 9:0.831252 10:0.227615
-1 1:-0.222757 2:0.870878 3:0.149646 4:1.224912 5:0.070544 6:1.328053 7:-0.424576 8:0.002730 9:0.784948 10:-0.337981
-1 1:-0.441721 2:-0.476841 3:1.179418 4:-2.039585 5:0.048378 6:0.343042 7:0.751191 8:0.241707 9:1.582376 10:-0.274673
-1 1:-0.461237 2:1.599924 3:0.457537 4:-0.570088 5:1.061038 6:0.370921 7:-0.249535 8:-0.282285 9:1.070373 10:-0.136932
-1 1:-0.760421 2:-0.891382 3:-0.915619 4:0.023750 5:0.843429 6:-0.613758 7:0.256530 8:-0.611461 9:-1.323876 10:-0.929016
-1 1:0.296053 2:-0.081819 3:-0.514662 4:0.275471 5:1.730047 6:-0.330196 7:-1.047431 8:0.831111 9:0.212595 10:0.862670
-1 1:-1.158522 2:-0.581277 3:1.643207 4:1.940089 5:-0.074067 6:-0.139847 7:-0.195593 8:-0.721195 9:-0.306000 10:-0.740297
-1 1:-0.580528 2:0.148018 3:-1.693984 4:0.330304 5:-0.499731 6:0.418754 7:-0.944408 8:1.358357 9:-0.568393 10:-0.316155
-1 1:0.142862 2:0.251116 3:-0.932167 4:0.164458 5:1.490441 6:0.722083 7:-0.907681 8:1.690498 9:-1.136494 10:-0.269352
-1 1:-0.434453 2:-0.559226 3:-0.120613 4:0.375253 5:-0.347596 6:-0.413638 7:0.409850 8:0.070825 9:1.326974 10:0.878577
-1 1:0.546641 2:0.475735 3:-1.578163 4:0.187464 5:-1.047026 6:-0.631647 7:2.881892 8:-0.849497 9:-0.189393 10:-0.420076
-1 1:-1.030970 2:0.302686 3:0.416350 4:1.439365 5:-1.878929 6:0.839720 7:-1.633932 8:0.539018 9:0.144923 10:0.497024
-1 1:0.507377 2:-0.428299 3:-2.568090 4:-0.543835 5:0.446048 6:0.763745 7:-0.040970 8:-0.921767 9:0.415461 10:-0.682778
-1 1:-0.330175 2:1.475100 3:0.893408 4:1.016283 5:1.048099 6:-1.215283 7:-0.033716 8:1.099324 9:1.981585 10:-2.450427
-1 1:-0.638938 2:0.574082 3:1.070386 4:0.713557 5:-2.582905 6:0.151096 7:0.482596 8:0.649328 9:-1.833700 10:0.159400
-1 1:0.142356 2:1.191854 3:-0.207507 4:0.375335 5:-0.684720 6:1.877354 7:-1.272351 8:0.710699 9:0.306918 10:-0.685609
-1 1:0.422854 2:0.678877 3:0.628535 4:-1.004460 5:0.163850 6:0.803675 7:-0.059915 8:-0.566370 9:0.622057 10:-0.654421
-1 1:0.061119 2:-1.008626 3:-0.542749 4:0.232591 5:2.290497 6:1.010392 7:-1.698865 8:-0.270620 9:-0.189888 10:-0.223728
-1 1:1.863488 2:1.383039 3:-1.572695 4:-1.850869 5:-0.299575 6:0.803486 7:0.221738 8:-1.723283 9:0.519919 10:0.761837
-1 1:-0.419277 2:1.176159 3:2.216876 4:2.438884 5:-1.271413 6:0.025844 7:-0.282083 8:-1.031488 9:-1.253445 10:-1.926933
-1 1:-0.119366 2:-0.110071 3:-1.580806 4:-0.216114 5:-0.254164 6:-0.529188 7:0.363660 8:0.068622 9:-0.606199 10:-2.171795
-1 1:1.477235 2:1.576779 3:0.709789 4:0.395437 5:-0.412276 6:0.832983 7:-0.513788 8:-1.390343 9:-0.261646 10:-0.375652
-1 1:-0.029519 2:-1.185101 3:-0.887782 4:-1.153461 5:-0.357638 6:0.997235 7:-0.732819 8:1.576486 9:0.143767 10:0.857745
-1 1:0.080561 2:0.167567 3:0.334451 4:0.697639 5:-1.070528 6:-0.576652 7:-0.105391 8:0.165353 9:0.538429 10:-0.683530
-1 1:-2.670344 2:-0.649404 3:0.466884 4:-0.441011 5:0.538848 6:-0.761999 7:0.772194 8:-0.158726 9:1.801420 10:-0.070958
-1 1:1.217860 2:-0.449783 3:-0.121548 4:0.579968 5:-0.198001 6:-1.453736 7:0.127270 8:-0.371480 9:0.172040 10:0.509788
-1 1:-0.210534 2:-0.460768 3:-1.531454 4:-1.637858 5:-0.403062 6:0.739350 7:-0.491650 8:-1.741352 9:0.815295 10:0.623745
-1 1:0.870198 2:0.369214 3:0.247364 4:1.139487 5:0.258617 6:-0.582153 7:-1.094100 8:-0.410138 9:-0.173904 10:-0.872555
-1 1:0.794385 2:-0.197688 3:-0.688533 4:-0.512553 5:-0.669187 6:-0.281792 7:-0.665919 8:1.372669 9:-0.490345 10:1.050550
-1 1:-1.179587 2:1.440528 3:-1.681157 4:-0.989030 5:0.636310 6:-0.006480 7:-0.002158 8:2.028708 9:-0.313518 10:0.372615
-1 1:-0.143389 2:-0.164549 3:0.803837 4:-0.459877 5:-0.722896 6:-0.134856 7:-0.817580 8:0.745705 9:1.660140 10:0.575446
-1 1:-0.200289 2:-0.978330 3:-0.522879 4:0.847141 5:-1.098817 6:0.260516 7:-1.202058 8:-1.768613 9:-0.424601 10:0.142255
-1 1:-0.251367 2:0.198932 3:-0.378766 4:-1.244326 5:1.093253 6:1.509497 7:-1.378117 8:-2.340671 9:0.439786 10:-0.583762
-1 1:1.344820 2:0.409503 3:-0.466731 4:-0.494119 5:-1.367781 6:-0.150652 7:0.634757 8:0.048777 9:-0.726742 10:-1.004136
-1 1:-0.493186 2:0.850920 3:-1.176832 4:1.096246 5:0.198309 6:-1.119940 7:0.804890 8:-1.368585 9:-1.107543 10:1.871894
-1 1:-1.697337 2:-0.237873 3:-0.681836 4:1.132681 5:0.801994 6:-0.084083 7:1.383010 8:-1.496488 9:-1.253076 10:-0.794807
-1 1:0.156998 2:-1.225476 3:-1.182420 4:-0.877594 5:0.540811 6:0.137912 7:0.708663 8:0.453328 9:0.445041 10:-1.079768
-1 1:0.655290 2:-0.591225 3:-2.594876 4:-0.822753 5:-0.546484 6:2.074681 7:-0.737448 8:0.733169 9:1.085737 10:-0.178179
-1 1:0.623091 2:-1.377519 3:0.607641 4:-2.715241 5:-2.194594 6:0.984899 7:1.080334 8:-0.821871 9:0.832697 10:0.726527
-1 1:-0.564829 2:1.859745 3:-2.125441 4:-2.220176 5:-1.136464 6:0.386114 7:-1.858089 8:-0.343102 9:-0.301954 10:0.982858
-1 1:-0.115732 2:-2.289295 3:1.231976 4:-0.529190 5:-1.239238 6:-0.256877 7:0.137403 8:-0.029225 9:0.658548 10:-1.020225
-1 1:-0.854828 2:0.176451 3:1.079393 4:0.888310 5:-0.653416 6:-0.895700 7:-3.237576 8:1.911434 9:-0.622478 10:-0.012619
-1 1:0.425311 2:0.360191 3:0.473500 4:0.947312 5:-0.067076 6:1.023388 7:1.046765 8:-0.020006 9:-0.039089 10:0.233331
-1 1:0.038385 2:0.752720 3:-2.845131 4:-1.119710 5:0.260790 6:1.721621 7:-0.986876 8:0.714470 9:0.411485 10:2.979529
-1 1:-1.798035 2:1.313024 3:-0.152742 4:0.085458 5:2.701617 6:2.238626 7:0.374672 8:0.639914 9:0.696862 10:-0.046393
-1 1:0.576062 2:0.608355 3:0.492559 4:-1.020595 5:1.246368 6:1.402924 7:-0.193160 8:-0.669797 9:0.021648 10:1.009916
-1 1:0.312559 2:-0.288381 3:-0.261584 4:1.325322 5:-1.297023 6:-0.654214 7:-1.418964 8:-1.562404 9:2.333817 10:-0.434795
-1 1:0.191690 2:0.311901 3:-0.819859 4:-0.915015 5:-0.172374 6:0.444027 7:-0.947762 8:0.783475 9:-0.479166 10:-1.617452
-1 1:1.198945 2:0.489207 3:1.210993 4:-0.453371 5:0.315765 6:1.072485 7:-1.154977 8:0.717501 9:-0.316050 10:-0.550811
-1 1:1.477828 2:-1.325344 3:1.385983 4:1.621012 5:1.155434 6:1.074756 7:-1.687304 8:2.373869 9:0.721064 10:-0.464876
-1 1:0.513789 2:-0.099304 3:-0.273487 4:-0.373135 5:2.296725 6:1.595644 7:-1.254616 8:0.035763 9:0.257311 10:0.180703
-1 1:-1.072393 2:0.102349 3:0.970096 4:1.036821 5:-0.994211 6:-0.869318 7:0.318143 8:0.512139 9:-1.165520 10:-0.227243
-1 1:0.713441 2:-0.513796 3:-1.039872 4:-0.020782 5:-0.653125 6:-0.112558 7:-1.596905 8:2.403989 9:0.557534 10:0.917736
-1 1:-0.479724 2:-0.902302 3:0.376431 4:-0.126279 5:0.336495 6:0.389041 7:-0.597498 8:0.079412 9:0.999917 10:-1.368708
-1 1:0.547349 2:0.435083 3:-0.309978 4:-1.685602 5:0.923429 6:-1.725782 7:-0.406716 8:0.872771 9:-0.175105 10:-1.528373
-1 1:0.801596 2:0.005438 3:-0.183866 4:-0.364972 5:0.724164 6:0.841145 7:0.479054 8:0.657621 9:1.359013 10:1.483688
-1 1:-0.430258 2:-2.292844 3:0.217136 4:-0.133747 5:-0.181644 6:-0.588169 7:-0.541280 8:0.017118 9:-1.241633 10:-1.009718
-1 1:-0.790764 2:1.600354 3:-1.312745 4:-1.054960 5:-0.289994 6:-0.257241 7:-0.061254 8:0.571967 9:0.322990 10:-0.012194
-1 1:-1.112903 2:-1.272747 3:0.289794 4:-0.489782 5:0.454927 6:0.874856 7:0.100008 8:-0.792220 9:2.004544 10:0.251407
-1 1:-0.146025 2:-0.409230 3:-1.248919 4:-0.892345 5:0.252169 6:0.196710 7:-0.235405 8:0.038084 9:-0.871572 10:0.211430
-1 1:-1.067117 2:-0.251765 3:0.379903 4:-0.222072 5:2.308038 6:-0.532512 7:0.526703 8:-0.267257 9:-0.507590 10:2.617436
-1 1:0.774799 2:-2.459353 3:1.397200 4:0.509211 5:-0.638186 6:-0.353334 7:0.950930 8:0.024397 9:0.944098 10:0.676230
-1 1:-0.844775 2:-0.039415 3:-1.359107 4:-0.569288 5:-0.056744 6:-0.019264 7:0.160689 8:0.151181 9:0.668823 10:-0.116281
-1 1:1.044331 2:-0.363811 3:1.682336 4:-1.643710 5:-1.120800 6:-1.321010 7:-0.991817 8:-0.005266 9:-0.824139 10:-0.012535
-1 1:-0.184956 2:1.401141 3:0.281289 4:-2.018877 5:-0.823905 6:1.543113 7:-1.017705 8:-0.019145 9:0.396388 10:-1.404474
-1 1:0.839307 2:-0.894750 3:0.553657 4:-0.324321 5:0.013367 6:-0.814223 7:1.674240 8:0.669541 9:-1.169387 10:-0.865796
-1 1:1.188978 2:0.365597 3:1.728308 4:2.015670 5:-1.457617 6:2.376351 7:0.032387 8:-1.185993 9:0.473693 10:0.113303
-1 1:0.662052 2:-0.351281 3:0.551765 4:1.003602 5:0.892220 6:-2.349992 7:0.490917 8:2.699089 9:2.641844 10:0.385587
-1 1:-0.566050 2:0.036436 3:0.876104 4:-0.648670 5:1.465198 6:-0.048469 7:1.422113 8:-2.416864 9:0.766667 10:0.869508
-1 1:0.196152 2:0.898830 3:0.262754 4:1.636569 5:0.868456 6:-1.048528 7:0.357884 8:1.102726 9:0.891060 10:0.519145
-1 1:-2.471202 2:-0.014197 3:0.342071 4:0.883724 5:-0.532269 6:-0.347661 7:-1.224871 8:1.278686 9:-0.813080 10:-1.759375
-1 1:0.140915 2:-0.687275 3:1.753675 4:0.743981 5:0.949172 6:0.731690 7:1.618390 8:0.274590 9:0.650217 10:0.585413
-1 1:-0.539429 2:0.970331 3:0.138242 4:-0.152051 5:-0.964839 6:1.481195 7:0.293045 8:0.045400 9:0.677685 10:-1.068793
-1 1:-0.964419 2:0.120599 3:0.609190 4:0.205408 5:1.641115 6:0.574079 7:0.049677 8:0.711771 9:0.954575 10:-0.435409
-1 1:0.006685 2:0.078658 3:0.552392 4:0.093662 5:1.053999 6:2.681565 7:-0.112484 8:-0.785173 9:-1.305506 10:0.999560
-1 1:1.379359 2:0.747430 3:-0.543351 4:0.679079 5:1.837324 6:-2.009022 7:-0.647701 8:-0.499247 9:0.688201 10:0.246787
-1 1:-0.640528 2:-1.050119 3:1.544598 4:-1.871844 5:0.137143 6:-1.515124 7:1.469318 8:0.185106 9:-0.966120 10:-0.240914
-1 1:0.943546 2:0.144089 3:-0.128328 4:0.835612 5:1.328746 6:1.649139 7:-0.227553 8:0.954729 9:-1.595347 10:-0.723739
-1 1:0.351346 2:1.779812 3:-1.239459 4:0.554939 5:0.131328 6:1.364425 7:-0.092217 8:1.469295 9:0.256987 10:1.098478
-1 1:-0.346268 2:0.348223 3:-0.686166 4:-1.023947 5:-0.701656 6:-0.631605 7:0.360140 8:-0.578307 9:-1.528303 10:-0.398114
-1 1:-0.837226 2:-0.287117 3:-1.790104 4:-1.340586 5:-1.142083 6:0.233291 7:0.023339 8:0.101486 9:1.479847 10:-1.201193
-1 1:-2.299652 2:-0.120840 3:0.423597 4:0.376710 5:-0.454671 6:-0.245053 7:0.030530 8:1.434851 9:-0.670328 10:0.295462
-1 1:-0.208841 2:0.174144 3:0.400591 4:0.744707 5:0.668203 6:1.498178 7:-0.988046 8:-0.272329 9:-1.301175 10:-2.882875
-1 1:1.647475 2:-0.157265 3:2.168042 4:-0.717065 5:-0.335463 6:1.714124 7:-2.734566 8:-0.487831 9:-0.810600 10:-0.348781
-1 1:-0.605120 2:-1.484070 3:0.688776 4:-1.062501 5:-0.508350 6:-0.457911 7:-0.450333 8:0.417720 9:1.230579 10:1.042064
-1 1:1.758597 2:1.570819 3:0.449465 4:-0.660106 5:2.270873 6:0.702418 7:0.234465 8:-1.056015 9:-1.436467 10:0.087123
-1 1:0.887073 2:0.395554 3:-1.445156 4:-1.693794 5:-1.720440 6:-0.132497 7:-0.018831 8:0.501959 9:-1.299380 10:0.654223
-1 1:-0.346539 2:0.453199 3:-0.671523 4:0.571479 5:-2.309363 6:0.262560 7:0.094168 8:-0.128265 9:0.547324 10:1.337010
-1 1:0.467656 2:-0.580230 3:1.182267 4:0.662349 5:-1.256135 6:0.970060 7:0.265103 8:-2.281207 9:0.198173 10:-0.287521
-1 1:0.567070 2:0.713524 3:-0.512209 4:-0.890733 5:0.771163 6:-0.183584 7:-0.984182 8:0.251155 9:-0.080070 10:-1.231782
-1 1:0.705921 2:-0.503148 3:1.910540 4:-0.515390 5:-0.631937 6:-1.243004 7:-1.753646 8:-0.957418 9:1.400000 10:0.878890
-1 1:-0.827138 2:0.391784 3:0.092671 4:-0.035086 5:-0.712152 6:-2.214322 7:-0.008746 8:0.429838 9:-1.137160 10:-0.093412
-1 1:-0.774432 2:-0.113739 3:-0.027524 4:0.888080 5:0.012577 6:0.435153 7:0.012768 8:-0.617974 9:-1.670946 10:1.387164
1 1:0.201398 2:0.104361 3:-0.537145 4:0.224740 5:0.011662 6:-0.602327 7:0.081049 8:0.054333 9:0.482771 10:0.063179
1 1:0.185143 2:-0.113456 3:-0.674181 4:-0.291195 5:-0.182239 6:-0.183125 7:0.214831 8:0.273797 9:-0.457508 10:0.127900
1 1:-0.177085 2:0.482713 3:-0.095801 4:0.245841 5:-0.483184 6:0.028010 7:0.585326 8:0.075724 9:0.233230 10:0.170367
1 1:-0.141922 2:0.650653 3:-0.091373 4:-0.024458 5:-0.300119 6:-0.342924 7:0.505426 8:0.166257 9:-0.080533 10:0.224302
1 1:-0.008694 2:0.364145 3:-0.051721 4:-0.040757 5:0.015343 6:0.188414 7:0.824494 8:0.002661 9:-0.112809 10:0.367053
1 1:-0.083767 2:0.524514 3:-0.025093 4:0.234405 5:0.644349 6:0.425842 7:-0.179551 8:0.121040 9:0.106521 10:0.086775
1 1:0.001222 2:0.179662 3:-0.565122 4:0.569565 5:-0.010605 6:-0.304292 7:0.211534 8:-0.208957 9:-0.334193 10:-0.176499
1 1:-0.386611 2:0.161688 3:-0.587971 4:-0.299475 5:0.343704 6:0.229282 7:-0.402172 8:-0.234941 9:0.018105 10:0.032005
1 1:-0.001723 2:0.893389 3:-0.101264 4:0.145385 5:-0.273470 6:-0.001106 7:-0.077286 8:0.083092 9:-0.090267 10:0.273221
1 1:0.268829 2:0.323577 3:-0.014707 4:0.220887 5:-0.622285 6:0.149318 7:-0.561780 8:0.065998 9:0.199858 10:0.067750
1 1:-0.182556 2:-0.216054 3:-0.063779 4:0.381909 5:-0.618355 6:0.351004 7:-0.283603 8:0.168670 9:0.367972 10:0.142197
1 1:0.062696 2:0.361749 3:-0.071722 4:0.209228 5:-0.227680 6:0.315116 7:0.293189 8:0.379537 9:0.295869 10:0.589579
1 1:-0.263090 2:0.434340 3:0.415496 4:0.301514 5:-0.262671 6:-0.138181 7:-0.167026 8:0.136385 9:-0.387813 10:0.439997
1 1:-0.599109 2:0.145258 3:-0.260635 4:-0.239606 5:0.052482 6:0.573167 7:0.121465 8:0.200305 9:-0.258581 10:0.203992
1 1:-0.507386 2:-0.215052 3:0.320372 4:0.253262 5:-0.341134 6:0.061788 7:-0.472537 8:0.228136 9:-0.201353 10:0.305717
1 1:-0.578040 2:0.232552 3:0.227374 4:-0.057757 5:-0.447839 6:0.128471 7:0.226615 8:0.264250 9:-0.312316 10:-0.347802
1 1:-0.129782 2:0.409557 3:-0.716822 4:0.189257 5:0.290557 6:-0.291555 7:-0.106626 8:-0.007661 9:0.155476 10:0.246452
1 1:0.117617 2:-0.423970 3:0.171057 4:-0.002160 5:-0.311703 6:-0.360515 7:-0.131154 8:0.077863 9:-0.700606 10:0.189493
1 1:-0.579837 2:0.251674 3:0.092566 4:0.336359 5:-0.512279 6:-0.366973 7:-0.103424 8:-0.118549 9:-0.236469 10:-0.031240
1 1:0.277174 2:0.480512 3:0.050383 4:0.162698 5:-0.486974 6:-0.234451 7:0.196368 8:0.168654 9:-0.362870 10:0.415312
1 1:0.024524 2:-0.193643 3:-0.016031 4:0.670511 5:-0.350376 6:-0.195510 7:-0.405014 8:-0.319809 9:-0.273879 10:-0.098730
1 1:-0.204781 2:0.206974 3:-0.323084 4:0.416798 5:-0.177270 6:0.202072 7:-0.317682 8:0.432342 9:-0.413903 10:0.325127
1 1:-0.433849 2:0.317157 3:-0.171070 4:0.352526 5:-0.443226 6:0.000706 7:0.112293 8:0.436663 9:-0.345093 10:-0.197039
1 1:0.381849 2:-0.190256 3:0.225108 4:0.013709 5:-0.046468 6:0.608212 7:-0.225193 8:-0.086225 9:-0.278053 10:-0.509501
1 1:-0.362202 2:0.070733 3:-0.606559 4:-0.347691 5:0.222722 6:0.168948 7:0.195995 8:-0.232173 9:-0.320304 10:-0.319284
1 1:-0.264636 2:0.245520 3:-0.185863 4:0.065681 5:-0.422744 6:0.038525 7:0.151761 8:0.274041 9:-0.685762 10:0.286762
1 1:0.023312 2:-0.394519 3:-0.176152 4:0.365081 5:-0.324753 6:0.345436 7:0.026880 8:-0.470602 9:-0.467215 10:0.119284
1 1:-0.159849 2:0.020241 3:-0.379117 4:0.284092 5:-0.451717 6:0.272686 7:-0.432815 8:0.139987 9:-0.179057 10:0.481881
1 1:-0.011937 2:0.157125 3:-0.203819 4:-0.479769 5:-0.248498 6:0.213372 7:0.193724 8:0.396049 9:-0.549365 10:0.316203
1 1:-0.336907 2:0.260346 3:0.194932 4:0.434673 5:-0.086096 6:0.697352 7:-0.131452 8:0.151927 9:-0.174918 10:-0.164634
1 1:-0.057293 2:0.508029 3:-0.290252 4:-0.226916 5:-0.294159 6:0.466392 7:0.008764 8:0.336864 9:-0.243550 10:0.354916
1 1:0.098163 2:-0.008885 3:-0.115851 4:0.084247 5:0.183448 6:-0.208410 7:-0.749858 8:0.326864 9:-0.428695 10:0.199429
1 1:0.310443 2:-0.006746 3:-0.158115 4:0.469952 5:-0.351960 6:0.331992 7:-0.622900 8:-0.061021 9:-0.165014 10:0.068357
1 1:-0.191053 2:0.368216 3:-0.302476 4:0.252081 5:0.079225 6:-0.417833 7:-0.430392 8:0.098576 9:-0.544668 10:0.020015
1 1:-0.044407 2:0.167546 3:0.322198 4:0.447511 5:0.326396 6:0.008930 7:0.202220 8:0.668929 9:-0.207258 10:0.167182
1 1:0.176781 2:0.750589 3:0.022791 4:0.160221 5:0.015721 6:-0.113652 7:0.065095 8:-0.084698 9:-0.381454 10:0.457267
1 1:-0.284534 2:0.149271 3:-0.021182 4:0.188521 5:-0.283737 6:0.820863 7:-0.195625 8:-0.098728 9:0.240589 10:0.023423
1 1:-0.041414 2:-0.447165 3:-0.279731 4:-0.288419 5:0.231605 6:0.395367 7:0.058782 8:0.636504 9:-0.133093 10:-0.025116
1 1:0.326362 2:0.129194 3:-0.428614 4:-0.122253 5:0.419868 6:0.397886 7:-0.352983 8:0.355650 9:-0.057809 10:0.298517
1 1:0.182963 2:-0.075243 3:-0.240403 4:0.521892 5:0.147564 6:0.642387 7:-0.146845 8:0.235395 9:-0.193694 10:0.285956
1 1:0.025095 2:0.534467 3:0.138428 4:0.377928 5:0.055144 6:0.194553 7:-0.193244 8:0.035871 9:-0.607516 10:-0.321132
1 1:0.282823 2:0.051065 3:0.037493 4:0.226718 5:-0.513555 6:-0.235922 7:-0.434631 8:-0.417701 9:-0.230905 10:-0.358474
1 1:-0.407687 2:0.290217 3:0.104716 4:0.181267 5:-0.000723 6:-0.059128 7:-0.247162 8:-0.053492 9:-0.605167 10:0.521602
1 1:0.230890 2:0.520542 3:-0.386644 4:0.143505 5:0.146076 6:0.217188 7:-0.135853 8:0.017145 9:-0.517121 10:0.388542
1 1:-0.429829 2:0.152128 3:0.175997 4:0.273367 5:-0.010645 6:0.521670 7:-0.520371 8:-0.063321 9:-0.362353 10:-0.089728
1 1:0.209428 2:0.079079 3:-0.029511 4:-0.247624 5:0.068412 6:-0.444276 7:0.308706 8:-0.295801 9:-0.030327 10:0.708463
1 1:-0.404374 2:-0.168742 3:-0.085397 4:-0.100993 5:-0.428183 6:0.351337 7:-0.271334 8:0.292045 9:0.124259 10:0.556224
1 1:0.068978 2:0.345588 3:-0.167392 4:0.439641 5:-0.121213 6:0.468968 7:-0.443289 8:0.115292 9:-0.098667 10:0.447605
1 1:0.169086 2:-0.408675 3:-0.148990 4:0.227004 5:-0.117736 6:0.394183 7:-0.028339 8:0.460140 9:-0.587916 10:-0.056975
1 1:-0.551687 2:-0.211108 3:-0.217881 4:0.308713 5:-0.133901 6:-0.186720 7:-0.236792 8:0.373194 9:-0.306354 10:0.407809
1 1:0.086675 2:0.070233 3:-0.335839 4:0.459627 5:-0.220943 6:0.612580 7:-0.320668 8:-0.122760 9:-0.123471 10:-0.326032
1 1:-0.229482 2:-0.500099 3:-0.293753 4:-0.123326 5:-0.308075 6:-0.555947 7:0.012386 8:-0.028364 9:-0.435556 10:0.032933
1 1:-0.276069 2:-0.325192 3:-0.205619 4:0.584598 5:-0.359852 6:-0.144219 7:-0.260205 8:0.226290 9:-0.309165 10:0.263085
1 1:-0.299952 2:0.157337 3:-0.415886 4:0.191217 5:0.017100 6:-0.075514 7:0.037039 8:0.536571 9:-0.588910 10:0.183462
1 1:-0.342905 2:0.426677 3:0.044393 4:0.359543 5:-0.193885 6:-0.101972 7:0.199264 8:-0.464927 9:-0.514798 10:0.015855
1 1:-0.095487 2:0.380487 3:0.070365 4:0.048679 5:-0.207889 6:0.638346 7:-0.278789 8:0.521875 9:-0.087089 10:0.174430
1 1:-0.170173 2:0.274705 3:-0.220543 4:0.233837 5:0.116232 6:0.803731 7:-0.081055 8:-0.215572 9:-0.016162 10:0.281892
1 1:-0.202724 2:0.120309 3:-0.436275 4:0.096113 5:0.433468 6:-0.080003 7:0.651559 8:-0.108490 9:0.233090 10:-0.244808
1 1:-0.063213 2:0.188870 3:-0.138809 4:0.103748 5:-0.095243 6:0.709263 7:-0.419608 8:0.474394 9:0.006319 10:0.130440
1 1:0.011004 2:0.416735 3:-0.363032 4:-0.063995 5:-0.145957 6:0.009933 7:-0.213090 8:0.724201 9:-0.312426 10:0.037908
1 1:0.054040 2:-0.192249 3:-0.352031 4:0.317034 5:-0.079375 6:0.248624 7:-0.553221 8:-0.097125 9:-0.450975 10:0.385622
1 1:-0.029506 2:-0.323042 3:0.145612 4:-0.174615 5:-0.461707 6:-0.224150 7:-0.632143 8:0.094000 9:-0.406243 10:-0.078671
1 1:-0.316331 2:-0.511878 3:-0.384981 4:-0.096464 5:0.030215 6:0.189840 7:-0.145737 8:0.549780 9:-0.128646 10:0.321559
1 1:0.189800 2:-0.151551 3:0.496653 4:-0.252940 5:-0.453247 6:0.290624 7:0.003050 8:0.173511 9:-0.536833 10:0.148881
1 1:0.029126 2:-0.101370 3:-0.059850 4:0.724578 5:0.156251 6:0.460192 7:-0.045777 8:0.435584 9:-0.130760 10:0.123133
1 1:-0.154019 2:0.318092 3:-0.175347 4:0.163639 5:-0.482750 6:-0.114914 7:-0.181038 8:0.148380 9:-0.661688 10:0.280528
1 1:0.056278 2:0.549286 3:-0.391989 4:0.242257 5:-0.073452 6:0.229137 7:0.542234 8:0.084654 9:-0.341983 10:0.082093
1 1:0.223360 2:0.232227 3:0.524458 4:-0.218615 5:0.074850 6:0.079117 7:0.093294 8:0.677312 9:-0.298018 10:-0.072119
1 1:-0.345714 2:-0.254313 3:-0.514612 4:0.014965 5:-0.249735 6:0.191144 7:-0.111126 8:0.434349 9:0.164381 10:-0.473101
1 1:0.145609 2:-0.641791 3:-0.351038 4:0.521113 5:-0.185166 6:0.106868 7:-0.036831 8:-0.225890 9:0.239364 10:-0.129348
1 1:-0.553236 2:0.245322 3:-0.091104 4:-0.293850 5:-0.063589 6:0.401368 7:0.041032 8:0.547487 9:0.265894 10:0.042830
1 1:-0.323703 2:0.129646 3:-0.195041 4:0.285170 5:0.237820 6:0.009484 7:-0.635319 8:0.271423 9:-0.392120 10:-0.267092
1 1:-0.126819 2:-0.044349 3:-0.632968 4:0.253102 5:-0.072791 6:0.451911 7:0.044093 8:-0.207220 9:0.145258 10:-0.491666
1 1:-0.175726 2:0.376942 3:0.090704 4:0.591910 5:0.233876 6:0.095784 7:0.124761 8:0.311941 9:-0.360494 10:0.402181
1 1:-0.099233 2:-0.137446 3:-0.690486 4:-0.248293 5:-0.068749 6:0.324374 7:-0.137499 8:0.347737 9:0.303253 10:0.301839
1 1:0.258726 2:0.508478 3:-0.005482 4:0.041283 5:-0.333852 6:0.568380 7:-0.226014 8:-0.249517 9:-0.353224 10:-0.012455
1 1:-0.362082 2:-0.242088 3:-0.412420 4:0.382302 5:-0.014884 6:0.154477 7:-0.631262 8:0.071774 9:0.197516 10:-0.165240
1 1:-0.420240 2:-0.003499 3:0.309605 4:0.267169 5:-0.296319 6:0.249541 7:-0.660147 8:-0.126313 9:-0.089055 10:0.215397
1 1:0.006232 2:0.465697 3:-0.311475 4:0.248412 5:-0.182955 6:0.109385 7:0.358972 8:0.644516 9:-0.110593 10:-0.149774
1 1:-0.433578 2:0.576027 3:0.034827 4:0.021722 5:0.174660 6:0.054169 7:-0.518471 8:0.017332 9:-0.284941 10:0.307853
1 1:-0.454584 2:0.485946 3:-0.400716 4:0.349333 5:-0.084454 6:-0.223269 7:0.020919 8:-0.083345 9:0.253962 10:0.381759
1 1:-0.372995 2:0.554765 3:0.118443 4:0.094037 5:-0.038868 6:-0.320933 7:-0.434538 8:-0.249476 9:0.402719 10:0.111740
1 1:-0.015527 2:-0.642737 3:-0.141354 4:-0.057355 5:-0.661167 6:-0.287359 7:-0.128818 8:0.153963 9:0.051015 10:0.027554
1 1:-0.167708 2:0.313319 3:0.397308 4:0.064609 5:-0.129613 6:-0.101169 7:-0.391548 8:-0.217248 9:0.191256 10:0.668997
1 1:-0.321080 2:0.107747 3:0.060902 4:0.444906 5:-0.374515 6:0.610686 7:-0.108357 8:-0.073144 9:0.037422 10:0.389817
1 1:0.212876 2:0.181480 3:-0.008248 4:-0.456638 5:-0.726469 6:0.101404 7:-0.168354 8:0.058312 9:-0.208519 10:-0.316068
1 1:0.350230 2:0.272068 3:-0.194558 4:-0.167762 5:-0.234180 6:0.117939 7:-0.618810 8:-0.081705 9:-0.204316 10:-0.487056
1 1:-0.491568 2:-0.226940 3:0.285373 4:0.094983 5:-0.492134 6:0.493544 7:0.030851 8:0.358095 9:0.000317 10:0.037872
1 1:0.414678 2:0.434057 3:-0.501648 4:-0.199887 5:0.167828 6:0.304140 7:0.193127 8:0.125083 9:-0.047521 10:0.414923
1 1:-0.148870 2:-0.161782 3:-0.080046 4:0.636165 5:0.263933 6:-0.183757 7:-0.056114 8:0.354256 9:-0.511734 10:0.215885
1 1:-0.015431 2:0.363953 3:-0.288619 4:0.406953 5:-0.123776 6:-0.131465 7:-0.444454 8:0.234728 9:-0.496770 10:0.293884
1 1:-0.021221 2:0.617377 3:-0.419313 4:0.036019 5:-0.176100 6:0.281540 7:0.328643 8:-0.471627 9:0.020860 10:0.011173
1 1:-0.041657 2:-0.222306 3:-0.582617 4:0.332028 5:-0.168491 6:-0.075619 7:-0.186025 8:-0.328967 9:-0.502138 10:-0.264734
1 1:-0.142472 2:0.171649 3:-0.629163 4:0.068027 5:0.265137 6:0.195101 7:0.029072 8:0.586353 9:0.020961 10:-0.310336
1 1:0.174788 2:0.278439 3:-0.352430 4:0.416785 5:-0.177139 6:0.466504 7:0.000518 8:0.139204 9:-0.553519 10:0.138702
1 1:-0.373981 2:-0.157117 3:0.242863 4:0.212821 5:0.091974 6:0.573349 7:-0.251547 8:0.336463 9:-0.460028 10:0.076681
1 1:0.201179 2:0.189446 3:0.101576 4:0.000229 5:0.672674 6:-0.140246 7:0.061588 8:0.569082 9:-0.246400 10:0.229781
1 1:-0.239200 2:0.589655 3:0.116965 4:-0.069802 5:-0.297790 6:0.556892 7:0.079953 8:0.006307 9:0.345879 10:-0.227301
1 1:-0.405827 2:0.130564 3:-0.362397 4:-0.019596 5:-0.671613 6:-0.372761 7:0.053226 8:0.113508 9:0.100366 10:0.265962
1 1:-0.536102 2:0.048987 3:0.022445 4:0.050626 5:-0.124632 6:0.506105 7:-0.518720 8:0.051878 9:-0.148880 10:0.376199
